26
xyz format
O 67.902 36.888 68.453
O 65.077 35.392 65.902
O 64.688 38.506 65.185
O 65.478 33.409 63.918
O 65.797 38.013 67.021
O 64.287 33.038 66.929
O 67.38 33.776 65.297
O 62.493 38.106 65.071
H 67.124 39.848 68.929
H 68.211 33.381 65.003
H 66.866 33.021 65.611
H 66.036 38.947 67.084
H 65.612 37.761 67.934
H 64.729 33.228 66.092
H 63.603 38.591 67.585
H 63.649 40.022 67.079
H 66.157 32.849 63.522
H 64.693 32.847 63.925
H 64.305 39.34 64.884
H 64.798 37.997 64.373
H 62.327 38.719 65.798
H 62.859 37.326 65.507
H 68.181 37.585 67.846
H 67.299 36.35 67.923
H 64.79 36.308 65.999
H 65.94 35.375 66.335
