108
xyz format
Na 37.083 30.36 63.863
O 41.417 32.357 57.638
O 42.322 26.668 57.849
O 43.578 31.445 62.935
O 35.382 34.223 58.415
O 34.495 31.565 59.76
O 39.486 34.653 58.813
O 36.863 27.526 57.835
O 37.25 27.481 60.692
O 39.114 25.438 59.867
O 38.103 30.039 55.727
O 40.034 33.806 65.611
O 40.527 28.843 66.644
O 38.841 33.212 60.586
O 36.116 32.709 54.784
O 41.856 27.655 60.228
O 43.991 33.441 61.356
O 35.294 34.979 60.513
O 40.033 31.071 63.284
O 37.61 34.905 56.095
O 36.433 33.152 65.915
O 36.3 32.58 61.624
O 40.933 30.223 57.005
O 39.505 27.216 58.129
O 37.642 35.601 63.734
O 44.021 30.799 56.917
O 37.958 37.179 61.732
O 33.747 32.487 63.103
O 36.324 31.597 57.694
O 39.719 29.182 61.997
O 35.27 29.077 56.845
O 40.623 27.388 64.392
O 41.656 30.611 61.007
O 32.852 29.488 55.893
O 37.524 35.336 60.016
O 36.833 30.582 59.644
O 41.42 33.649 61.33
H 35.571 31.726 57.103
H 37.068 31.469 57.093
H 35.257 35.905 60.786
H 35.122 34.493 61.329
H 38.768 36.685 61.552
H 33.743 31.688 63.645
H 44.03 30.982 57.865
H 43.11 30.532 56.744
H 37.202 36.222 59.808
H 37.339 34.831 59.214
H 35.379 32.294 61.64
H 36.662 32.235 62.45
H 36.407 33.866 65.267
H 37.083 32.537 65.554
H 39.199 27.719 57.364
H 39.415 26.297 57.849
H 38.323 35.168 55.5
H 36.9 34.637 55.498
H 41.732 31.202 61.766
H 42.247 29.88 61.225
H 36.225 31.774 54.999
H 35.345 32.975 55.3
H 40.431 30.327 63.752
H 39.46 31.478 63.946
H 41.213 27.508 63.638
H 40.255 28.268 64.538
H 38.648 32.328 55.075
H 37.736 35.523 64.691
H 38.526 35.402 63.4
H 44.592 32.997 60.745
H 44.571 33.751 62.063
H 41.204 28.15 59.717
H 41.472 27.616 61.113
H 39.562 28.341 62.445
H 39.632 28.961 61.061
H 39.908 29.566 66.807
H 41.209 28.969 67.316
H 35.544 29.726 56.185
H 35.191 28.257 56.341
H 38.748 33.656 61.438
H 39.191 32.343 60.818
H 38.588 29.448 55.137
H 38.217 29.638 56.598
H 39.739 34.537 65.054
H 39.367 33.124 65.468
H 37.103 29.969 58.949
H 37.628 31.106 59.808
H 41.913 33.131 60.682
H 40.907 34.263 60.791
H 40.009 25.325 60.212
H 38.604 25.714 60.638
H 37.779 28.089 60.16
H 37.59 27.604 61.587
H 36.299 27.977 58.476
H 37.327 26.865 58.364
H 42.186 28.313 55.991
H 34.609 31.035 58.962
H 34.044 30.967 60.37
H 39.213 35.029 57.967
H 39.746 35.424 59.333
H 35.952 33.788 57.769
H 34.517 34.233 57.987
H 40.309 30.369 56.284
H 40.656 29.378 57.381
H 32.861 28.632 56.338
H 32.815 30.124 56.618
H 35.655 35.927 56.78
H 43.912 31.371 62.032
H 43.618 30.541 63.269
H 41.971 31.801 58.2
H 40.868 32.842 58.267
