32
xyz format
O 41.967 35.9 58.181
O 40.595 39.112 59.971
O 39.486 34.653 58.813
O 44.171 35.509 60.377
O 42.267 41.582 63.243
O 42.649 37.545 64.368
O 42.12 39.148 62.0
O 44.969 37.1 62.414
O 41.801 34.548 56.395
O 44.481 39.194 63.317
O 42.502 38.243 59.304
H 41.532 41.635 62.619
H 43.049 41.635 62.68
H 42.595 39.779 61.443
H 41.235 39.526 62.069
H 45.245 36.179 62.327
H 44.616 37.317 61.542
H 45.05 35.113 60.411
H 44.181 36.018 59.556
H 42.492 38.443 64.05
H 42.618 39.181 59.111
H 43.044 38.102 60.091
H 42.65 34.306 56.004
H 41.201 34.581 55.639
H 41.21 36.493 58.099
H 42.723 36.461 57.965
H 39.746 35.424 59.333
H 43.075 34.891 53.832
H 44.052 39.967 63.705
H 44.709 38.651 64.082
H 40.341 39.909 59.488
H 39.814 38.905 60.499
