25
xyz format
O 48.127 70.555 66.133
O 46.05 68.408 64.582
O 44.98 72.035 63.862
O 47.738 71.315 68.637
O 42.727 71.353 65.521
O 45.047 71.571 66.799
O 47.029 71.051 63.464
O 40.902 70.103 67.319
H 46.532 73.232 62.763
H 45.145 70.679 66.445
H 44.355 71.479 67.466
H 46.866 70.1 63.435
H 46.968 71.265 64.403
H 40.694 70.853 66.749
H 41.151 69.406 66.699
H 49.083 70.443 66.059
H 47.788 69.651 66.113
H 41.969 71.868 65.215
H 42.797 70.642 64.871
H 44.581 72.354 64.681
H 44.642 71.135 63.778
H 45.273 68.9 64.875
H 46.372 67.988 65.39
H 48.142 71.829 67.926
H 47.739 70.412 68.295
