26
xyz format
O 24.314 48.324 61.396
O 26.367 48.11 66.415
O 25.907 42.907 64.135
O 26.832 46.396 62.36
O 26.63 45.558 65.002
O 26.988 49.417 61.918
O 25.527 49.277 63.578
O 27.781 50.677 65.406
O 28.751 48.204 64.379
H 28.478 50.031 65.579
H 26.984 50.251 65.744
H 29.372 47.839 63.736
H 28.094 48.654 63.834
H 26.605 48.831 61.253
H 27.469 45.352 65.433
H 26.06 44.817 65.246
H 25.168 50.172 63.534
H 25.403 49.025 64.501
H 27.576 46.433 62.974
H 26.07 46.242 62.932
H 25.478 43.514 63.519
H 25.64 51.94 65.319
H 23.9 48.569 62.233
H 24.793 47.512 61.606
H 26.978 48.004 65.675
H 26.923 47.972 67.192
