114
xyz format
O 32.484 39.866 55.898
O 37.458 38.603 54.247
O 38.806 41.967 52.515
O 35.84 42.538 57.24
O 33.462 42.924 54.583
O 36.242 36.632 49.531
O 34.633 35.421 54.0
O 32.809 39.934 49.526
O 37.603 39.466 51.337
O 29.781 43.309 53.897
O 39.64 39.576 56.348
O 34.737 41.613 60.558
O 35.795 40.644 50.88
O 36.91 40.031 58.631
O 36.817 37.38 51.675
O 31.308 41.03 53.868
O 37.56 35.072 53.085
O 33.645 39.909 52.16
O 34.587 38.378 54.556
O 33.708 43.194 58.924
O 39.99 39.534 51.904
O 34.353 42.37 49.495
O 32.374 37.163 51.355
O 36.116 32.709 54.784
O 33.464 31.615 55.099
O 33.097 33.851 52.257
O 37.61 34.905 56.095
O 34.204 35.282 49.475
O 36.704 32.63 52.673
O 35.709 42.973 52.475
O 30.345 37.97 52.972
O 37.175 44.512 56.397
O 35.19 41.251 55.002
O 38.171 43.125 54.991
O 35.058 36.646 57.021
O 38.327 32.878 54.35
O 32.627 38.001 53.376
O 31.732 42.196 51.333
H 37.584 44.321 57.251
H 35.706 41.815 54.412
H 34.861 40.552 54.423
H 29.849 38.465 52.308
H 34.85 43.391 52.336
H 36.027 42.8 51.581
H 37.012 32.678 51.759
H 35.766 32.422 52.588
H 34.703 35.12 50.286
H 33.283 35.267 49.765
H 38.323 35.168 55.5
H 36.9 34.637 55.498
H 36.225 31.774 54.999
H 35.345 32.975 55.3
H 39.666 38.844 52.496
H 40.334 40.208 52.503
H 32.236 36.213 51.457
H 32.632 37.259 50.43
H 32.642 37.072 53.638
H 32.413 38.466 54.194
H 35.195 42.772 49.247
H 34.193 42.704 50.387
H 39.035 33.522 54.22
H 38.648 32.328 55.075
H 37.329 43.305 54.555
H 38.829 43.35 54.322
H 31.252 34.53 50.451
H 33.629 33.051 52.158
H 33.741 34.566 52.179
H 34.017 31.524 54.313
H 32.973 32.431 54.941
H 32.995 43.844 58.953
H 34.51 43.731 58.954
H 34.836 38.32 55.487
H 35.354 38.023 54.09
H 33.37 38.796 47.629
H 29.035 42.26 51.285
H 32.687 40.521 50.282
H 33.485 39.313 49.824
H 37.5 35.232 52.134
H 36.66 34.825 53.332
H 34.244 39.272 52.57
H 33.274 40.39 52.91
H 31.805 41.479 54.562
H 31.043 40.197 54.278
H 36.19 37.018 52.314
H 37.643 37.435 52.171
H 37.257 40.697 59.238
H 36.107 39.719 59.069
H 32.119 42.614 52.112
H 31.17 41.503 51.7
H 35.355 41.646 59.817
H 36.083 40.909 49.998
H 35.449 39.752 50.751
H 39.273 40.351 55.904
H 39.971 39.032 55.623
H 29.567 42.373 54.0
H 36.395 42.325 58.001
H 36.4 42.328 56.482
H 33.515 43.922 56.783
H 37.928 40.373 51.272
H 37.557 39.172 50.419
H 34.194 43.554 54.589
H 33.568 42.457 53.745
H 32.815 30.124 56.618
H 35.487 37.056 49.103
H 36.938 37.299 49.483
H 33.017 39.205 56.356
H 38.569 41.421 53.276
H 38.049 42.557 52.412
H 34.26 36.462 56.511
H 35.655 35.927 56.78
H 33.991 34.969 54.562
H 35.22 35.859 54.628
H 37.109 39.27 54.851
H 37.779 37.907 54.834
