38
xyz format
O 50.752 72.257 50.495
O 51.937 69.553 51.704
O 51.37 72.079 54.307
O 49.158 68.118 50.586
O 47.662 68.301 55.971
O 51.532 69.267 56.597
O 52.438 69.578 54.231
O 48.334 69.772 54.208
O 49.8 68.0 55.179
O 50.798 67.973 52.906
O 46.644 68.847 52.456
O 49.013 70.417 51.058
O 47.396 65.304 52.568
H 49.515 64.756 57.018
H 47.484 65.666 53.458
H 49.916 72.436 52.638
H 50.252 67.172 55.383
H 49.229 67.773 54.435
H 48.023 68.256 56.865
H 46.725 68.488 56.111
H 46.658 70.999 53.483
H 46.798 67.916 52.657
H 52.193 69.939 56.391
H 51.852 68.481 56.136
H 52.552 68.636 54.056
H 51.513 69.742 54.01
H 48.784 70.064 53.405
H 48.371 70.545 54.786
H 48.31 66.182 55.679
H 49.258 66.485 52.304
H 50.957 71.316 50.554
H 50.13 68.548 52.511
H 51.194 67.527 52.147
H 52.024 71.688 54.9
H 51.909 69.275 50.78
H 50.077 68.005 50.313
H 48.192 69.965 51.288
H 48.72 71.282 50.748
