37
xyz format
O 28.13 60.544 48.062
O 26.463 66.289 46.959
O 24.982 60.288 44.773
O 26.283 62.573 46.28
O 24.341 60.734 42.301
O 29.459 67.221 47.295
O 28.566 60.137 43.225
O 26.658 61.408 43.162
O 27.453 65.675 43.042
O 28.05 64.412 46.663
O 24.032 62.468 48.26
O 27.673 64.819 49.37
O 29.996 63.967 43.94
H 28.679 65.066 46.992
H 28.06 64.545 45.707
H 24.515 63.302 48.208
H 26.83 61.877 42.336
H 27.09 61.954 43.831
H 27.813 66.422 43.537
H 27.881 64.907 43.442
H 28.305 59.886 44.12
H 29.344 59.592 43.052
H 28.539 67.456 47.118
H 29.961 67.804 46.711
H 29.439 63.372 44.457
H 24.962 60.045 42.57
H 24.467 61.427 42.962
H 26.073 65.439 46.72
H 26.753 66.655 46.114
H 26.45 62.792 47.205
H 25.925 61.678 46.317
H 28.941 60.445 47.547
H 27.523 59.914 47.655
H 24.38 59.622 45.128
H 25.858 59.932 44.967
H 28.057 65.647 49.056
H 27.079 64.556 48.656
