100
xyz format
O 27.281 63.282 40.092
O 31.745 65.226 35.258
O 32.012 59.02 39.058
O 33.823 57.49 36.037
O 33.571 60.472 32.065
O 32.508 60.595 30.112
O 36.922 62.85 34.472
O 33.615 62.512 33.947
O 31.211 56.956 35.773
O 31.612 63.976 40.661
O 29.415 64.564 38.189
O 29.251 61.711 40.82
O 32.022 63.804 38.5
O 36.772 61.67 37.716
O 35.277 59.994 30.358
O 34.412 62.958 30.545
O 35.041 64.222 34.011
O 35.254 60.288 36.134
O 31.361 60.244 34.288
O 33.747 62.702 36.677
O 29.41 58.085 34.515
O 29.615 57.402 37.347
O 31.295 58.776 31.78
O 27.34 60.318 36.531
O 31.129 63.323 33.11
O 35.423 61.272 34.117
O 29.251 62.415 35.392
O 35.321 64.73 36.865
O 31.325 60.57 36.467
O 33.79 61.374 38.43
O 28.058 60.946 39.135
O 30.686 61.382 39.184
O 36.132 57.776 33.006
O 26.595 57.174 35.885
H 34.764 60.575 34.009
H 35.759 61.41 33.223
H 30.393 60.477 39.352
H 31.457 61.483 39.757
H 30.842 62.633 32.5
H 31.678 63.899 32.563
H 30.821 59.229 31.071
H 31.987 58.287 31.317
H 32.994 60.84 38.32
H 33.472 62.172 38.87
H 28.932 57.254 34.635
H 29.321 58.526 35.369
H 36.211 60.16 30.536
H 35.26 59.762 29.421
H 31.256 63.303 38.192
H 32.212 64.404 37.769
H 33.749 61.978 41.043
H 29.497 65.504 38.392
H 29.015 64.553 37.311
H 29.434 62.407 41.463
H 28.611 61.145 41.27
H 30.651 64.063 40.675
H 31.776 63.158 41.147
H 36.206 60.265 35.973
H 35.141 59.728 36.912
H 30.871 61.025 34.002
H 30.929 59.518 33.821
H 33.055 63.03 36.09
H 34.397 62.319 36.074
H 35.814 61.778 37.667
H 30.595 56.373 33.112
H 33.497 63.048 30.838
H 34.923 63.048 31.359
H 35.579 64.437 33.239
H 26.496 60.509 36.96
H 27.613 61.172 36.173
H 34.19 64.637 33.82
H 35.601 64.16 36.137
H 34.38 64.865 36.701
H 29.046 62.154 34.486
H 30.196 62.615 35.364
H 31.405 64.426 35.679
H 32.254 65.654 35.958
H 31.481 57.862 35.968
H 31.623 56.437 36.475
H 26.115 58.011 35.921
H 26.764 57.047 34.943
H 35.414 57.95 32.385
H 33.479 62.718 33.014
H 32.852 61.967 34.175
H 36.872 62.404 35.326
H 33.332 61.058 29.913
H 32.657 59.705 29.771
H 32.672 60.473 32.417
H 33.889 59.58 32.252
H 31.262 61.334 37.055
H 31.403 59.822 37.072
H 33.57 57.614 35.114
H 31.829 58.86 39.992
H 32.58 58.282 38.806
H 28.169 61.81 38.719
H 28.383 60.327 38.469
H 28.839 57.029 36.91
H 29.278 58.202 37.768
H 27.809 63.929 39.608
H 26.673 63.824 40.611
