47
xyz format
O 33.267 49.089 41.3
O 33.548 46.777 43.633
O 31.749 47.537 40.849
O 36.678 46.875 40.602
O 36.405 46.299 37.519
O 30.816 47.124 43.877
O 35.034 50.578 40.027
O 29.309 49.506 45.239
O 34.463 48.203 38.824
O 29.516 50.703 41.081
O 30.83 45.234 41.651
O 30.721 49.255 42.815
O 35.656 48.968 42.243
O 32.8 48.774 45.137
O 32.19 51.182 42.566
O 33.689 45.502 38.67
H 34.426 50.687 44.28
H 33.815 47.679 38.335
H 35.196 48.297 38.203
H 33.686 49.679 37.39
H 30.213 50.563 40.428
H 29.982 51.086 41.835
H 30.041 49.453 45.866
H 29.304 50.434 44.971
H 31.205 46.474 44.475
H 30.426 47.777 44.472
H 31.548 48.788 42.642
H 30.901 49.748 43.625
H 35.973 50.796 39.986
H 34.759 50.573 39.101
H 33.075 43.562 40.895
H 30.495 45.408 42.54
H 31.776 45.095 41.786
H 36.273 47.394 39.895
H 34.736 45.064 36.786
H 30.814 47.356 41.009
H 32.056 46.755 40.374
H 33.205 45.976 43.217
H 35.235 49.822 42.084
H 33.873 45.615 39.611
H 32.736 45.639 38.605
H 32.606 49.713 45.027
H 32.481 51.351 43.471
H 32.977 51.359 42.036
H 32.1 50.622 38.596
H 33.096 49.687 40.562
H 33.879 48.44 40.931
