40
xyz format
O 39.239 72.091 57.694
O 37.736 73.589 59.468
O 39.659 72.374 53.94
O 35.516 72.018 57.872
O 36.026 71.251 53.232
O 40.217 74.827 57.991
O 39.046 75.707 55.203
O 36.625 68.739 52.341
O 39.761 69.231 57.438
O 37.313 73.439 56.155
O 40.191 69.018 55.291
O 34.86 72.365 55.699
O 37.832 70.091 54.695
H 36.453 73.853 56.297
H 35.393 70.153 56.237
H 37.26 72.62 56.663
H 35.662 72.094 55.234
H 34.194 72.408 55.001
H 38.445 70.545 54.104
H 37.445 70.805 55.217
H 39.384 68.564 55.019
H 40.39 69.599 54.546
H 38.851 68.923 57.532
H 38.644 75.024 54.652
H 39.303 76.39 54.571
H 40.659 73.98 58.129
H 39.705 74.69 57.184
H 35.828 72.175 53.035
H 35.158 70.861 53.398
H 36.207 72.143 58.535
H 37.408 69.092 52.781
H 35.931 68.824 53.007
H 40.362 72.142 54.559
H 39.028 72.864 54.482
H 38.722 71.277 57.657
H 39.444 72.275 56.769
H 38.579 73.954 59.171
H 37.079 74.11 58.99
H 41.193 73.543 56.038
H 42.145 72.365 56.14
