22
xyz format
O 25.972 52.103 35.086
O 31.434 51.37 36.637
O 25.132 49.206 37.179
O 30.16 50.975 34.524
O 30.109 48.309 36.131
O 29.174 51.139 37.763
O 29.254 46.596 38.507
O 27.812 50.917 34.873
O 27.327 49.045 38.502
H 29.477 50.486 37.119
H 28.842 51.862 37.216
H 27.641 50.188 34.264
H 28.034 51.655 34.291
H 29.618 47.371 38.061
H 28.81 53.902 36.316
H 26.772 48.278 38.314
H 28.019 48.998 37.83
H 29.88 50.168 34.976
H 24.568 49.939 36.902
H 25.862 49.226 36.547
H 25.553 51.522 35.733
H 26.54 52.671 35.622
