27
xyz format
O 64.275 48.624 42.465
O 61.097 47.285 39.771
O 65.778 46.918 42.973
O 60.062 44.345 41.674
O 58.972 44.967 38.96
O 61.369 48.486 42.344
O 60.701 48.478 37.688
O 65.993 48.457 40.905
O 59.438 46.785 42.027
O 59.719 49.752 39.534
O 63.232 47.84 39.281
H 61.811 47.628 42.321
H 61.969 49.066 41.859
H 58.173 45.031 39.498
H 59.501 45.723 39.244
H 60.613 45.028 41.273
H 61.651 46.72 40.324
H 60.583 47.797 40.408
H 63.962 45.689 41.765
H 65.426 48.856 40.233
H 61.282 48.21 36.965
H 60.556 49.419 37.527
H 63.749 47.196 39.78
H 62.991 48.502 39.941
H 58.898 46.42 41.316
H 63.637 48.505 43.18
H 64.095 47.884 41.872
