51
xyz format
O 28.288 44.115 42.157
O 27.779 46.239 43.778
O 25.063 46.875 39.686
O 25.132 49.206 37.179
O 27.21 44.915 40.162
O 26.374 53.253 41.419
O 26.284 47.246 41.59
O 22.985 51.131 41.585
O 27.125 44.516 37.501
O 26.765 48.709 43.978
O 23.17 48.138 40.886
O 27.037 51.918 43.553
O 27.318 50.233 41.013
O 23.707 51.944 43.647
O 29.516 50.703 41.081
O 25.801 44.315 43.516
O 29.254 46.596 38.507
O 27.327 49.045 38.502
H 24.196 51.319 44.196
H 24.261 52.735 43.651
H 27.783 51.795 44.153
H 26.281 52.019 44.145
H 23.726 50.818 41.051
H 22.62 51.859 41.067
H 29.304 50.434 44.971
H 27.721 48.576 43.969
H 26.547 48.869 43.051
H 27.193 44.968 36.651
H 25.695 46.54 41.886
H 27.167 46.881 41.728
H 29.152 45.95 37.797
H 27.49 50.506 41.923
H 26.363 50.095 40.992
H 26.188 44.541 42.661
H 26.428 43.685 43.892
H 26.455 52.316 41.203
H 25.878 53.256 42.247
H 26.772 48.278 38.314
H 28.019 48.998 37.83
H 26.747 44.193 39.719
H 27.744 45.309 39.46
H 23.022 47.849 39.977
H 22.613 48.921 40.972
H 24.568 49.939 36.902
H 25.862 49.226 36.547
H 28.468 46.382 44.439
H 27.003 46.003 44.302
H 24.688 47.016 38.807
H 25.973 46.61 39.506
H 28.386 45.065 42.017
H 28.785 43.95 42.968
