97
xyz format
O 40.864 56.219 58.793
O 39.083 52.778 54.927
O 38.685 57.888 54.719
O 39.93 54.031 60.539
O 39.375 60.307 55.966
O 38.696 57.437 57.182
O 37.775 60.29 59.145
O 42.458 57.269 53.963
O 42.547 54.312 57.931
O 33.878 56.475 59.72
O 36.04 57.475 57.67
O 38.772 59.287 62.177
O 44.16 58.405 59.33
O 40.293 57.193 52.427
O 39.605 58.243 60.413
O 42.88 56.545 56.125
O 41.098 59.129 57.18
O 38.01 56.638 51.62
O 36.959 55.005 57.413
O 42.262 60.957 56.794
O 41.194 61.252 59.64
O 40.225 56.434 62.301
O 35.656 53.484 58.677
O 36.446 54.914 54.061
O 36.941 52.18 56.464
O 41.558 54.762 51.557
O 41.164 55.004 53.881
O 40.52 56.216 56.62
O 38.043 57.227 62.013
O 38.712 52.742 57.567
O 41.481 52.655 56.237
O 37.492 54.612 60.328
O 40.618 48.928 58.161
H 36.12 52.629 56.226
H 38.003 54.412 59.534
H 36.734 55.108 59.993
H 37.253 55.153 54.533
H 35.792 54.81 54.764
H 42.386 54.555 52.01
H 35.825 57.749 61.713
H 36.752 58.801 61.131
H 40.362 56.116 61.4
H 40.145 58.063 52.036
H 40.361 56.607 51.663
H 40.071 58.592 59.643
H 38.684 58.209 60.128
H 43.74 58.773 58.543
H 41.165 51.824 55.86
H 42.43 52.639 56.063
H 42.193 61.076 55.838
H 43.158 60.619 56.919
H 40.917 61.518 58.754
H 41.545 60.362 59.513
H 36.375 55.472 56.802
H 37.454 55.713 57.843
H 38.015 57.433 52.167
H 40.479 59.616 57.739
H 41.561 58.553 57.801
H 34.231 59.196 59.797
H 42.498 57.431 56.156
H 43.628 56.596 56.734
H 39.379 58.815 62.761
H 37.711 56.548 61.413
H 37.732 56.938 62.88
H 38.828 53.699 57.606
H 38.133 52.55 58.315
H 42.731 52.136 53.726
H 36.382 58.188 58.224
H 35.6 56.889 58.297
H 40.33 55.489 53.83
H 40.058 55.421 56.914
H 40.095 56.43 55.779
H 41.209 54.723 54.803
H 33.149 55.999 60.135
H 34.18 57.08 60.409
H 41.707 54.201 58.393
H 42.289 54.643 57.062
H 42.181 57.907 53.293
H 42.713 56.493 53.448
H 38.937 58.316 56.863
H 39.014 57.43 58.093
H 39.561 53.435 55.449
H 44.534 58.638 56.496
H 38.956 58.362 53.923
H 38.244 57.1 54.377
H 38.888 61.13 56.094
H 39.854 60.451 55.14
H 37.657 60.541 60.07
H 38.196 61.064 58.75
H 35.99 53.102 59.499
H 35.028 54.154 58.974
H 38.881 54.256 52.7
H 39.677 54.028 61.471
H 40.867 53.801 60.555
H 36.591 59.928 56.595
H 40.083 55.86 59.234
H 41.464 56.423 59.521
