46
xyz format
Na 46.336 56.344 34.969
O 44.251 57.008 30.865
O 41.971 55.703 32.339
O 47.059 58.37 29.734
O 49.874 57.374 30.519
O 48.387 53.642 30.03
O 48.247 55.485 32.451
O 49.969 54.723 33.618
O 44.469 54.002 29.164
O 44.15 58.19 34.028
O 48.282 52.62 32.825
O 46.539 55.3 29.686
O 42.724 55.002 30.394
O 43.822 55.229 35.077
O 45.371 53.799 33.656
O 47.192 56.643 28.071
O 46.129 57.247 32.393
O 46.74 54.581 27.217
H 43.45 54.072 32.251
H 47.462 54.049 27.574
H 43.471 54.553 34.484
H 44.172 55.9 34.478
H 45.892 54.185 32.94
H 41.815 54.677 30.39
H 42.686 55.798 29.85
H 45.809 55.929 29.748
H 46.826 55.191 30.601
H 46.297 59.453 32.307
H 45.09 58.034 34.185
H 47.557 52.831 33.426
H 44.719 54.05 30.095
H 47.015 57.312 32.772
H 45.985 56.297 32.307
H 47.995 56.14 28.255
H 47.433 57.19 27.313
H 48.721 56.157 31.944
H 48.452 54.663 31.989
H 50.553 56.687 30.536
H 46.243 58.371 30.251
H 47.538 57.601 30.065
H 42.414 55.966 33.156
H 48.591 54.439 29.524
H 47.55 53.341 29.656
H 46.015 52.735 31.29
H 43.898 56.461 31.578
H 44.254 57.898 31.239
