62
xyz format
O 50.845 32.383 67.979
O 52.341 36.905 65.243
O 50.543 34.192 69.4
O 53.036 35.388 62.771
O 50.889 33.83 72.315
O 51.524 32.665 64.318
O 55.207 36.551 65.795
O 49.349 33.687 65.75
O 53.39 32.551 66.205
O 48.415 31.171 65.467
O 54.289 33.527 70.004
O 49.193 35.31 61.363
O 48.289 35.566 64.494
O 53.773 38.205 67.29
O 53.99 33.576 63.828
O 50.762 35.421 65.634
O 52.395 35.805 68.419
O 48.66 36.122 67.8
O 56.777 34.943 65.455
O 49.787 33.289 62.008
H 53.964 37.579 67.999
H 51.47 34.373 60.993
H 52.714 33.502 60.993
H 47.872 35.259 65.308
H 48.046 34.895 63.844
H 47.833 31.934 63.482
H 49.904 32.808 62.836
H 48.849 33.178 61.809
H 53.575 33.178 69.457
H 49.82 32.925 66.111
H 49.622 33.708 64.825
H 52.53 32.303 66.566
H 53.42 33.509 66.321
H 50.968 31.906 64.534
H 52.2 32.296 63.737
H 55.885 37.096 66.214
H 54.988 35.897 66.47
H 47.89 31.934 65.741
H 48.703 30.78 66.301
H 51.148 34.834 66.296
H 49.974 35.771 66.07
H 54.013 33.419 62.875
H 54.784 34.099 63.993
H 50.749 36.722 63.731
H 51.212 33.412 71.506
H 50.598 34.702 72.021
H 51.019 34.888 69.87
H 49.821 34.662 68.965
H 53.013 36.68 65.899
H 52.112 35.179 62.96
H 53.352 35.79 63.59
H 53.073 35.545 67.782
H 51.732 36.252 67.878
H 47.797 35.702 67.91
H 48.57 36.957 68.276
H 57.332 35.717 65.296
H 56.898 34.764 66.396
H 48.236 35.426 61.313
H 49.452 35.86 62.113
H 51.704 37.434 65.739
H 51.326 32.17 68.789
H 49.923 32.415 68.262
