71
xyz format
O 30.247 50.397 57.83
O 31.718 50.328 50.467
O 30.885 47.152 58.49
O 32.229 48.197 51.93
O 33.462 42.924 54.583
O 27.97 51.193 54.054
O 29.977 50.025 55.681
O 29.781 43.309 53.897
O 32.823 52.029 52.37
O 29.856 46.113 56.703
O 30.114 49.385 53.351
O 27.815 49.028 59.144
O 28.487 47.652 53.572
O 32.256 46.71 56.603
O 34.184 48.452 59.501
O 32.081 47.191 54.461
O 29.118 46.178 59.329
O 32.846 50.038 56.493
O 31.515 45.151 53.129
O 28.997 45.557 52.378
O 30.204 48.041 61.625
O 33.494 44.757 56.3
O 34.262 46.965 52.847
O 28.73 51.543 51.349
H 32.291 44.825 53.602
H 30.898 45.384 53.834
H 34.721 49.736 50.412
H 34.362 47.513 52.059
H 33.562 46.345 52.608
H 29.982 47.486 60.866
H 32.973 49.305 57.108
H 32.698 50.798 57.069
H 31.253 43.262 56.625
H 28.245 46.072 52.061
H 28.604 44.939 53.007
H 30.619 52.512 53.364
H 29.713 45.435 59.166
H 28.513 46.157 58.577
H 28.022 48.615 56.717
H 30.962 50.082 60.525
H 31.465 47.934 54.47
H 32.929 47.593 54.684
H 33.187 46.908 56.767
H 31.836 47.579 56.588
H 31.072 49.863 51.014
H 32.567 50.082 50.855
H 31.355 46.868 59.284
H 30.417 47.947 58.773
H 28.129 48.462 53.956
H 29.286 47.487 54.087
H 34.306 49.18 58.879
H 34.027 47.688 58.932
H 28.247 48.241 59.498
H 28.384 49.752 59.434
H 29.676 51.4 51.477
H 28.36 50.652 51.365
H 29.444 46.8 56.165
H 30.198 45.487 56.053
H 30.347 50.32 53.297
H 29.616 49.225 52.54
H 32.386 51.309 52.842
H 30.073 43.576 54.777
H 32.69 44.695 55.769
H 29.099 50.414 55.776
H 29.797 49.094 55.5
H 28.536 51.852 53.635
H 27.407 50.882 53.334
H 29.616 51.118 57.944
H 30.986 50.647 58.398
H 32.564 48.625 52.728
H 31.552 47.593 52.261
