76
xyz format
O 41.949 71.846 45.23
O 41.578 68.754 43.816
O 43.198 71.925 49.376
O 44.064 70.738 47.13
O 45.392 75.422 45.818
O 44.504 70.149 44.291
O 39.264 72.287 46.072
O 40.594 75.02 44.73
O 40.987 73.689 47.57
O 41.988 74.705 42.66
O 45.913 75.626 50.034
O 45.906 77.328 42.59
O 47.284 70.715 45.176
O 43.137 74.945 48.592
O 44.074 77.278 46.493
O 45.492 72.766 46.761
O 43.908 72.08 41.848
O 45.407 72.069 49.331
O 43.992 75.074 41.265
O 44.975 72.911 43.91
O 41.782 73.087 39.81
O 46.46 73.561 50.56
O 41.787 76.941 48.916
O 43.115 70.201 40.65
O 41.381 71.369 42.682
H 43.08 72.324 41.417
H 44.567 72.175 41.149
H 46.283 73.282 46.563
H 44.852 73.066 46.104
H 45.561 71.49 48.575
H 45.131 72.903 48.929
H 43.114 77.202 46.55
H 44.309 77.8 47.27
H 43.814 69.959 41.27
H 42.302 69.994 41.128
H 47.197 74.352 48.255
H 46.791 71.289 45.776
H 45.428 73.171 43.099
H 44.248 73.543 43.979
H 45.987 76.821 41.772
H 46.812 77.374 42.921
H 43.991 75.847 41.844
H 44.01 74.329 41.879
H 42.081 73.855 43.108
H 41.334 74.531 41.971
H 45.186 75.72 49.407
H 41.244 73.182 48.35
H 41.093 74.607 47.849
H 39.252 72.947 45.368
H 39.446 71.46 45.607
H 40.76 74.539 45.551
H 41.393 75.547 44.608
H 44.455 69.756 43.411
H 45.255 70.753 44.23
H 40.767 71.632 43.379
H 42.185 71.135 43.161
H 47.303 75.045 41.132
H 48.139 75.691 43.886
H 48.869 76.594 42.907
H 45.874 76.255 45.748
H 45.782 74.873 45.126
H 41.738 74.05 39.86
H 43.526 75.571 47.969
H 43.363 74.083 48.222
H 44.864 70.622 46.602
H 43.353 70.702 46.479
H 42.762 71.265 48.823
H 42.484 72.273 49.924
H 47.504 77.953 45.683
H 40.613 71.287 50.633
H 42.08 68.207 43.199
H 41.003 69.276 43.244
H 42.106 77.715 48.437
H 41.079 77.291 49.472
H 41.459 72.302 45.926
H 42.481 72.545 44.829
