27
xyz format
O 68.971 51.431 66.409
O 65.515 50.061 67.201
O 63.682 51.245 66.618
O 67.902 52.872 64.805
O 63.746 48.714 65.983
O 63.215 53.304 68.294
O 65.969 52.9 66.381
H 63.074 51.066 64.223
H 61.883 50.667 65.076
H 65.247 49.905 64.826
H 65.182 51.421 64.877
H 64.584 48.281 66.189
H 63.113 47.986 65.953
H 61.095 52.816 66.057
H 67.063 52.51 64.493
H 67.69 53.79 65.016
H 64.743 53.811 63.799
H 63.393 52.078 66.226
H 62.902 50.931 67.092
H 65.619 52.657 67.247
H 65.255 53.413 65.981
H 63.808 53.811 67.725
H 62.391 53.27 67.792
H 66.43 50.328 67.356
H 65.069 50.278 68.029
H 68.073 51.638 66.696
H 64.326 46.492 63.972
