78
xyz format
O 48.262 32.311 52.325
O 47.946 32.282 56.353
O 53.19 36.105 58.391
O 52.727 30.364 56.437
O 50.454 25.739 52.124
O 51.802 36.488 56.136
O 54.066 29.649 51.982
O 49.908 34.975 58.2
O 53.936 29.521 54.794
O 47.316 35.252 55.793
O 55.002 31.796 55.372
O 56.513 29.937 53.846
O 49.815 36.065 55.292
O 51.061 31.956 54.321
O 49.581 27.309 55.104
O 52.827 32.964 57.245
O 51.875 28.909 52.896
O 56.86 30.496 57.245
O 50.431 32.206 56.932
O 48.118 33.442 58.998
O 48.973 30.032 54.848
O 49.115 29.342 52.206
O 49.64 29.997 58.461
O 46.534 29.376 53.219
O 52.092 33.938 60.397
O 50.354 29.0 50.421
O 55.535 32.102 58.886
H 52.229 26.425 54.68
H 55.845 32.865 58.383
H 54.633 31.97 58.569
H 50.552 29.928 50.597
H 48.55 29.733 51.527
H 49.02 28.392 52.065
H 51.9 29.349 53.754
H 51.964 27.973 53.115
H 49.718 29.823 54.27
H 48.284 30.321 54.237
H 47.844 32.516 58.998
H 48.968 33.429 59.455
H 50.305 32.227 57.889
H 50.508 31.265 56.732
H 55.034 27.071 53.211
H 57.575 30.651 56.614
H 56.61 29.577 57.087
H 52.626 33.425 56.421
H 52.2 33.338 57.876
H 57.036 31.958 54.54
H 48.958 26.974 54.447
H 50.311 27.654 54.574
H 47.61 32.601 52.975
H 48.538 33.131 51.896
H 51.532 31.255 54.789
H 51.633 32.726 54.426
H 50.034 35.384 54.644
H 54.505 28.742 56.771
H 55.266 30.976 55.807
H 54.564 32.296 56.072
H 56.095 29.108 54.112
H 55.435 31.979 52.722
H 48.035 35.373 56.426
H 47.766 34.968 54.987
H 47.471 35.7 59.177
H 46.664 30.171 52.689
H 48.384 33.01 56.811
H 48.027 32.516 55.42
H 53.938 28.707 54.276
H 53.997 30.217 54.128
H 52.0 35.658 56.588
H 53.424 30.676 57.028
H 52.2 29.777 56.994
H 55.254 34.72 56.423
H 53.329 35.15 58.404
H 52.653 36.269 59.176
H 50.762 24.828 52.212
H 50.4 26.051 53.036
H 50.497 35.722 58.368
H 50.188 34.652 57.334
H 53.311 29.605 51.382
