47
xyz format
O 67.561 37.754 41.403
O 63.509 35.883 46.965
O 67.316 36.873 45.045
O 62.906 39.422 43.925
O 66.572 35.879 42.058
O 64.024 32.977 44.916
O 61.117 37.571 41.945
O 62.966 35.992 41.161
O 64.221 38.518 40.79
O 63.25 33.61 42.054
O 61.358 35.36 43.722
O 64.679 37.913 45.103
O 60.695 40.219 43.778
O 61.191 37.962 45.881
O 64.673 34.846 43.952
O 62.357 41.464 42.486
H 61.248 40.821 44.291
H 60.665 39.419 44.317
H 62.149 35.668 44.182
H 60.724 35.207 44.433
H 62.793 41.322 41.637
H 62.672 33.029 41.543
H 64.138 33.314 41.818
H 64.219 38.462 39.826
H 63.285 38.577 41.019
H 63.966 37.594 44.535
H 65.423 38.021 44.498
H 60.562 37.0 42.491
H 61.67 38.034 42.586
H 61.892 37.759 45.249
H 62.79 36.147 42.097
H 63.85 36.359 41.03
H 63.469 32.911 44.129
H 63.587 33.653 45.449
H 65.874 35.601 41.452
H 66.15 36.56 42.597
H 63.609 39.764 44.492
H 63.292 39.45 43.04
H 65.402 34.563 43.387
H 64.376 35.671 43.548
H 67.525 37.412 44.272
H 66.901 36.086 44.671
H 62.848 35.635 46.306
H 63.928 35.044 47.195
H 65.315 40.484 42.415
H 67.134 38.421 41.956
H 66.918 37.594 40.7
