35
xyz format
O 62.353 69.968 37.194
O 59.172 64.393 37.053
O 58.935 67.608 35.436
O 60.002 66.629 37.379
O 59.556 70.163 37.566
O 62.671 68.238 35.244
O 60.357 65.634 33.812
O 61.496 69.725 39.274
O 58.818 70.08 34.572
O 57.387 68.794 33.344
O 57.965 71.691 37.41
O 60.253 71.74 39.196
H 57.665 69.513 32.762
H 56.854 68.228 32.772
H 61.913 70.167 40.024
H 61.795 68.811 39.351
H 59.744 65.519 34.549
H 61.095 66.121 34.2
H 60.052 72.41 38.531
H 60.957 72.143 39.721
H 57.035 71.458 37.297
H 58.272 71.855 36.51
H 62.099 68.79 34.695
H 59.072 70.06 38.395
H 59.377 69.341 37.092
H 59.136 68.324 39.872
H 60.785 67.186 37.284
H 59.447 67.117 37.999
H 59.844 67.753 35.145
H 58.475 67.344 34.629
H 58.211 69.972 35.314
H 59.685 70.143 34.992
H 56.854 66.127 33.424
H 57.256 67.33 36.899
H 61.63 69.355 37.015
