30
xyz format
O 61.976 45.353 59.134
O 59.475 44.985 61.593
O 62.008 47.645 59.223
O 63.169 46.44 57.641
O 57.603 48.38 59.05
O 61.065 47.323 62.157
O 59.036 49.134 60.538
O 57.213 45.272 59.184
O 56.832 46.309 62.245
O 55.489 44.035 61.792
O 59.899 46.772 58.819
H 57.466 45.708 62.655
H 56.194 43.929 62.443
H 58.623 45.004 56.428
H 57.897 47.635 58.51
H 57.346 49.046 58.401
H 62.868 46.052 56.809
H 58.195 42.874 57.771
H 61.546 48.383 58.805
H 61.877 47.797 60.167
H 57.052 42.978 60.651
H 60.811 44.255 56.363
H 57.784 44.494 59.201
H 57.228 45.547 58.259
H 59.517 45.909 59.025
H 59.803 47.267 59.642
H 59.99 45.679 61.163
H 59.221 44.403 60.865
H 56.345 47.008 60.219
H 61.547 45.113 58.303
