34
xyz format
O 42.153 30.762 30.427
O 42.524 34.909 32.465
O 39.314 31.651 33.129
O 45.344 31.758 35.142
O 40.376 33.695 31.332
O 43.138 32.651 34.92
O 44.487 28.948 33.124
O 41.111 30.817 34.847
O 43.707 32.264 28.121
O 42.659 32.133 32.256
O 44.234 33.826 30.943
O 41.868 29.168 31.976
O 44.76 30.019 31.222
H 43.312 31.797 32.883
H 41.847 32.18 32.775
H 45.288 28.504 32.819
H 43.841 28.234 33.19
H 40.605 30.257 34.244
H 42.029 30.606 34.639
H 44.368 31.779 28.631
H 43.098 32.596 28.793
H 43.968 29.666 35.138
H 45.467 31.91 34.197
H 44.711 29.438 30.452
H 44.809 30.903 30.838
H 40.854 33.075 30.768
H 44.487 33.043 30.439
H 44.538 33.631 31.838
H 41.888 29.995 32.474
H 41.693 28.499 32.649
H 39.104 32.258 32.408
H 39.691 32.224 33.809
H 41.45 31.148 29.891
H 42.883 30.651 29.805
