29
xyz format
O 72.191 52.326 56.892
O 72.346 50.641 55.342
O 73.432 53.05 59.428
O 71.0 53.484 60.153
O 71.85 55.05 56.796
O 76.358 53.895 56.06
O 75.907 56.241 55.375
O 74.87 54.001 57.937
O 75.155 50.796 56.369
O 73.844 53.827 55.999
H 76.818 55.924 55.343
H 74.827 54.617 58.679
H 75.335 53.237 58.301
H 77.289 53.676 55.93
H 75.968 53.761 55.187
H 75.821 51.259 56.893
H 74.492 50.535 57.02
H 71.213 54.634 56.201
H 72.351 55.639 56.219
H 72.084 50.153 56.133
H 72.394 49.961 54.658
H 73.087 53.702 55.414
H 74.171 52.93 56.146
H 71.306 53.576 61.063
H 73.319 53.762 60.07
H 73.384 52.248 59.964
H 71.469 51.287 59.235
H 72.713 51.77 57.485
H 71.674 52.878 57.491
