36
xyz format
O 47.015 56.218 24.12
O 51.38 53.206 23.962
O 45.616 58.072 22.814
O 51.96 57.512 23.057
O 49.702 57.878 23.027
O 51.35 55.173 22.684
O 44.429 56.073 26.017
O 51.25 56.499 26.035
O 48.498 54.113 21.474
O 49.239 55.616 23.884
O 45.152 54.968 22.919
H 49.558 54.738 24.128
H 49.736 56.208 24.461
H 44.762 54.875 22.041
H 45.595 54.123 23.064
H 47.158 55.091 26.512
H 51.979 55.457 22.009
H 51.821 55.32 23.514
H 49.146 54.697 21.887
H 47.772 54.089 22.11
H 45.092 56.417 25.406
H 43.723 55.76 25.438
H 51.737 56.783 25.251
H 42.913 57.817 24.701
H 49.006 58.533 22.892
H 49.858 57.522 22.143
H 47.33 53.195 25.408
H 45.65 58.069 23.779
H 44.87 57.494 22.61
H 52.533 57.703 22.304
H 51.897 58.359 23.517
H 50.628 52.948 23.414
H 52.133 53.147 23.361
H 47.109 55.279 24.321
H 47.533 56.652 24.81
H 49.121 58.268 25.113
