42
xyz format
O 42.041 62.691 62.027
O 43.637 63.062 63.495
O 43.983 64.926 61.101
O 44.804 60.501 60.742
O 47.926 61.005 61.121
O 44.576 64.489 65.446
O 48.689 62.27 64.54
O 45.654 62.323 59.04
O 46.555 64.265 64.237
O 43.674 60.899 63.094
O 44.074 66.51 62.768
O 45.915 63.195 61.624
O 48.602 65.852 62.258
O 47.472 63.353 60.031
O 45.936 66.161 60.452
H 44.302 66.018 63.566
H 44.668 67.27 62.788
H 43.225 60.715 62.26
H 44.557 61.179 62.823
H 46.187 64.799 63.522
H 47.333 63.854 63.839
H 45.091 63.107 59.027
H 45.991 62.268 58.137
H 49.553 62.252 64.971
H 48.288 61.43 64.794
H 45.253 62.649 61.181
H 46.162 62.674 62.398
H 47.204 64.28 60.002
H 48.163 63.334 60.704
H 46.396 65.895 61.258
H 46.623 66.59 59.927
H 47.885 61.196 60.175
H 43.91 64.84 66.05
H 45.255 64.135 66.034
H 45.068 60.35 59.826
H 43.779 65.785 60.71
H 43.833 64.304 60.378
H 42.739 62.665 61.361
H 43.897 62.704 64.353
H 44.218 63.824 63.379
H 48.189 64.985 62.158
H 48.023 66.31 62.881
