36
xyz format
O 61.925 48.975 33.936
O 55.942 47.335 32.968
O 57.432 47.613 30.077
O 60.787 51.273 31.003
O 60.727 45.296 32.895
O 62.057 48.702 30.499
O 60.942 45.956 29.562
O 58.436 47.377 32.045
O 60.816 46.482 35.409
O 60.364 48.822 31.943
O 58.176 49.376 31.163
O 58.439 45.375 30.012
O 56.58 44.706 27.996
H 56.951 45.537 28.32
H 60.497 48.025 32.471
H 60.185 49.506 32.601
H 59.99 46.227 34.981
H 61.455 45.839 35.076
H 60.51 46.007 30.424
H 61.04 46.88 29.299
H 58.65 46.475 32.313
H 58.093 47.781 32.852
H 57.811 46.017 34.294
H 62.289 48.784 29.566
H 62.798 49.116 30.957
H 58.461 50.26 31.426
H 57.243 49.353 31.41
H 60.879 44.698 32.153
H 61.448 45.934 32.826
H 61.607 51.156 30.506
H 60.101 51.23 30.326
H 56.54 47.509 30.429
H 57.751 44.791 30.355
H 58.846 44.86 29.305
H 61.654 49.027 34.861
H 62.271 49.856 33.748
