86
xyz format
C 86.494 73.337 58.35
C 93.295 78.269 53.711
C 88.821 79.169 55.667
C 84.814 83.066 55.498
C 84.665 81.749 55.08
C 83.928 84.021 55.074
C 83.567 81.44 54.288
C 82.682 83.574 54.677
C 82.581 82.362 54.03
C 84.256 85.503 55.133
C 81.474 82.034 53.037
C 85.568 80.776 55.473
C 86.507 79.867 55.725
C 83.344 86.299 54.155
C 85.721 85.744 54.677
C 84.06 86.036 56.569
C 82.087 81.763 51.638
C 89.735 78.128 55.705
C 93.422 77.547 52.535
C 87.514 78.996 56.102
C 87.252 77.882 56.883
C 94.59 77.637 51.812
C 94.394 78.999 54.145
C 95.733 77.957 52.527
C 95.645 78.803 53.614
C 94.53 77.556 50.293
C 96.812 79.675 54.076
C 92.086 78.31 54.377
C 90.963 78.244 55.085
C 95.944 77.696 49.665
C 93.646 78.713 49.76
C 93.952 76.193 49.825
C 96.837 79.819 55.629
C 96.697 81.069 53.417
C 98.186 79.043 53.703
C 88.112 76.789 56.899
C 89.382 76.968 56.38
C 80.474 83.216 52.883
C 80.673 80.799 53.52
C 87.099 74.442 57.781
C 87.654 75.602 57.436
H 84.751 85.548 57.257
H 84.241 87.11 56.605
H 83.043 85.845 56.91
H 81.805 84.155 54.952
H 83.513 80.434 53.874
H 85.63 83.298 56.181
H 83.324 85.819 53.176
H 89.12 80.134 55.259
H 90.119 76.17 56.477
H 86.328 77.835 57.46
H 98.321 79.003 52.623
H 99.004 79.639 54.111
H 83.714 87.316 54.028
H 82.325 86.364 54.535
H 80.341 80.944 54.548
H 79.796 80.643 52.892
H 81.281 79.897 53.477
H 85.933 86.812 54.623
H 86.431 85.304 55.375
H 85.886 85.308 53.692
H 79.718 82.978 52.133
H 79.956 83.413 53.822
H 80.992 84.12 52.564
H 82.728 80.883 51.653
H 81.299 81.593 50.903
H 82.682 82.617 51.315
H 98.26 78.035 54.111
H 93.599 78.689 48.671
H 94.056 79.676 50.067
H 97.572 81.674 53.652
H 96.624 80.97 52.334
H 95.81 81.594 53.774
H 96.809 78.835 56.097
H 97.746 80.329 55.949
H 95.998 80.406 55.996
H 95.875 77.683 48.576
H 96.412 78.634 49.962
H 96.584 76.868 49.971
H 92.934 76.046 50.18
H 93.93 76.147 48.736
H 94.569 75.373 50.193
H 96.667 77.472 52.257
H 94.209 79.75 54.907
H 92.571 76.953 52.207
H 92.629 78.634 50.145
