29
xyz format
O 51.751 59.64 43.556
O 55.795 60.641 40.337
O 50.45 60.463 41.983
O 50.964 58.471 40.09
O 50.168 59.763 45.276
O 55.293 63.072 41.956
O 50.905 62.574 44.425
O 51.839 62.809 41.651
O 52.727 62.421 39.125
O 52.623 59.858 41.431
H 52.089 63.519 42.254
H 52.386 62.065 41.933
H 54.418 62.882 41.595
H 51.764 62.316 44.068
H 51.855 62.024 39.248
H 53.33 61.77 39.504
H 50.988 60.171 45.582
H 50.376 58.82 45.253
H 54.479 60.094 38.66
H 53.476 58.957 38.574
H 53.358 59.364 41.048
H 52.204 60.274 40.668
H 52.026 58.747 43.799
H 52.441 60.202 43.931
H 51.193 58.913 39.263
H 51.533 57.691 40.098
H 50.027 61.291 42.24
H 49.718 59.836 41.935
H 55.074 60.891 40.927
