29
xyz format
O 59.913 34.417 65.395
O 65.077 35.392 65.902
O 65.478 33.409 63.918
O 62.869 34.55 68.12
O 64.287 33.038 66.929
O 67.38 33.776 65.297
O 62.04 34.867 65.062
O 61.007 36.409 67.457
O 61.113 32.967 68.549
H 60.416 36.074 66.772
H 61.335 37.24 67.091
H 62.05 35.534 64.365
H 62.086 34.031 64.58
H 68.211 33.381 65.003
H 66.866 33.021 65.611
H 64.729 33.228 66.092
H 63.387 32.807 66.666
H 64.069 35.631 62.695
H 62.962 34.601 62.555
H 61.112 32.281 67.87
H 60.423 33.577 68.26
H 62.674 35.375 68.583
H 62.227 34.534 67.4
H 64.693 32.847 63.925
H 62.859 37.326 65.507
H 64.79 36.308 65.999
H 65.94 35.375 66.335
H 59.073 34.445 65.871
H 60.005 33.488 65.149
