47
xyz format
O 53.805 22.386 44.661
O 55.185 25.407 42.795
O 55.794 25.778 50.403
O 58.427 26.082 47.382
O 52.252 26.546 47.882
O 55.036 26.209 47.893
O 55.014 28.877 45.193
O 55.254 30.614 43.803
O 55.6 28.51 49.681
O 52.97 23.888 49.165
O 56.573 27.325 45.185
O 55.195 26.889 52.277
O 52.751 26.909 50.263
O 55.208 24.706 45.187
O 57.955 28.652 46.267
O 58.877 30.145 43.394
H 54.472 29.544 45.633
H 54.378 28.197 44.938
H 55.28 27.767 51.883
H 55.034 27.071 53.211
H 56.505 26.442 44.802
H 56.844 27.877 44.441
H 58.743 26.851 47.874
H 58.032 26.465 46.589
H 52.933 26.28 47.251
H 55.881 30.217 43.185
H 52.682 24.639 49.699
H 53.595 24.276 48.54
H 56.346 26.086 49.673
H 55.001 25.444 49.966
H 55.721 28.518 48.723
H 56.493 28.385 50.024
H 52.585 29.114 47.381
H 59.285 23.712 44.745
H 58.003 29.767 43.55
H 55.935 24.57 45.808
H 54.446 24.865 45.757
H 52.085 26.787 50.951
H 53.584 26.932 50.751
H 54.574 25.868 43.383
H 53.286 21.74 45.156
H 54.522 22.615 45.265
H 55.412 25.324 47.808
H 55.101 26.572 47.001
H 54.808 29.861 51.402
H 57.833 29.594 46.094
H 58.808 28.453 45.863
