37
xyz format
O 60.137 24.217 52.632
O 61.913 24.351 50.786
O 58.47 23.376 50.216
O 62.03 26.854 49.778
O 60.061 23.932 48.445
O 55.794 25.778 50.403
O 58.427 26.082 47.382
O 59.234 28.691 48.974
O 59.054 26.879 52.516
O 57.726 23.294 53.087
O 55.6 28.51 49.681
O 55.195 26.889 52.277
H 59.555 28.983 52.921
H 55.28 27.767 51.883
H 55.034 27.071 53.211
H 58.743 26.851 47.874
H 57.637 29.862 51.186
H 58.743 28.365 49.739
H 60.158 28.594 49.237
H 58.564 27.059 51.704
H 58.378 26.564 53.128
H 57.038 23.9 52.786
H 57.899 23.574 53.994
H 56.346 26.086 49.673
H 55.001 25.444 49.966
H 60.968 24.213 48.617
H 60.08 23.643 47.525
H 56.493 28.385 50.024
H 53.584 26.932 50.751
H 62.495 24.728 50.115
H 62.397 24.485 51.611
H 59.881 24.904 52.005
H 60.361 23.465 52.07
H 57.971 24.126 49.868
H 57.899 23.023 50.91
H 61.127 26.825 50.118
H 54.808 29.861 51.402
