48
xyz format
O 48.972 71.83 41.053
O 51.394 76.14 42.596
O 53.904 72.692 41.641
O 52.739 68.798 43.274
O 55.8 70.436 43.067
O 54.162 71.746 44.896
O 52.247 72.371 38.984
O 49.414 73.68 39.114
O 52.391 73.404 45.204
O 54.911 71.083 38.685
O 48.912 72.1 44.547
O 54.31 68.004 40.168
O 51.483 70.953 41.956
O 51.139 69.684 39.343
O 50.899 67.52 41.25
O 51.511 74.089 41.788
O 52.147 74.567 39.455
H 51.513 67.819 40.568
H 51.523 73.16 42.049
H 50.733 74.158 41.222
H 50.919 71.133 42.719
H 50.982 70.301 41.45
H 50.925 70.229 38.575
H 52.101 69.607 39.307
H 48.935 69.476 42.801
H 49.333 72.804 44.037
H 53.739 67.569 40.814
H 54.796 68.653 40.692
H 52.648 74.52 38.632
H 52.275 75.478 39.749
H 55.526 71.807 38.859
H 54.148 71.292 39.239
H 50.175 74.014 38.623
H 51.549 72.323 38.319
H 51.793 72.154 39.808
H 54.683 72.334 45.456
H 54.073 70.944 45.426
H 56.147 69.611 43.428
H 55.181 70.146 42.385
H 53.141 69.651 43.067
H 51.954 68.773 42.712
H 52.126 75.757 43.096
H 51.826 76.545 41.833
H 48.205 69.381 40.728
H 54.744 72.885 42.076
H 53.449 72.114 42.266
H 49.881 72.145 40.971
H 48.891 71.604 41.988
