139
xyz format
O 48.637 63.626 27.633
O 44.251 57.008 30.865
O 43.167 63.664 30.895
O 40.343 65.535 28.373
O 47.057 60.214 27.955
O 46.047 61.631 35.735
O 47.835 65.519 32.386
O 43.266 61.36 31.959
O 40.028 61.029 33.684
O 50.403 59.846 32.747
O 46.858 63.734 30.549
O 42.983 62.232 36.705
O 47.059 58.37 29.734
O 49.874 57.374 30.519
O 46.178 62.324 32.096
O 39.563 62.225 31.07
O 40.502 58.425 30.405
O 42.512 64.701 36.49
O 48.9 62.315 31.863
O 43.851 58.259 29.088
O 41.24 62.051 28.177
O 45.759 60.767 25.944
O 39.495 59.998 27.26
O 45.506 59.699 32.804
O 48.706 59.716 30.628
O 45.524 62.925 28.119
O 50.361 62.177 28.747
O 47.638 64.081 34.602
O 38.547 65.3 29.963
O 53.819 63.138 30.336
O 43.197 60.591 29.351
O 50.103 65.286 32.566
O 47.327 67.341 30.963
O 42.012 67.128 29.474
O 46.129 57.247 32.393
O 41.973 63.089 34.166
O 49.105 66.613 29.887
O 49.451 60.881 26.037
O 43.399 62.901 25.854
O 41.026 65.701 31.399
O 44.457 62.713 34.642
O 50.86 64.333 27.138
O 42.38 58.904 26.848
H 50.006 64.449 33.037
H 50.101 65.947 33.269
H 46.012 63.738 27.935
H 46.171 62.228 27.957
H 45.613 64.91 37.381
H 40.625 57.873 28.172
H 54.26 62.625 31.026
H 54.071 62.688 29.52
H 47.569 67.43 34.693
H 48.259 66.343 35.498
H 42.513 60.266 29.951
H 43.138 61.551 29.435
H 40.697 62.613 27.609
H 40.671 61.877 28.937
H 40.287 60.022 27.812
H 38.83 60.449 27.794
H 48.489 66.03 29.426
H 49.462 67.17 29.184
H 38.32 64.363 29.929
H 37.755 65.74 29.629
H 45.809 55.929 29.748
H 44.837 59.828 32.121
H 46.297 59.453 32.307
H 48.285 60.189 29.899
H 49.543 60.183 30.751
H 49.269 60.976 25.093
H 49.815 61.739 26.287
H 41.675 62.948 33.259
H 42.57 63.845 34.097
H 49.904 61.344 28.917
H 49.906 62.809 29.318
H 48.511 62.111 31.003
H 49.721 62.772 31.641
H 43.388 57.548 28.627
H 44.327 58.717 28.384
H 47.015 57.312 32.772
H 46.309 60.648 25.16
H 44.858 60.701 25.605
H 47.159 67.831 31.778
H 46.449 67.058 30.68
H 50.394 69.415 30.2
H 50.469 68.078 30.917
H 38.57 65.019 32.146
H 43.843 62.601 25.051
H 43.006 62.096 26.214
H 39.584 58.228 30.182
H 40.114 62.96 30.772
H 38.954 62.081 30.335
H 42.936 65.206 35.786
H 43.246 64.447 37.064
H 41.638 67.651 28.754
H 42.69 66.594 29.041
H 44.918 62.398 37.739
H 49.453 58.683 28.159
H 50.371 58.184 30.353
H 46.243 58.371 30.251
H 47.538 57.601 30.065
H 41.719 59.3 26.266
H 42.427 59.517 27.592
H 42.162 62.267 36.198
H 42.698 62.388 37.614
H 46.469 61.675 32.748
H 45.41 61.908 31.684
H 46.531 64.534 30.117
H 46.937 63.1 29.826
H 50.095 60.603 33.261
H 51.326 60.057 32.56
H 52.308 61.343 28.154
H 41.006 65.443 30.469
H 48.073 65.328 31.47
H 46.885 65.688 32.346
H 41.894 66.11 31.505
H 42.439 61.713 31.606
H 43.108 61.313 32.91
H 39.887 61.839 34.19
H 41.03 65.325 33.568
H 40.296 59.232 32.442
H 39.956 64.256 33.675
H 48.028 63.81 33.762
H 47.103 64.85 34.368
H 46.03 61.192 34.875
H 46.45 62.488 35.548
H 44.254 57.898 31.239
H 44.494 62.86 33.688
H 44.554 63.598 35.014
H 43.392 60.348 35.645
H 39.483 65.381 27.961
H 40.729 64.652 28.435
H 50.635 64.631 26.248
H 51.062 63.396 27.023
H 48.311 62.723 27.738
H 48.337 64.073 28.434
H 42.364 63.905 31.373
H 42.919 63.762 29.967
H 47.409 59.36 27.676
H 46.127 60.03 28.137
