34
xyz format
O 65.438 44.001 70.604
O 64.694 41.658 68.189
O 64.93 40.913 70.963
O 67.902 36.888 68.453
O 63.951 44.895 67.329
O 63.218 39.463 67.738
O 65.797 38.013 67.021
O 62.695 41.199 68.982
O 61.827 44.232 70.126
O 60.783 41.805 66.739
O 68.013 40.036 68.603
H 68.5 40.288 69.398
H 67.124 39.848 68.929
H 61.964 41.694 68.59
H 62.258 40.472 69.442
H 59.707 41.146 68.539
H 66.416 45.702 71.598
H 62.655 41.812 65.332
H 66.036 38.947 67.084
H 65.612 37.761 67.934
H 62.475 44.947 70.163
H 62.046 43.767 69.309
H 63.603 38.591 67.585
H 63.649 40.022 67.079
H 62.659 46.737 68.574
H 63.039 44.759 67.614
H 64.469 44.706 68.121
H 69.153 42.353 69.002
H 63.991 40.857 70.743
H 65.263 41.601 70.374
H 65.664 43.696 69.717
H 64.548 43.656 70.746
H 65.334 40.935 68.214
H 65.191 42.391 67.803
