32
xyz format
O 67.443 45.63 45.603
O 63.784 46.708 48.397
O 62.194 42.612 47.902
O 63.103 48.738 45.302
O 61.473 44.715 48.2
O 61.746 48.45 48.04
O 59.735 44.46 49.947
O 59.223 46.933 46.829
O 58.55 44.819 46.721
O 59.949 43.914 44.681
O 66.353 46.773 48.338
O 65.226 47.043 46.374
O 60.832 46.359 45.268
H 61.772 46.577 45.259
H 65.636 47.891 46.584
H 65.12 47.07 45.415
H 59.423 46.925 47.773
H 61.894 44.407 45.599
H 59.614 45.235 49.385
H 66.261 47.565 48.881
H 61.371 48.078 47.232
H 61.621 47.75 48.693
H 59.497 44.631 46.733
H 61.528 45.592 47.8
H 61.845 44.842 49.082
H 62.988 43.16 47.859
H 63.274 48.61 46.244
H 62.142 48.826 45.255
H 61.974 44.967 43.432
H 63.766 45.75 48.52
H 63.349 46.838 47.545
H 65.69 44.741 46.743
