33
xyz format
O 57.164 67.559 68.051
O 57.344 71.035 68.34
O 60.909 67.098 67.833
O 59.054 65.661 65.039
O 55.562 72.896 65.901
O 59.342 70.725 66.173
O 56.02 70.466 65.296
O 57.848 68.567 65.353
O 59.414 68.975 68.099
O 55.027 68.219 70.958
O 54.649 69.424 67.89
H 53.767 69.815 67.938
H 55.134 70.025 67.311
H 53.04 70.641 64.358
H 56.43 71.189 64.805
H 55.074 70.628 65.196
H 60.125 69.121 67.462
H 59.556 69.661 68.762
H 57.431 68.095 64.621
H 57.958 69.464 65.015
H 60.03 70.511 65.531
H 59.695 71.492 66.641
H 55.602 72.235 66.603
H 54.8 73.438 66.14
H 58.617 66.427 65.431
H 61.87 67.106 67.741
H 60.635 66.331 67.315
H 56.761 70.383 68.748
H 57.204 70.908 67.394
H 54.436 68.828 71.417
H 54.933 68.466 70.029
H 56.407 67.997 67.641
H 57.841 67.579 67.363
