26
xyz format
Na 37.083 30.36 63.863
O 37.25 27.481 60.692
O 39.114 25.438 59.867
O 41.856 27.655 60.228
O 40.033 31.071 63.284
O 39.505 27.216 58.129
O 39.719 29.182 61.997
O 40.623 27.388 64.392
O 41.656 30.611 61.007
H 39.199 27.719 57.364
H 39.415 26.297 57.849
H 41.732 31.202 61.766
H 42.247 29.88 61.225
H 40.431 30.327 63.752
H 39.46 31.478 63.946
H 41.213 27.508 63.638
H 40.255 28.268 64.538
H 41.204 28.15 59.717
H 41.472 27.616 61.113
H 39.562 28.341 62.445
H 39.632 28.961 61.061
H 40.009 25.325 60.212
H 38.604 25.714 60.638
H 37.779 28.089 60.16
H 37.59 27.604 61.587
H 37.327 26.865 58.364
