98
xyz format
O 38.584 33.255 44.327
O 38.204 28.946 37.059
O 35.998 33.114 43.272
O 39.813 27.995 42.506
O 34.09 32.312 35.869
O 36.8 31.274 41.013
O 38.696 30.883 43.229
O 40.657 31.601 38.058
O 36.542 34.821 41.955
O 41.199 31.681 43.378
O 35.931 26.726 42.591
O 32.414 33.011 39.22
O 41.94 30.858 40.636
O 39.744 33.042 36.293
O 35.399 33.823 37.601
O 40.3 36.05 40.7
O 35.259 30.555 38.107
O 40.349 33.304 41.177
O 39.064 29.864 40.771
O 38.546 26.21 42.283
O 38.78 36.562 42.502
O 37.781 33.021 39.052
O 40.877 36.138 36.382
O 38.868 36.834 38.438
O 37.144 31.56 33.516
O 36.862 29.017 39.224
O 41.964 33.859 39.435
O 34.032 28.321 40.078
O 34.415 30.797 42.537
O 42.477 34.855 41.362
O 37.9 29.847 35.075
H 38.315 29.075 34.672
H 38.528 30.56 34.904
H 34.976 30.389 41.866
H 33.55 30.85 42.111
H 35.808 37.235 37.86
H 38.043 33.896 38.739
H 36.831 33.105 39.198
H 39.438 33.066 40.963
H 40.27 33.791 42.007
H 40.701 35.665 37.204
H 41.836 30.616 41.564
H 41.885 31.822 40.643
H 39.239 36.318 43.315
H 37.887 36.777 42.798
H 38.654 25.824 41.405
H 38.707 25.469 42.881
H 42.765 34.868 37.641
H 36.076 34.215 37.036
H 35.504 32.874 37.459
H 34.088 33.638 44.35
H 39.468 30.725 40.939
H 38.761 29.929 39.857
H 39.473 33.244 37.197
H 40.704 33.139 36.314
H 36.131 28.451 38.947
H 36.763 29.066 40.183
H 40.984 35.817 40.059
H 39.633 35.362 40.583
H 36.675 35.372 45.288
H 36.066 30.631 37.581
H 34.68 30.009 37.561
H 38.058 37.253 38.12
H 38.754 35.906 38.2
H 33.778 27.319 42.574
H 32.546 28.191 42.746
H 37.277 35.126 41.409
H 36.02 34.276 41.353
H 32.967 33.562 38.652
H 32.293 32.203 38.707
H 42.414 33.146 38.966
H 41.065 33.833 39.083
H 35.741 26.956 43.509
H 36.647 27.326 42.348
H 36.566 31.402 34.273
H 40.855 31.383 44.23
H 41.444 32.601 43.54
H 37.19 32.523 33.46
H 40.892 31.151 37.237
H 40.292 30.898 38.609
H 38.727 31.722 42.753
H 38.17 31.083 44.013
H 37.492 31.944 40.948
H 37.149 30.647 41.659
H 33.486 32.669 35.206
H 34.683 31.747 35.358
H 42.989 35.331 42.027
H 42.727 33.932 41.497
H 36.423 32.251 43.351
H 36.461 33.658 43.921
H 40.048 28.067 41.572
H 40.003 28.873 42.858
H 33.278 28.406 40.674
H 34.787 28.234 40.674
H 38.317 33.166 45.25
H 39.546 33.326 44.373
H 38.163 28.188 37.656
H 38.248 29.704 37.655
