39
xyz format
O 57.793 65.457 45.373
O 53.925 62.227 47.433
O 54.545 65.38 49.164
O 57.659 64.519 48.088
O 60.085 65.541 47.945
O 54.5 64.222 51.801
O 51.084 62.025 46.917
O 55.711 66.633 47.31
O 54.624 64.417 45.167
O 57.568 62.218 45.647
O 52.588 64.842 52.716
O 52.012 63.466 48.398
O 56.23 60.142 49.067
H 51.871 61.497 47.099
H 50.534 61.896 47.7
H 55.115 67.328 47.615
H 56.197 66.382 48.105
H 55.161 64.224 45.945
H 53.806 64.773 45.536
H 57.255 62.544 50.084
H 51.275 63.505 49.019
H 52.79 63.58 48.957
H 55.969 61.19 44.419
H 54.723 63.373 51.399
H 60.455 64.814 47.429
H 59.909 66.224 47.285
H 58.17 62.629 46.28
H 56.844 62.853 45.574
H 50.477 62.289 51.54
H 57.031 64.0 47.57
H 57.31 64.471 48.987
H 54.804 64.451 49.113
H 54.671 65.602 50.095
H 54.764 62.503 47.821
H 53.619 63.014 46.965
H 58.264 64.795 45.895
H 57.045 64.969 45.006
H 53.106 61.386 51.161
H 55.298 60.112 49.32
