52
xyz format
O 36.431 65.411 42.414
O 34.964 69.177 43.22
O 39.268 67.762 44.279
O 38.605 65.223 44.081
O 36.648 67.56 41.388
O 32.05 65.561 43.145
O 36.158 68.14 47.875
O 31.974 67.306 45.976
O 35.206 61.71 44.431
O 34.706 64.629 41.292
O 31.973 67.659 42.066
O 35.843 64.144 45.28
O 34.303 62.494 41.642
O 38.169 64.465 40.819
O 36.886 65.07 47.437
O 36.061 67.482 45.142
O 38.49 63.281 46.223
O 34.507 67.204 46.762
H 34.318 66.534 46.093
H 34.24 66.785 47.589
H 38.693 64.204 46.029
H 38.409 62.876 45.351
H 36.488 66.658 44.875
H 36.498 68.152 44.602
H 33.671 62.903 42.245
H 36.096 65.477 47.059
H 37.64 65.231 40.564
H 38.902 64.849 41.317
H 32.889 67.809 42.33
H 31.485 68.352 42.528
H 35.113 64.064 44.653
H 36.63 64.103 44.723
H 34.093 65.179 40.788
H 35.244 64.204 40.613
H 34.999 60.807 44.701
H 36.023 61.91 44.905
H 32.156 66.398 45.705
H 32.633 67.825 45.498
H 31.485 66.182 43.621
H 31.607 65.454 42.294
H 36.961 70.202 45.253
H 38.329 69.76 44.763
H 37.524 67.215 41.601
H 36.205 67.605 42.245
H 33.687 69.597 46.272
H 38.182 65.963 43.628
H 39.364 65.017 43.522
H 34.373 68.687 43.805
H 35.35 69.85 43.795
H 39.099 68.189 43.43
H 36.674 64.478 42.437
H 35.786 65.498 43.127
