23
xyz format
O 58.364 75.563 50.245
O 53.628 73.72 48.648
O 57.623 74.74 46.43
O 52.317 76.433 49.131
O 56.691 74.124 48.591
O 53.935 77.88 46.843
O 54.32 75.359 50.973
O 56.987 77.517 49.447
O 57.024 77.2 46.115
O 53.652 74.914 46.798
H 57.793 76.989 46.659
H 56.287 76.808 46.598
H 54.199 75.697 46.938
H 54.243 74.299 46.346
H 54.737 78.285 47.196
H 54.149 77.719 45.916
H 53.076 76.696 49.667
H 56.351 74.74 49.252
H 57.643 74.118 48.751
H 53.298 74.452 49.184
H 58.76 76.434 50.37
H 56.297 77.277 48.816
H 57.727 77.783 48.888
