26
xyz format
O 49.235 60.47 57.866
O 51.385 60.879 53.472
O 46.216 56.588 52.637
O 49.581 59.632 54.869
O 52.149 60.996 55.772
O 47.15 59.032 58.231
O 47.78 58.377 55.011
O 44.112 57.961 52.243
O 47.129 60.991 55.846
O 49.576 58.58 52.507
H 49.086 59.214 51.969
H 48.918 58.254 53.133
H 44.404 57.97 53.163
H 47.452 60.45 56.577
H 47.132 58.827 54.454
H 47.611 57.441 54.849
H 50.258 58.952 54.765
H 49.447 59.678 55.824
H 46.527 57.494 52.517
H 46.06 56.523 53.587
H 50.588 60.476 53.105
H 52.033 60.087 55.468
H 46.038 58.488 56.352
H 50.836 58.953 57.369
H 48.838 61.286 58.194
H 49.155 59.86 58.61
