52
xyz format
O 58.357 42.165 32.213
O 48.833 45.132 36.582
O 52.045 39.375 30.216
O 55.723 41.84 36.029
O 54.477 39.43 31.777
O 56.201 37.356 33.457
O 54.967 41.777 33.958
O 51.131 41.219 32.423
O 50.827 43.883 30.833
O 54.767 42.662 30.575
O 50.811 39.306 35.772
O 51.232 43.383 37.162
O 49.447 41.421 34.204
O 52.624 41.258 36.235
O 47.657 43.455 34.18
O 49.847 44.732 33.838
O 51.156 42.059 28.588
H 51.593 42.395 29.38
H 50.918 41.154 28.824
H 51.296 39.825 35.118
H 50.649 43.047 36.469
H 51.524 44.238 36.821
H 50.14 41.675 34.826
H 50.287 43.511 31.541
H 51.717 43.896 31.206
H 51.567 40.729 33.131
H 51.717 41.972 32.272
H 48.814 41.209 30.06
H 49.201 44.623 33.129
H 50.345 43.905 33.824
H 55.474 42.056 30.321
H 54.938 42.835 31.509
H 56.486 39.493 30.462
H 48.556 41.821 32.232
H 54.16 41.795 33.428
H 55.673 41.745 33.3
H 55.524 37.566 32.801
H 56.797 38.114 33.423
H 54.016 38.605 31.582
H 54.388 39.94 30.962
H 54.092 44.364 28.644
H 53.998 42.854 28.516
H 49.862 40.75 37.508
H 54.954 42.365 36.287
H 55.563 40.982 36.44
H 52.596 39.918 29.639
H 53.379 40.863 36.687
H 51.942 41.295 36.917
H 57.491 41.793 32.003
H 58.697 41.578 32.9
H 49.054 44.705 37.419
H 49.595 44.943 36.021
