114
xyz format
Cl 47.816 30.708 60.247
Na 47.489 37.29 62.212
O 50.845 32.383 67.979
O 52.341 36.905 65.243
O 50.543 34.192 69.4
O 47.782 37.364 66.119
O 47.946 32.282 56.353
O 53.19 36.105 58.391
O 49.908 34.975 58.2
O 53.036 35.388 62.771
O 47.316 35.252 55.793
O 49.815 36.065 55.292
O 51.061 31.956 54.321
O 51.588 39.224 68.646
O 50.889 33.83 72.315
O 50.982 37.216 62.935
O 51.524 32.665 64.318
O 49.349 33.687 65.75
O 53.39 32.551 66.205
O 52.827 32.964 57.245
O 48.415 31.171 65.467
O 47.945 31.018 63.198
O 50.431 32.206 56.932
O 48.118 33.442 58.998
O 49.193 35.31 61.363
O 48.973 30.032 54.848
O 48.289 35.566 64.494
O 53.773 38.205 67.29
O 47.199 28.08 66.238
O 47.963 30.795 69.007
O 53.958 38.329 59.97
O 55.714 36.678 61.742
O 50.762 35.421 65.634
O 45.519 31.339 64.045
O 52.395 35.805 68.419
O 48.66 36.122 67.8
O 49.787 33.289 62.008
O 52.092 33.938 60.397
O 47.192 36.49 59.657
O 50.201 38.684 61.455
H 51.47 34.373 60.993
H 52.714 33.502 60.993
H 47.872 35.259 65.308
H 48.046 34.895 63.844
H 45.245 36.179 62.327
H 47.833 31.934 63.482
H 48.406 31.094 62.353
H 49.904 32.808 62.836
H 48.849 33.178 61.809
H 49.718 29.823 54.27
H 48.284 30.321 54.237
H 47.844 32.516 58.998
H 48.968 33.429 59.455
H 50.305 32.227 57.889
H 50.508 31.265 56.732
H 53.575 33.178 69.457
H 49.82 32.925 66.111
H 49.622 33.708 64.825
H 52.53 32.303 66.566
H 53.42 33.509 66.321
H 50.968 31.906 64.534
H 52.2 32.296 63.737
H 45.05 35.113 60.411
H 54.85 36.491 62.13
H 56.153 37.221 62.409
H 53.142 38.071 60.416
H 52.626 33.425 56.421
H 52.2 33.338 57.876
H 47.89 31.934 65.741
H 48.703 30.78 66.301
H 51.148 34.834 66.296
H 49.974 35.771 66.07
H 52.521 39.243 64.793
H 51.929 37.373 63.031
H 50.749 36.722 63.731
H 51.212 33.412 71.506
H 50.598 34.702 72.021
H 46.755 28.592 66.925
H 51.019 34.888 69.87
H 49.821 34.662 68.965
H 47.241 30.174 68.85
H 47.913 31.399 68.255
H 51.633 32.726 54.426
H 51.363 38.285 68.634
H 50.034 35.384 54.644
H 45.48 32.297 63.935
H 45.759 31.017 63.167
H 49.526 38.172 60.992
H 49.77 39.531 61.624
H 48.035 35.373 56.426
H 47.766 34.968 54.987
H 47.471 35.7 59.177
H 53.013 36.68 65.899
H 52.112 35.179 62.96
H 53.352 35.79 63.59
H 48.384 33.01 56.811
H 48.027 32.516 55.42
H 52.0 35.658 56.588
H 53.073 35.545 67.782
H 51.732 36.252 67.878
H 47.797 35.702 67.91
H 48.57 36.957 68.276
H 48.236 35.426 61.313
H 49.452 35.86 62.113
H 53.329 35.15 58.404
H 52.653 36.269 59.176
H 47.207 37.603 65.381
H 48.108 38.213 66.44
H 51.704 37.434 65.739
H 51.326 32.17 68.789
H 49.923 32.415 68.262
H 50.497 35.722 58.368
H 50.188 34.652 57.334
H 48.074 38.776 63.727
