105
xyz format
O 36.862 74.537 51.0
O 40.58 71.96 51.324
O 41.949 71.846 45.23
O 41.578 68.754 43.816
O 43.198 71.925 49.376
O 44.064 70.738 47.13
O 38.371 70.189 48.289
O 42.36 74.43 51.431
O 45.392 75.422 45.818
O 44.504 70.149 44.291
O 39.264 72.287 46.072
O 40.433 75.629 51.747
O 40.594 75.02 44.73
O 40.987 73.689 47.57
O 41.988 74.705 42.66
O 45.913 75.626 50.034
O 36.687 71.866 49.769
O 45.906 77.328 42.59
O 43.63 68.584 47.013
O 47.284 70.715 45.176
O 43.137 74.945 48.592
O 38.92 76.07 49.131
O 44.074 77.278 46.493
O 45.492 72.766 46.761
O 43.908 72.08 41.848
O 45.407 72.069 49.331
O 38.824 72.795 48.166
O 43.944 71.675 52.405
O 43.992 75.074 41.265
O 44.975 72.911 43.91
O 46.46 73.561 50.56
O 41.787 76.941 48.916
O 42.354 69.544 51.287
O 43.115 70.201 40.65
O 43.266 77.536 50.451
O 41.381 71.369 42.682
H 43.08 72.324 41.417
H 44.567 72.175 41.149
H 46.283 73.282 46.563
H 44.852 73.066 46.104
H 45.561 71.49 48.575
H 45.131 72.903 48.929
H 43.114 77.202 46.55
H 44.309 77.8 47.27
H 43.814 69.959 41.27
H 42.302 69.994 41.128
H 39.239 75.232 49.489
H 39.003 76.682 49.872
H 46.791 71.289 45.776
H 45.428 73.171 43.099
H 44.248 73.543 43.979
H 45.987 76.821 41.772
H 46.812 77.374 42.921
H 43.991 75.847 41.844
H 44.01 74.329 41.879
H 44.598 71.665 51.695
H 43.106 71.532 51.947
H 42.081 73.855 43.108
H 42.877 68.63 47.615
H 41.334 74.531 41.971
H 45.903 76.458 50.523
H 45.186 75.72 49.407
H 41.244 73.182 48.35
H 41.093 74.607 47.849
H 36.125 71.78 50.549
H 36.239 72.534 49.235
H 41.12 69.27 46.123
H 39.252 72.947 45.368
H 39.446 71.46 45.607
H 40.76 74.539 45.551
H 41.393 75.547 44.608
H 37.934 73.095 47.945
H 38.945 73.091 49.077
H 44.455 69.756 43.411
H 45.255 70.753 44.23
H 40.767 71.632 43.379
H 42.185 71.135 43.161
H 45.874 76.255 45.748
H 45.782 74.873 45.126
H 39.772 74.94 51.603
H 42.071 73.541 51.674
H 43.081 74.275 50.809
H 43.903 77.183 51.085
H 42.548 77.863 51.007
H 44.35 70.178 50.093
H 37.731 70.886 48.098
H 39.162 70.466 47.811
H 43.526 75.571 47.969
H 43.363 74.083 48.222
H 44.864 70.622 46.602
H 43.353 70.702 46.479
H 45.608 73.496 51.01
H 42.762 71.265 48.823
H 42.484 72.273 49.924
H 37.264 74.264 50.165
H 36.086 75.041 50.726
H 40.053 72.667 50.93
H 40.613 71.287 50.633
H 42.08 68.207 43.199
H 41.003 69.276 43.244
H 42.106 77.715 48.437
H 41.079 77.291 49.472
H 42.202 69.789 50.365
H 41.459 72.302 45.926
H 42.481 72.545 44.829
