91
xyz format
O 30.247 50.397 57.83
O 31.718 50.328 50.467
O 30.885 47.152 58.49
O 32.229 48.197 51.93
O 27.97 51.193 54.054
O 29.977 50.025 55.681
O 32.823 52.029 52.37
O 29.856 46.113 56.703
O 30.114 49.385 53.351
O 27.815 49.028 59.144
O 28.487 47.652 53.572
O 32.256 46.71 56.603
O 32.081 47.191 54.461
O 27.758 47.873 57.275
O 24.04 44.465 57.303
O 29.118 46.178 59.329
O 25.714 49.599 55.099
O 32.846 50.038 56.493
O 23.653 50.053 56.377
O 22.189 47.398 57.258
O 24.319 48.7 59.178
O 25.468 46.566 53.997
O 24.725 48.181 56.839
O 26.446 44.752 56.667
O 31.515 45.151 53.129
O 25.246 43.466 55.351
O 28.997 45.557 52.378
O 33.494 44.757 56.3
O 28.73 51.543 51.349
H 32.291 44.825 53.602
H 30.898 45.384 53.834
H 26.05 45.531 57.078
H 27.263 45.089 56.278
H 24.764 47.301 56.445
H 25.514 48.219 57.394
H 22.313 46.8 56.51
H 22.605 46.933 57.995
H 23.076 50.791 56.144
H 24.464 50.482 56.676
H 33.562 46.345 52.608
H 23.659 49.304 59.539
H 25.157 49.065 59.489
H 29.982 47.486 60.866
H 32.973 49.305 57.108
H 32.698 50.798 57.069
H 31.253 43.262 56.625
H 28.245 46.072 52.061
H 28.604 44.939 53.007
H 23.167 44.448 56.893
H 24.007 45.237 57.882
H 30.619 52.512 53.364
H 29.713 45.435 59.166
H 25.074 42.851 56.075
H 24.603 43.212 54.677
H 26.082 48.808 54.685
H 25.58 50.204 54.359
H 28.513 46.157 58.577
H 27.349 47.255 56.656
H 28.022 48.615 56.717
H 31.465 47.934 54.47
H 32.929 47.593 54.684
H 33.187 46.908 56.767
H 31.836 47.579 56.588
H 31.072 49.863 51.014
H 32.567 50.082 50.855
H 31.355 46.868 59.284
H 30.417 47.947 58.773
H 28.129 48.462 53.956
H 29.286 47.487 54.087
H 34.027 47.688 58.932
H 28.247 48.241 59.498
H 28.384 49.752 59.434
H 29.676 51.4 51.477
H 28.36 50.652 51.365
H 29.444 46.8 56.165
H 30.198 45.487 56.053
H 30.347 50.32 53.297
H 29.616 49.225 52.54
H 32.386 51.309 52.842
H 30.073 43.576 54.777
H 32.69 44.695 55.769
H 29.099 50.414 55.776
H 29.797 49.094 55.5
H 26.04 46.611 54.774
H 24.577 46.555 54.369
H 28.536 51.852 53.635
H 27.407 50.882 53.334
H 29.616 51.118 57.944
H 30.986 50.647 58.398
H 32.564 48.625 52.728
H 31.552 47.593 52.261
