58
xyz format
O 60.59 39.059 52.721
O 57.527 39.392 44.856
O 59.491 41.082 51.615
O 61.029 38.18 50.048
O 59.052 40.635 45.899
O 60.473 36.334 47.206
O 61.991 41.178 50.57
O 56.685 35.957 49.083
O 58.4 34.241 47.166
O 59.805 41.423 48.572
O 58.887 37.503 46.227
O 58.668 39.011 49.076
O 59.266 36.379 51.227
O 56.932 33.895 50.321
O 61.191 37.962 45.881
O 57.043 40.261 49.869
O 57.6 42.914 50.605
O 57.525 42.61 46.168
O 56.94 40.673 47.041
H 56.933 43.047 46.793
H 58.375 42.6 46.627
H 58.99 36.77 52.064
H 60.12 35.978 51.432
H 56.984 35.924 52.404
H 56.155 38.031 51.049
H 58.441 38.08 48.96
H 58.867 39.311 48.18
H 57.448 34.359 47.28
H 55.955 35.762 48.482
H 57.412 36.192 48.493
H 57.658 43.835 50.322
H 57.335 42.445 49.804
H 61.892 37.759 45.249
H 61.572 38.657 46.431
H 60.032 35.849 47.915
H 56.568 39.522 49.47
H 57.341 39.91 50.718
H 61.322 36.583 47.591
H 57.73 34.436 50.28
H 56.703 33.753 49.394
H 59.987 40.51 46.103
H 59.06 41.024 45.015
H 60.586 37.739 49.312
H 60.635 39.061 50.058
H 59.215 41.171 50.694
H 59.046 41.815 52.059
H 59.813 43.731 49.319
H 56.956 38.636 45.046
H 57.521 39.447 43.893
H 57.029 39.712 47.046
H 57.456 40.955 47.807
H 57.998 37.461 46.6
H 59.065 38.45 46.164
H 60.517 40.788 48.719
H 60.105 41.931 47.808
H 62.429 41.917 48.529
H 61.31 39.333 52.138
H 59.892 38.788 52.111
