23
xyz format
O 41.642 47.008 74.741
O 45.108 45.201 77.484
O 41.874 43.285 74.889
O 44.199 47.277 77.289
O 46.351 41.228 76.558
O 43.747 45.497 75.141
O 46.355 43.944 74.643
O 44.09 43.149 77.083
H 45.547 43.485 74.382
H 46.226 41.71 77.385
H 44.471 47.411 78.206
H 43.237 47.223 77.341
H 41.151 43.114 74.273
H 42.645 43.385 74.316
H 44.671 45.276 75.315
H 43.702 46.445 75.314
H 44.818 43.117 76.45
H 43.324 43.376 76.542
H 45.801 45.776 77.135
H 45.594 44.541 77.995
H 40.534 45.126 73.631
H 40.742 47.164 74.431
H 42.189 47.502 74.117
