54
xyz format
O 69.707 53.004 35.096
O 70.551 50.08 31.041
O 71.678 50.996 32.939
O 70.973 55.472 36.151
O 70.108 53.36 39.458
O 74.328 51.162 38.153
O 67.723 55.17 34.685
O 72.648 50.152 35.389
O 71.048 48.164 38.908
O 71.728 55.394 33.185
O 67.743 50.348 36.169
O 68.599 50.251 38.54
O 72.325 48.476 33.692
O 73.904 48.505 39.58
O 70.683 50.986 36.535
O 72.557 53.274 33.777
O 73.779 48.14 35.829
O 71.952 52.018 39.092
H 73.104 48.619 33.14
H 71.626 48.281 33.056
H 67.939 50.061 39.219
H 69.428 50.296 39.032
H 67.394 50.84 35.415
H 68.439 49.801 35.783
H 73.196 50.234 36.179
H 72.001 49.477 35.627
H 73.282 48.068 38.985
H 73.765 49.444 39.407
H 69.922 51.233 37.075
H 71.44 51.267 37.063
H 71.198 49.022 39.324
H 70.341 48.338 38.273
H 73.797 51.776 37.63
H 74.889 50.728 37.497
H 74.118 48.08 36.73
H 73.031 47.53 35.823
H 71.416 56.249 32.863
H 72.142 54.995 32.409
H 72.024 51.059 39.174
H 69.021 52.048 31.351
H 71.432 56.273 35.869
H 71.667 54.801 36.155
H 70.226 53.454 38.504
H 72.56 50.857 33.306
H 71.122 50.388 33.441
H 66.237 53.23 37.61
H 69.807 49.487 31.202
H 71.322 49.551 31.283
H 70.966 47.501 30.346
H 72.867 52.895 34.609
H 71.621 53.04 33.753
H 69.295 53.033 35.969
H 69.993 53.913 34.947
H 66.486 50.038 32.707
