32
xyz format
O 48.699 60.73 73.193
O 47.068 55.584 75.391
O 49.298 56.784 75.844
O 51.126 56.387 77.589
O 45.791 57.047 72.962
O 52.723 54.884 75.119
O 46.598 60.076 71.351
O 45.717 58.465 74.663
O 42.684 59.327 73.528
O 48.396 59.365 76.241
H 48.877 59.887 76.895
H 47.538 59.212 76.656
H 51.476 59.531 73.829
H 43.423 59.548 74.108
H 45.549 58.013 75.5
H 45.977 59.355 74.932
H 45.841 60.001 71.945
H 47.193 59.377 71.648
H 52.857 55.181 76.028
H 51.785 54.661 75.086
H 53.352 55.915 78.042
H 53.543 57.32 77.497
H 44.471 58.295 71.413
H 46.754 57.029 73.012
H 45.594 56.554 72.155
H 50.735 55.813 78.259
H 50.563 57.172 77.601
H 49.021 57.324 75.092
H 49.685 56.001 75.434
H 47.225 56.125 76.175
H 46.35 56.042 74.936
H 49.035 59.972 72.698
