72
xyz format
O 41.412 59.904 45.339
O 43.898 59.337 44.775
O 48.479 61.247 49.622
O 43.014 57.352 50.28
O 47.823 59.757 44.75
O 43.801 59.878 48.48
O 45.669 62.484 44.645
O 46.791 61.459 46.866
O 46.216 56.588 52.637
O 43.288 60.914 51.7
O 42.018 63.872 45.28
O 41.462 60.503 49.131
O 44.112 57.961 52.243
O 45.271 60.546 42.993
O 45.512 56.47 48.907
O 45.801 64.68 44.688
O 47.703 59.154 48.739
O 42.049 57.107 45.768
O 44.197 62.054 47.458
O 46.846 56.204 46.256
O 40.528 62.488 46.463
O 45.625 57.874 45.407
O 42.028 61.824 43.179
O 40.689 60.948 52.072
H 44.348 60.781 43.151
H 45.619 60.375 43.877
H 46.924 59.319 49.285
H 47.347 59.094 47.843
H 42.573 56.542 46.35
H 41.572 57.683 46.378
H 41.431 62.378 46.784
H 40.582 62.226 45.535
H 45.417 57.425 49.012
H 44.606 56.163 48.773
H 44.122 58.893 51.99
H 44.404 57.97 53.163
H 42.603 61.857 43.954
H 41.232 61.384 43.503
H 46.427 64.417 45.374
H 44.485 62.926 47.161
H 43.398 62.237 47.968
H 45.461 57.822 44.457
H 46.027 58.744 45.522
H 46.034 56.171 46.776
H 47.543 56.256 46.922
H 44.978 65.415 46.708
H 42.125 60.65 49.817
H 40.728 60.093 49.605
H 42.991 61.813 51.512
H 43.313 60.878 52.665
H 43.006 64.358 48.685
H 42.962 63.672 45.304
H 46.527 57.494 52.517
H 46.06 56.523 53.587
H 46.187 61.091 47.524
H 46.813 62.401 47.075
H 43.184 60.036 47.754
H 44.416 59.227 48.119
H 48.217 58.876 44.774
H 48.025 60.122 45.621
H 46.56 62.143 44.787
H 40.797 61.56 51.333
H 40.119 60.256 51.714
H 45.184 62.696 49.593
H 48.002 61.901 49.096
H 49.093 60.849 48.992
H 43.953 59.514 45.723
H 43.284 58.593 44.717
H 43.334 57.919 49.567
H 42.094 57.181 50.043
H 42.022 60.569 45.68
H 40.637 59.988 45.909
