66
xyz format
O 47.72 27.35 63.94
O 50.558 26.197 60.281
O 47.845 28.102 61.283
O 51.709 23.13 55.892
O 52.099 25.274 58.968
O 50.286 29.566 63.09
O 53.795 28.205 57.145
O 49.581 27.309 55.104
O 54.134 23.479 57.417
O 49.47 22.739 57.725
O 48.257 27.486 58.081
O 51.853 26.252 55.552
O 50.076 27.539 66.014
O 49.676 24.437 62.499
O 54.205 25.838 61.621
O 55.908 23.656 56.092
O 56.491 24.947 58.055
O 45.397 24.125 58.744
O 52.397 26.998 63.252
O 50.973 27.435 57.634
O 55.297 24.187 60.209
O 47.545 24.985 61.083
O 48.268 24.82 57.904
H 52.229 26.425 54.68
H 52.438 26.731 56.153
H 45.946 24.879 58.498
H 55.686 22.736 55.902
H 56.133 24.021 55.227
H 44.512 24.502 58.827
H 57.055 25.177 57.307
H 55.597 25.1 57.724
H 49.932 25.198 63.035
H 48.813 24.187 62.852
H 47.342 27.605 58.366
H 48.611 26.842 58.708
H 47.385 24.298 60.423
H 48.208 25.551 60.669
H 50.827 27.477 65.411
H 49.316 27.633 65.426
H 50.592 27.822 58.433
H 50.419 26.663 57.467
H 54.758 24.838 59.741
H 54.981 23.341 59.867
H 52.154 26.86 62.328
H 48.721 29.702 58.431
H 50.28 22.231 57.854
H 49.485 22.959 56.785
H 53.419 23.354 58.054
H 53.8 24.17 56.831
H 50.767 28.777 62.81
H 49.409 29.231 63.317
H 53.492 28.065 59.341
H 54.212 27.348 57.296
H 49.973 26.864 60.66
H 50.792 25.642 61.036
H 52.303 25.259 58.024
H 52.515 26.087 59.28
H 52.421 22.531 56.148
H 51.577 23.678 56.676
H 47.972 28.522 60.423
H 47.772 28.846 61.893
H 47.744 24.134 57.47
H 48.713 25.265 57.172
H 47.465 26.934 63.107
H 47.084 28.068 64.042
H 55.809 26.72 59.196
