45
xyz format
O 34.03 51.908 48.431
O 36.137 54.707 47.034
O 36.801 54.519 43.989
O 35.998 54.064 51.222
O 36.685 59.221 51.626
O 33.794 56.833 46.106
O 31.879 55.375 48.019
O 33.429 56.825 48.595
O 36.032 56.502 49.186
O 38.01 56.638 51.62
O 33.56 58.405 51.13
O 34.066 53.885 49.408
O 34.394 52.84 46.177
O 35.791 57.384 44.901
O 35.492 58.963 47.841
O 37.87 56.507 47.514
H 35.941 59.571 48.441
H 35.045 58.346 48.433
H 35.332 52.755 46.392
H 34.124 53.641 46.644
H 33.829 54.491 48.694
H 33.219 53.519 49.69
H 33.817 58.675 50.24
H 36.172 56.566 45.245
H 36.558 57.881 44.591
H 38.375 56.936 50.778
H 36.566 57.216 49.556
H 36.083 55.808 49.856
H 35.472 55.266 47.455
H 36.415 54.11 47.739
H 34.117 55.202 51.29
H 32.618 57.281 48.853
H 33.839 56.592 49.437
H 31.129 55.958 47.847
H 31.733 55.074 48.924
H 33.774 55.872 46.184
H 34.508 57.097 46.7
H 30.875 53.096 48.479
H 36.667 54.355 44.931
H 37.796 56.088 46.647
H 37.837 55.765 48.13
H 35.764 59.128 51.899
H 36.653 59.111 50.668
H 34.706 51.801 49.111
H 33.457 51.141 48.554
