49
xyz format
O 58.119 54.41 60.805
O 48.067 51.742 61.864
O 54.103 44.89 60.293
O 54.146 46.555 63.835
O 56.402 51.536 63.405
O 50.197 49.745 63.746
O 52.245 51.887 61.515
O 54.503 48.568 61.921
O 58.218 51.392 64.638
O 56.714 49.376 62.964
O 54.797 52.536 60.356
O 58.266 52.377 61.636
O 52.312 48.899 61.152
O 53.504 47.74 59.259
O 55.395 46.924 60.065
O 53.589 53.425 63.084
O 56.832 46.309 62.245
O 53.187 49.53 64.323
O 55.489 44.035 61.792
O 49.132 50.328 60.552
H 54.436 47.605 61.924
H 54.675 48.784 60.996
H 56.299 46.62 62.988
H 54.701 44.182 62.33
H 52.718 49.741 61.392
H 51.523 49.157 60.66
H 58.366 51.542 62.11
H 57.503 52.228 61.064
H 55.425 53.208 60.649
H 54.943 51.804 60.97
H 56.355 49.734 62.143
H 57.311 48.677 62.668
H 52.539 47.736 59.247
H 53.737 48.498 58.708
H 52.32 52.7 60.999
H 51.466 52.035 62.065
H 49.564 50.11 63.115
H 50.865 49.33 63.186
H 53.475 48.705 63.913
H 55.49 51.645 63.106
H 56.771 52.426 63.342
H 53.746 45.593 60.849
H 53.833 50.178 64.013
H 49.938 50.655 60.972
H 49.362 49.429 60.285
H 53.197 52.59 63.37
H 55.34 46.422 59.242
H 58.88 54.477 61.395
H 57.362 54.424 61.404
