33
xyz format
O 37.205 34.002 50.022
O 39.855 33.055 48.811
O 37.56 35.072 53.085
O 38.103 30.039 55.727
O 39.361 30.466 53.336
O 36.116 32.709 54.784
O 41.733 31.719 49.0
O 39.147 33.436 51.778
O 37.61 34.905 56.095
O 36.704 32.63 52.673
O 38.327 32.878 54.35
O 41.886 32.097 51.535
H 37.012 32.678 51.759
H 35.766 32.422 52.588
H 38.323 35.168 55.5
H 36.9 34.637 55.498
H 39.956 33.892 52.039
H 39.203 32.588 52.236
H 36.225 31.774 54.999
H 35.345 32.975 55.3
H 41.579 31.266 51.153
H 41.539 32.768 50.933
H 40.089 30.554 52.708
H 38.573 30.483 52.779
H 39.035 33.522 54.22
H 38.648 32.328 55.075
H 37.5 35.232 52.134
H 36.66 34.825 53.332
H 39.723 32.686 49.694
H 39.757 34.006 48.943
H 37.575 33.174 49.691
H 37.97 34.587 50.083
H 41.917 34.205 49.307
