44
xyz format
O 66.687 42.664 35.601
O 62.081 40.221 36.613
O 66.266 39.062 38.048
O 62.061 43.908 37.631
O 67.857 40.342 36.176
O 62.508 37.306 37.731
O 60.145 38.919 37.668
O 64.221 38.518 40.79
O 63.748 37.969 35.67
O 60.14 41.978 34.969
O 65.53 42.804 37.469
O 64.148 40.605 39.335
O 65.066 40.585 34.809
O 64.33 43.585 40.127
O 63.671 43.581 35.382
H 66.705 44.851 35.855
H 64.494 44.506 39.89
H 64.317 43.129 39.276
H 66.195 43.02 38.135
H 65.203 43.666 37.183
H 63.835 38.802 35.191
H 60.83 42.447 35.455
H 59.477 41.782 35.643
H 64.219 38.462 39.826
H 64.431 40.987 35.414
H 65.453 41.34 34.348
H 62.27 42.329 39.149
H 62.153 43.688 39.818
H 63.283 36.792 37.47
H 62.884 38.108 38.113
H 63.261 40.438 39.677
H 64.584 41.086 40.05
H 66.915 40.527 36.071
H 68.123 40.009 35.311
H 63.242 42.805 35.763
H 63.141 43.774 34.599
H 62.389 44.481 36.926
H 61.213 43.592 37.294
H 66.397 40.013 38.147
H 66.221 38.741 38.958
H 62.966 39.946 36.885
H 62.046 39.986 35.677
H 67.112 42.849 34.754
H 67.395 42.789 36.245
