32
xyz format
O 53.977 28.683 59.902
O 57.171 27.537 63.006
O 56.097 28.534 65.701
O 53.484 27.803 66.732
O 54.205 25.838 61.621
O 55.198 29.287 61.777
O 52.397 26.998 63.252
O 53.953 30.128 64.256
O 55.251 26.093 64.669
O 52.912 30.404 61.352
H 52.904 30.585 60.403
H 52.039 30.027 61.52
H 54.07 26.722 61.257
H 54.855 25.974 62.321
H 50.827 27.477 65.411
H 52.986 26.258 63.446
H 52.154 26.86 62.328
H 55.409 28.58 65.025
H 56.918 28.551 65.193
H 53.264 30.211 63.584
H 54.671 30.676 63.917
H 53.513 28.761 66.618
H 54.415 27.548 66.763
H 57.322 28.484 62.899
H 56.245 27.481 63.272
H 50.767 28.777 62.81
H 54.409 28.934 62.207
H 55.636 28.504 61.421
H 54.331 29.329 59.278
H 53.492 28.065 59.341
H 55.998 26.252 65.26
H 54.513 25.933 65.27
