33
xyz format
O 65.857 38.14 34.556
O 65.915 35.229 38.306
O 65.82 31.95 38.353
O 63.152 31.415 34.885
O 65.785 33.664 33.61
O 67.213 37.377 36.114
O 67.605 37.375 33.344
O 64.824 29.121 37.259
O 65.853 31.055 35.642
O 64.228 35.454 33.531
O 64.879 34.391 36.554
O 66.037 35.953 32.324
H 66.588 36.649 36.217
H 63.282 37.395 35.049
H 63.07 31.227 35.828
H 63.638 32.249 34.859
H 66.675 33.397 33.872
H 65.337 32.827 33.437
H 67.926 36.702 33.957
H 68.401 37.658 32.877
H 63.458 34.971 33.854
H 64.63 35.809 34.334
H 66.505 31.566 35.146
H 65.275 30.694 34.958
H 64.574 29.223 38.186
H 64.081 29.506 36.778
H 64.269 34.23 35.823
H 65.73 34.09 36.213
H 66.698 35.372 31.927
H 65.385 32.789 38.156
H 66.494 31.874 37.667
H 66.635 34.6 38.171
H 65.34 38.066 33.744
