44
xyz format
O 46.198 44.885 70.629
O 44.69 45.659 69.211
O 48.289 51.398 67.62
O 46.774 49.983 71.37
O 43.274 49.346 66.01
O 50.654 50.674 67.209
O 44.582 51.93 66.294
O 49.151 47.639 66.853
O 46.166 50.465 65.749
O 44.71 49.266 68.374
O 46.948 48.523 73.007
O 48.31 49.359 69.064
O 44.827 51.62 69.107
O 46.766 48.107 66.076
O 45.983 47.686 70.461
H 47.452 47.871 73.509
H 46.925 47.624 66.897
H 46.174 47.529 65.58
H 48.914 46.892 66.289
H 48.932 48.411 66.317
H 47.431 49.422 68.671
H 48.904 49.399 68.304
H 43.818 49.004 68.115
H 45.271 48.58 67.991
H 45.613 51.075 69.241
H 45.137 52.517 69.281
H 50.08 50.274 66.544
H 51.122 49.921 67.591
H 43.066 50.469 69.777
H 45.253 52.047 66.979
H 43.806 51.628 66.783
H 45.712 44.983 71.457
H 47.01 45.385 70.779
H 45.274 47.919 71.072
H 46.749 47.562 71.035
H 47.347 51.462 67.82
H 48.339 51.613 66.68
H 45.83 50.05 71.177
H 47.189 50.49 70.662
H 45.851 49.843 65.082
H 46.756 51.05 65.257
H 49.415 48.874 72.882
H 44.733 46.602 69.01
H 47.002 53.359 66.717
