53
xyz format
O 37.458 38.603 54.247
O 36.242 36.632 49.531
O 34.633 35.421 54.0
O 37.603 39.466 51.337
O 37.205 34.002 50.022
O 39.64 39.576 56.348
O 35.795 40.644 50.88
O 36.817 37.38 51.675
O 37.56 35.072 53.085
O 33.645 39.909 52.16
O 34.587 38.378 54.556
O 39.99 39.534 51.904
O 37.61 34.905 56.095
O 36.704 32.63 52.673
O 35.19 41.251 55.002
O 35.058 36.646 57.021
H 35.706 41.815 54.412
H 34.861 40.552 54.423
H 36.027 42.8 51.581
H 37.012 32.678 51.759
H 35.766 32.422 52.588
H 34.703 35.12 50.286
H 38.323 35.168 55.5
H 36.9 34.637 55.498
H 39.666 38.844 52.496
H 40.334 40.208 52.503
H 32.642 37.072 53.638
H 33.741 34.566 52.179
H 34.836 38.32 55.487
H 35.354 38.023 54.09
H 37.5 35.232 52.134
H 36.66 34.825 53.332
H 34.244 39.272 52.57
H 33.274 40.39 52.91
H 36.19 37.018 52.314
H 37.643 37.435 52.171
H 36.083 40.909 49.998
H 35.449 39.752 50.751
H 39.273 40.351 55.904
H 39.971 39.032 55.623
H 37.575 33.174 49.691
H 37.97 34.587 50.083
H 37.928 40.373 51.272
H 37.557 39.172 50.419
H 35.487 37.056 49.103
H 36.938 37.299 49.483
H 38.569 41.421 53.276
H 34.26 36.462 56.511
H 35.655 35.927 56.78
H 33.991 34.969 54.562
H 35.22 35.859 54.628
H 37.109 39.27 54.851
H 37.779 37.907 54.834
