27
xyz format
O 34.909 40.162 40.192
O 32.099 40.922 43.526
O 37.155 38.97 40.989
O 33.308 41.152 41.522
O 32.668 41.843 39.067
O 33.894 43.538 40.384
O 36.101 39.456 43.033
O 32.701 38.598 42.214
O 35.964 42.155 43.105
H 33.859 36.734 42.482
H 33.569 38.85 41.876
H 32.138 39.348 41.985
H 36.187 39.043 43.901
H 35.35 40.053 43.136
H 33.747 38.3 44.21
H 32.669 39.206 44.78
H 32.229 38.867 39.741
H 32.851 40.944 39.365
H 33.516 42.147 38.722
H 33.705 37.318 40.238
H 34.579 43.721 41.039
H 33.075 43.562 40.895
H 32.425 41.532 41.439
H 33.798 41.816 42.023
H 37.426 39.846 40.688
H 35.021 39.206 40.262
H 35.339 40.502 40.986
