38
xyz format
O 48.262 50.179 24.401
O 51.574 51.153 22.552
O 52.511 51.435 24.703
O 50.68 48.841 22.118
O 44.749 49.803 27.586
O 44.893 51.368 25.879
O 46.917 49.355 21.679
O 49.387 46.449 23.492
O 45.648 52.248 27.755
O 49.153 52.077 26.007
O 46.627 52.684 24.989
O 48.858 46.918 28.19
O 47.77 49.6 26.866
O 47.9 47.945 25.418
H 52.92 51.905 25.441
H 51.648 51.174 25.048
H 44.395 50.602 25.565
H 44.026 49.252 27.262
H 48.272 48.931 27.349
H 46.929 49.641 27.338
H 49.428 52.561 25.218
H 49.639 51.245 25.946
H 48.498 46.796 23.639
H 44.994 47.695 26.044
H 46.911 51.768 25.101
H 47.569 48.648 21.594
H 47.347 50.113 21.263
H 46.424 51.79 27.409
H 51.095 51.526 21.802
H 52.381 50.801 22.156
H 48.088 46.643 27.677
H 47.173 47.468 25.837
H 48.688 47.476 25.723
H 50.608 48.626 21.179
H 50.069 49.58 22.231
H 47.921 45.427 25.495
H 49.037 49.627 24.564
H 47.851 49.776 23.626
