82
xyz format
O 66.925 61.162 65.676
O 67.1 66.698 63.22
O 64.954 62.354 66.872
O 67.461 64.799 62.139
O 65.671 61.294 58.902
O 65.263 69.121 61.854
O 66.099 67.001 66.451
O 68.79 66.91 61.533
O 67.848 60.506 61.688
O 70.478 65.422 59.228
O 65.031 69.513 64.007
O 72.649 63.494 60.053
O 64.283 66.522 62.313
O 67.749 62.38 60.54
O 63.496 63.416 65.077
O 71.422 63.771 56.513
O 71.309 60.192 64.349
O 74.251 59.744 57.75
O 68.87 65.363 64.414
O 70.297 61.437 59.632
O 67.389 62.821 57.353
O 70.188 60.699 61.702
O 67.575 63.471 65.438
O 73.324 65.471 56.738
O 62.641 65.124 62.733
O 69.996 63.107 63.519
O 73.03 60.867 61.177
H 62.854 64.196 62.576
H 62.469 65.163 63.682
H 64.232 62.862 64.789
H 62.767 63.143 64.506
H 67.122 63.748 57.38
H 68.182 63.056 60.003
H 66.93 62.804 60.823
H 73.758 59.867 58.571
H 70.827 60.553 65.103
H 71.217 63.37 57.367
H 67.229 63.617 64.548
H 68.411 63.014 65.286
H 72.543 65.938 57.062
H 73.416 64.728 57.348
H 70.264 63.766 62.868
H 69.532 62.442 62.995
H 72.673 64.135 59.332
H 73.088 62.717 59.685
H 70.542 61.183 58.734
H 70.987 62.061 59.89
H 68.679 65.919 65.18
H 69.812 65.17 64.501
H 70.929 60.897 62.288
H 69.929 59.803 61.954
H 64.703 65.728 61.959
H 64.922 66.85 62.959
H 65.115 69.274 64.939
H 64.078 69.602 63.878
H 68.277 66.762 60.729
H 69.513 67.48 61.241
H 67.664 58.799 63.054
H 67.911 61.044 62.487
H 66.915 60.56 61.448
H 67.643 61.229 66.318
H 67.381 61.124 64.826
H 71.228 66.0 59.414
H 70.3 64.997 60.077
H 64.26 62.545 60.131
H 66.936 67.004 65.97
H 65.529 66.435 65.916
H 65.3 68.298 61.351
H 64.894 69.756 61.228
H 65.026 59.88 65.126
H 66.06 60.469 59.218
H 65.9 61.312 57.965
H 66.939 64.946 61.34
H 68.212 64.278 61.83
H 73.202 60.248 61.898
H 72.868 61.705 61.628
H 67.779 67.269 63.601
H 66.856 66.114 63.948
H 68.912 59.551 64.675
H 65.092 61.399 66.876
H 65.707 62.697 67.369
H 67.161 69.351 60.694
