31
xyz format
O 46.529 42.063 30.219
O 52.045 39.375 30.216
O 50.118 37.717 31.113
O 49.397 39.75 27.915
O 47.96 41.069 32.132
O 48.646 40.269 30.2
O 51.156 42.059 28.588
O 46.743 41.184 28.097
O 48.298 43.553 28.503
H 51.593 42.395 29.38
H 50.918 41.154 28.824
H 47.943 40.065 29.57
H 44.499 42.212 29.385
H 48.814 41.209 30.06
H 48.764 42.754 28.226
H 48.493 40.315 32.415
H 48.556 41.821 32.232
H 47.777 38.067 31.583
H 46.67 38.849 30.896
H 46.605 42.136 28.021
H 47.455 41.005 27.47
H 49.061 38.865 28.104
H 50.121 39.593 27.296
H 52.427 37.28 28.391
H 50.987 37.494 27.959
H 50.037 38.419 31.77
H 49.607 38.044 30.362
H 46.184 41.467 30.895
H 47.172 42.603 30.695
H 51.501 38.866 29.602
H 52.596 39.918 29.639
