70
xyz format
O 32.484 39.866 55.898
O 28.95 36.009 59.347
O 30.368 38.434 58.002
O 30.252 41.001 61.495
O 28.291 36.537 56.804
O 26.565 39.48 61.241
O 31.308 41.03 53.868
O 29.915 38.172 61.749
O 25.713 41.786 60.598
O 28.158 36.581 61.319
O 28.559 39.59 60.319
O 29.986 41.428 58.399
O 28.663 34.746 54.875
O 28.056 40.158 54.292
O 26.206 38.955 54.038
O 30.345 37.97 52.972
O 26.32 37.055 60.013
O 27.734 41.323 57.598
O 31.288 34.605 56.578
O 32.627 38.001 53.376
O 31.383 42.308 56.561
O 27.338 33.136 53.951
O 30.787 35.311 54.379
H 26.181 37.735 59.341
H 26.786 36.356 59.539
H 31.938 39.708 59.599
H 29.849 38.465 52.308
H 29.849 38.121 53.787
H 26.724 38.146 54.134
H 25.538 38.883 54.732
H 28.906 40.156 53.835
H 28.221 40.692 55.079
H 28.567 34.588 55.823
H 28.666 35.709 54.802
H 32.236 36.213 51.457
H 32.413 38.466 54.194
H 28.421 39.351 59.394
H 28.292 40.517 60.358
H 30.473 42.192 58.732
H 30.079 40.773 59.101
H 27.153 40.84 56.997
H 28.315 41.817 57.007
H 30.584 33.949 56.496
H 32.004 34.121 57.009
H 27.713 37.177 61.934
H 28.388 35.819 61.865
H 26.446 41.846 59.973
H 26.148 41.757 61.459
H 29.994 39.205 57.558
H 31.068 38.142 57.405
H 28.647 35.358 58.702
H 29.162 36.782 58.81
H 31.805 41.479 54.562
H 29.837 38.983 62.267
H 30.344 38.461 60.934
H 31.043 40.197 54.278
H 26.042 38.697 61.452
H 26.88 39.784 62.101
H 29.567 42.373 54.0
H 27.053 33.246 54.867
H 28.225 32.762 54.03
H 28.298 37.501 56.754
H 27.362 36.322 56.953
H 32.021 36.477 58.479
H 33.017 39.205 56.356
H 31.751 40.03 56.504
H 31.055 41.279 61.954
H 29.541 41.323 62.064
H 30.822 35.834 53.568
H 31.595 34.784 54.347
