119
xyz format
O 48.185 35.974 28.931
O 51.415 41.073 23.372
O 50.527 39.15 25.125
O 43.6 42.791 24.648
O 46.529 42.063 30.219
O 48.59 41.912 23.242
O 55.212 42.13 23.332
O 51.83 45.651 25.741
O 52.045 39.375 30.216
O 53.178 41.818 24.845
O 50.118 37.717 31.113
O 51.575 36.828 28.335
O 46.756 45.28 28.776
O 49.397 39.75 27.915
O 51.147 34.915 30.093
O 49.502 35.804 24.964
O 44.294 43.052 29.815
O 51.857 36.584 25.087
O 49.291 43.846 24.583
O 49.978 42.608 26.311
O 48.646 40.269 30.2
O 45.106 43.419 27.047
O 49.004 35.151 31.673
O 53.813 34.429 26.364
O 50.68 48.841 22.118
O 53.987 37.131 25.152
O 54.628 39.041 26.229
O 51.156 42.059 28.588
O 53.624 44.997 22.491
O 51.379 33.053 28.417
O 46.743 41.184 28.097
O 49.387 46.449 23.492
O 47.028 45.182 25.768
O 48.298 43.553 28.503
O 51.482 44.896 22.983
O 48.858 46.918 28.19
O 46.329 41.858 25.392
O 45.291 39.253 26.091
O 47.893 39.234 23.908
O 47.9 47.945 25.418
H 53.636 44.038 22.602
H 51.593 42.395 29.38
H 50.918 41.154 28.824
H 54.356 45.301 23.042
H 45.898 38.863 25.449
H 45.783 40.004 26.444
H 53.668 39.076 26.316
H 54.832 39.785 25.648
H 54.813 36.69 25.387
H 54.24 37.722 24.431
H 47.109 41.678 24.852
H 45.609 41.894 24.749
H 49.847 35.341 32.104
H 48.735 36.003 31.309
H 51.454 45.86 22.929
H 51.209 44.608 22.103
H 44.403 42.766 27.152
H 45.138 43.571 26.094
H 50.037 43.601 24.022
H 48.572 43.996 23.956
H 47.943 40.065 29.57
H 48.953 36.416 25.47
H 50.076 35.407 25.631
H 44.521 43.712 29.147
H 44.499 42.212 29.385
H 50.448 43.264 26.84
H 50.682 42.154 25.831
H 48.814 41.209 30.06
H 51.755 37.098 25.898
H 52.239 35.751 25.39
H 48.498 46.796 23.639
H 49.258 45.76 22.829
H 53.401 47.477 22.549
H 48.844 44.269 28.154
H 48.764 42.754 28.226
H 51.203 32.68 27.544
H 50.969 32.423 29.022
H 53.101 42.325 24.028
H 53.299 40.91 24.542
H 47.569 48.648 21.594
H 46.605 42.136 28.021
H 47.455 41.005 27.47
H 49.061 38.865 28.104
H 50.121 39.593 27.296
H 50.378 35.052 29.525
H 51.894 34.977 29.485
H 46.669 46.07 29.324
H 46.541 44.558 29.38
H 44.984 45.769 23.564
H 53.998 42.854 28.516
H 52.427 37.28 28.391
H 50.987 37.494 27.959
H 49.607 38.044 30.362
H 48.088 46.643 27.677
H 47.172 42.603 30.695
H 47.173 47.468 25.837
H 48.688 47.476 25.723
H 51.692 44.702 25.628
H 51.078 46.048 25.283
H 48.286 38.365 23.76
H 48.332 39.551 24.707
H 51.501 38.866 29.602
H 52.596 39.918 29.639
H 50.608 48.626 21.179
H 53.632 34.943 27.16
H 53.023 33.885 26.257
H 49.095 41.464 23.931
H 48.529 41.255 22.537
H 48.61 36.834 28.819
H 47.625 35.893 28.149
H 43.263 42.23 23.939
H 44.054 43.503 24.181
H 51.401 38.985 24.749
H 50.094 38.289 25.083
H 47.921 45.427 25.495
H 47.163 44.402 26.321
H 55.332 41.664 24.169
H 51.061 41.912 23.053
H 52.08 40.839 22.712
