66
xyz format
O 46.433 36.815 32.932
O 46.529 42.063 30.219
O 50.118 37.717 31.113
O 42.509 44.712 31.816
O 49.397 39.75 27.915
O 44.636 45.743 30.719
O 43.966 42.991 35.457
O 47.96 41.069 32.132
O 44.294 43.052 29.815
O 41.846 41.941 31.692
O 48.183 38.292 34.342
O 48.646 40.269 30.2
O 42.205 43.697 34.264
O 46.137 41.844 36.528
O 46.963 45.185 32.225
O 47.291 39.979 35.984
O 44.661 39.923 34.84
O 51.156 42.059 28.588
O 49.833 37.065 33.547
O 44.806 43.652 32.61
O 42.65 40.602 34.256
O 46.994 38.6 31.771
O 46.208 40.407 33.329
H 50.918 41.154 28.824
H 44.658 40.253 35.747
H 45.254 39.162 34.875
H 46.345 42.774 36.374
H 47.284 44.243 34.593
H 47.0 43.21 33.517
H 46.405 44.749 31.569
H 45.621 41.857 37.343
H 46.603 39.614 36.554
H 44.993 45.627 34.845
H 42.851 40.006 33.524
H 43.073 41.431 34.0
H 45.014 43.04 31.893
H 44.538 43.074 33.335
H 47.322 38.686 34.153
H 47.943 40.065 29.57
H 48.814 41.209 30.06
H 41.967 43.302 33.416
H 42.759 41.648 31.801
H 42.733 44.467 34.018
H 48.493 40.315 32.415
H 48.556 41.821 32.232
H 43.853 42.287 36.108
H 47.777 38.067 31.583
H 46.67 38.849 30.896
H 43.932 43.127 38.195
H 43.706 43.789 35.935
H 40.581 40.135 33.16
H 43.838 46.062 30.279
H 44.533 46.048 31.63
H 49.061 38.865 28.104
H 50.121 39.593 27.296
H 46.541 44.558 29.38
H 43.002 44.074 31.285
H 45.83 41.287 33.447
H 45.565 39.953 32.77
H 50.037 38.419 31.77
H 49.607 38.044 30.362
H 46.184 41.467 30.895
H 47.172 42.603 30.695
H 51.501 38.866 29.602
H 45.945 36.067 32.566
H 45.742 37.399 33.267
