25
xyz format
O 56.041 56.892 75.006
O 55.016 54.74 74.581
O 55.715 59.118 75.927
O 52.723 54.884 75.119
O 52.347 55.403 73.0
O 53.994 56.471 77.582
O 58.174 58.5 75.385
O 58.118 55.763 75.911
H 58.521 56.391 76.523
H 53.592 52.949 74.495
H 53.645 53.106 72.985
H 52.857 55.181 76.028
H 51.785 54.661 75.086
H 51.68 54.719 72.863
H 52.259 55.969 72.223
H 53.352 55.915 78.042
H 53.543 57.32 77.497
H 55.76 58.813 76.841
H 55.803 54.328 74.202
H 54.49 54.982 73.809
H 56.131 59.989 75.955
H 57.799 58.226 74.539
H 58.231 59.461 75.311
H 56.61 56.379 74.418
H 55.413 57.314 74.406
