151
xyz format
Na 46.336 56.344 34.969
O 45.023 54.088 36.793
O 37.603 54.09 36.874
O 35.047 57.531 39.733
O 41.677 58.091 41.798
O 42.6 59.874 35.929
O 37.424 59.543 39.401
O 44.851 52.129 39.126
O 36.087 52.32 37.839
O 39.394 58.119 42.329
O 41.971 55.703 32.339
O 38.091 53.985 32.814
O 35.318 54.462 35.57
O 46.576 56.266 38.022
O 39.124 61.219 37.284
O 41.915 55.924 36.92
O 35.879 57.619 36.81
O 38.278 56.39 34.887
O 40.227 57.338 34.477
O 35.641 60.734 40.835
O 40.535 57.907 37.278
O 40.196 51.677 39.231
O 35.826 54.847 38.167
O 38.604 51.744 41.346
O 39.748 54.056 36.206
O 36.904 54.586 41.793
O 44.15 58.19 34.028
O 46.923 54.191 35.632
O 40.455 55.642 38.693
O 39.134 55.815 32.179
O 38.589 51.006 35.766
O 46.539 55.3 29.686
O 42.843 53.455 32.678
O 43.822 55.229 35.077
O 45.371 53.799 33.656
O 47.91 51.668 39.049
O 38.37 58.492 36.904
O 41.215 52.032 41.657
O 37.669 56.619 40.494
O 38.052 59.85 42.629
O 38.862 54.0 40.963
O 43.431 54.516 38.25
O 39.422 58.85 32.292
O 41.942 55.608 42.03
O 42.973 49.986 33.639
O 41.843 53.022 34.695
O 36.483 51.152 35.074
H 41.15 53.047 34.023
H 39.427 50.044 33.974
H 41.722 52.163 35.118
H 38.848 51.921 42.263
H 37.64 51.705 41.368
H 43.141 50.784 34.155
H 43.441 50.145 32.81
H 43.45 54.072 32.251
H 42.234 53.207 31.971
H 41.775 55.301 41.13
H 42.885 55.445 42.156
H 43.471 54.553 34.484
H 44.172 55.9 34.478
H 45.181 52.905 33.346
H 45.892 54.185 32.94
H 46.826 55.191 30.601
H 39.747 56.148 39.11
H 41.26 56.066 39.016
H 47.59 54.415 34.97
H 46.692 53.277 35.423
H 44.008 51.868 31.552
H 43.773 58.237 34.915
H 45.09 58.034 34.185
H 39.603 58.062 34.344
H 40.728 57.313 33.652
H 38.722 55.731 34.339
H 37.932 55.877 35.628
H 36.556 57.518 36.129
H 36.072 56.906 37.432
H 42.414 56.625 36.483
H 42.009 55.17 36.325
H 40.204 53.212 36.315
H 40.143 54.429 35.408
H 42.932 50.109 41.083
H 44.719 54.05 30.095
H 36.942 61.558 38.66
H 36.354 54.959 41.093
H 36.685 53.646 41.78
H 39.43 54.596 41.467
H 38.871 54.372 40.072
H 35.973 50.796 39.986
H 37.718 60.51 42.008
H 45.985 56.297 32.307
H 41.289 49.984 35.468
H 40.647 50.856 36.534
H 38.257 58.176 37.809
H 37.982 59.375 36.918
H 40.753 58.258 36.405
H 40.057 57.091 37.085
H 33.024 54.835 37.891
H 42.06 52.126 41.201
H 40.625 52.623 41.173
H 35.253 60.753 39.952
H 36.144 61.557 40.883
H 40.996 51.149 39.344
H 40.296 52.06 38.351
H 35.155 54.64 38.829
H 36.597 55.095 38.692
H 40.84 57.588 30.746
H 47.494 51.871 39.896
H 36.187 51.834 35.69
H 37.038 57.05 41.084
H 37.423 56.942 39.619
H 39.896 60.674 37.088
H 39.137 61.296 38.247
H 36.929 51.651 34.378
H 45.99 55.892 38.693
H 36.921 57.769 32.449
H 35.409 53.807 36.273
H 35.834 55.214 35.889
H 35.143 58.222 41.891
H 42.414 55.966 33.156
H 41.198 55.213 32.645
H 37.618 53.942 33.655
H 39.742 57.22 42.38
H 38.917 58.133 41.49
H 33.926 56.534 36.12
H 36.193 52.631 38.747
H 36.555 51.476 37.83
H 40.453 60.436 34.316
H 46.015 52.735 31.29
H 38.817 59.525 32.626
H 38.538 51.621 36.509
H 39.471 55.637 31.293
H 38.835 56.732 32.131
H 42.647 54.285 38.764
H 43.509 55.471 38.366
H 37.061 59.047 40.145
H 38.211 59.964 39.769
H 44.456 52.035 38.25
H 44.765 53.072 39.316
H 39.8 60.892 41.021
H 34.531 57.256 38.964
H 34.973 58.493 39.727
H 43.898 56.461 31.578
H 37.937 53.472 37.536
H 37.605 53.575 36.058
H 45.669 53.765 37.434
H 45.086 55.048 36.869
H 39.5 52.294 32.779
H 38.087 51.806 32.513
H 42.582 58.294 41.531
H 41.189 58.081 40.964
H 42.917 59.302 36.639
