33
xyz format
Na 35.533 36.977 44.303
O 32.884 35.448 43.982
O 38.584 33.255 44.327
O 35.998 33.114 43.272
O 34.114 35.713 46.515
O 38.696 30.883 43.229
O 36.542 34.821 41.955
O 34.368 33.378 45.237
O 37.52 35.164 45.707
O 38.552 36.003 47.437
O 38.78 36.562 42.502
O 36.144 34.572 47.31
O 34.641 36.168 42.457
H 33.859 36.734 42.482
H 35.137 36.496 41.696
H 39.239 36.318 43.315
H 37.887 36.777 42.798
H 33.541 33.329 45.733
H 34.088 33.638 44.35
H 38.17 35.354 45.019
H 36.675 35.372 45.288
H 37.277 35.126 41.409
H 36.02 34.276 41.353
H 38.727 31.722 42.753
H 38.17 31.083 44.013
H 33.22 35.352 46.548
H 34.378 35.59 45.595
H 36.423 32.251 43.351
H 36.461 33.658 43.921
H 38.317 33.166 45.25
H 39.546 33.326 44.373
H 32.172 35.584 44.62
H 32.473 34.916 43.29
