36
xyz format
O 66.077 51.943 48.352
O 65.141 55.078 45.493
O 65.816 54.329 48.2
O 63.951 57.903 46.767
O 67.002 54.671 50.022
O 64.779 53.145 50.193
O 62.898 54.962 51.608
O 64.165 52.322 52.887
O 64.109 55.729 48.859
O 61.716 55.792 45.973
O 66.894 57.467 45.327
O 67.769 53.237 47.772
H 63.142 55.79 52.04
H 62.996 55.156 50.668
H 63.225 57.679 47.362
H 64.643 58.221 47.36
H 64.725 53.574 51.056
H 65.176 52.287 50.388
H 66.873 53.794 50.404
H 66.197 55.147 50.262
H 66.941 57.538 46.289
H 67.686 55.121 45.512
H 66.613 58.346 45.046
H 65.026 51.987 52.605
H 64.615 56.175 48.167
H 63.699 54.986 48.4
H 62.126 55.729 46.845
H 64.753 54.345 53.661
H 63.812 50.677 51.149
H 65.448 53.984 47.377
H 65.298 55.949 45.878
H 64.193 55.076 45.309
H 66.452 54.994 47.907
H 68.082 53.198 46.86
H 66.084 51.876 47.389
H 66.789 51.354 48.629
