43
xyz format
O 52.341 36.905 65.243
O 58.247 35.569 61.606
O 53.036 35.388 62.771
O 50.982 37.216 62.935
O 55.782 32.223 65.02
O 53.238 39.604 64.257
O 50.461 40.554 64.247
O 53.99 33.576 63.828
O 55.714 36.678 61.742
O 57.039 30.149 60.749
O 56.672 34.39 62.816
O 55.535 32.102 58.886
O 57.242 30.701 62.901
O 55.253 32.071 61.658
O 50.201 38.684 61.455
H 51.47 34.373 60.993
H 57.0 31.636 62.922
H 52.714 33.502 60.993
H 56.597 35.234 63.278
H 56.227 34.55 61.974
H 52.2 32.296 63.737
H 54.85 36.491 62.13
H 56.153 37.221 62.409
H 58.698 33.012 62.671
H 50.837 40.251 63.411
H 52.521 39.243 64.793
H 53.39 38.923 63.589
H 54.013 33.419 62.875
H 54.784 34.099 63.993
H 51.929 37.373 63.031
H 50.749 36.722 63.731
H 55.505 32.014 65.921
H 56.576 32.757 65.142
H 49.526 38.172 60.992
H 49.77 39.531 61.624
H 55.695 32.639 61.015
H 54.878 31.363 61.12
H 52.112 35.179 62.96
H 53.352 35.79 63.59
H 49.452 35.86 62.113
H 56.515 30.426 59.987
H 57.665 36.007 60.973
H 58.309 34.666 61.273
