107
xyz format
O 41.517 38.638 48.602
O 44.313 31.574 52.484
O 40.733 34.076 46.972
O 48.262 32.311 52.325
O 45.137 32.146 55.159
O 36.242 36.632 49.531
O 42.071 34.804 48.565
O 37.205 34.002 50.022
O 39.855 33.055 48.811
O 37.56 35.072 53.085
O 43.859 36.695 49.147
O 44.026 34.047 50.12
O 43.704 34.017 44.311
O 41.565 31.817 54.306
O 43.206 30.56 46.823
O 40.673 37.651 44.885
O 39.361 30.466 53.336
O 44.357 38.187 51.577
O 37.52 35.164 45.707
O 38.552 36.003 47.437
O 41.733 31.719 49.0
O 38.78 36.562 42.502
O 39.147 33.436 51.778
O 46.049 33.798 50.949
O 36.704 32.63 52.673
O 46.485 33.445 45.564
O 43.154 38.972 45.769
O 38.327 32.878 54.35
O 41.801 34.548 56.395
O 41.886 32.097 51.535
O 44.495 36.267 46.086
O 43.622 35.211 53.103
O 45.502 35.93 50.495
O 41.464 36.253 46.761
O 36.144 34.572 47.31
H 46.681 37.307 52.849
H 39.492 35.856 47.604
H 38.142 35.865 48.299
H 44.827 35.805 51.174
H 46.055 36.637 50.849
H 37.012 32.678 51.759
H 45.995 33.882 51.909
H 46.62 33.032 50.817
H 39.956 33.892 52.039
H 39.203 32.588 52.236
H 40.9 38.511 45.26
H 41.365 37.497 44.23
H 41.579 31.266 51.153
H 41.539 32.768 50.933
H 44.101 38.287 50.652
H 45.045 38.854 51.698
H 40.089 30.554 52.708
H 43.372 29.737 47.298
H 42.243 30.599 46.762
H 39.239 36.318 43.315
H 37.887 36.777 42.798
H 42.124 32.229 48.28
H 41.082 31.16 48.557
H 39.035 33.522 54.22
H 42.571 39.662 46.109
H 42.999 38.989 44.816
H 47.079 34.097 45.955
H 46.25 32.874 46.306
H 38.17 35.354 45.019
H 36.675 35.372 45.288
H 44.507 36.99 46.725
H 45.287 35.758 46.3
H 43.373 34.339 45.159
H 44.657 33.948 44.448
H 47.61 32.601 52.975
H 48.538 33.131 51.896
H 37.5 35.232 52.134
H 36.66 34.825 53.332
H 43.853 33.221 49.653
H 43.437 34.007 50.884
H 43.228 36.263 49.736
H 44.27 35.962 48.673
H 42.65 34.306 56.004
H 41.201 34.581 55.639
H 42.133 31.417 54.976
H 40.855 32.223 54.819
H 39.723 32.686 49.694
H 39.757 34.006 48.943
H 37.575 33.174 49.691
H 37.97 34.587 50.083
H 42.472 37.388 53.734
H 43.927 37.181 54.119
H 41.917 34.205 49.307
H 42.82 34.407 48.103
H 45.589 32.64 54.463
H 44.217 32.129 54.868
H 35.739 35.222 47.898
H 36.543 33.934 47.913
H 43.075 34.891 53.832
H 38.317 33.166 45.25
H 39.546 33.326 44.373
H 36.938 37.299 49.483
H 42.913 31.718 44.976
H 42.424 36.3 46.853
H 41.171 37.151 46.963
H 40.565 38.542 48.733
H 41.88 37.812 48.944
H 40.088 33.53 46.505
H 41.496 34.086 46.381
H 44.29 32.511 52.252
H 43.462 31.424 52.914
H 44.524 35.057 53.409
