61
xyz format
O 42.153 30.762 30.427
O 43.478 37.536 32.884
O 48.09 32.523 34.072
O 42.524 34.909 32.465
O 39.314 31.651 33.129
O 45.344 31.758 35.142
O 40.376 33.695 31.332
O 46.725 33.153 29.228
O 43.138 32.651 34.92
O 46.728 32.307 32.048
O 44.487 28.948 33.124
O 39.485 34.394 34.115
O 41.111 30.817 34.847
O 43.707 32.264 28.121
O 43.201 34.415 36.909
O 43.35 36.09 35.489
O 42.659 32.133 32.256
O 44.234 33.826 30.943
O 41.868 29.168 31.976
O 44.76 30.019 31.222
O 46.121 34.438 36.228
H 40.265 34.53 34.667
H 38.77 34.277 34.753
H 46.728 33.729 35.982
H 45.992 34.926 35.406
H 42.577 35.751 35.021
H 44.083 35.898 34.891
H 43.312 31.797 32.883
H 41.847 32.18 32.775
H 45.288 28.504 32.819
H 43.841 28.234 33.19
H 46.628 33.055 31.447
H 46.819 31.548 31.458
H 42.51 33.367 35.077
H 43.318 32.305 35.803
H 40.605 30.257 34.244
H 42.029 30.606 34.639
H 44.368 31.779 28.631
H 43.098 32.596 28.793
H 43.968 29.666 35.138
H 42.765 34.868 37.641
H 44.017 34.078 37.3
H 40.704 33.139 36.314
H 45.827 30.939 35.308
H 45.467 31.91 34.197
H 44.711 29.438 30.452
H 44.809 30.903 30.838
H 40.854 33.075 30.768
H 44.487 33.043 30.439
H 44.538 33.631 31.838
H 48.533 33.204 34.594
H 47.766 31.9 34.735
H 41.888 29.995 32.474
H 41.693 28.499 32.649
H 39.104 32.258 32.408
H 39.691 32.224 33.809
H 43.124 34.662 33.181
H 41.649 34.701 32.818
H 41.45 31.148 29.891
H 42.883 30.651 29.805
H 45.945 36.067 32.566
