23
xyz format
O 71.625 62.154 42.162
O 69.275 66.517 41.447
O 72.38 61.594 39.215
O 73.841 63.047 40.876
O 71.647 66.058 40.798
O 73.033 63.716 42.985
O 69.656 64.098 39.441
H 74.158 62.403 40.23
H 73.461 63.749 40.333
H 71.698 62.277 39.232
H 72.774 61.684 38.338
H 69.817 67.1 41.993
H 68.918 65.879 42.078
H 71.701 65.18 41.196
H 71.986 66.644 41.486
H 72.74 63.944 43.876
H 73.549 64.483 42.71
H 72.261 61.696 41.598
H 71.267 62.845 41.591
H 69.611 63.139 39.538
H 70.601 64.289 39.487
H 69.46 66.352 44.254
H 70.715 65.757 43.638
