138
xyz format
Na 36.045 52.744 54.029
O 40.864 56.219 58.793
O 39.645 51.124 52.771
O 42.228 51.872 52.946
O 39.083 52.778 54.927
O 35.998 54.064 51.222
O 38.11 53.8 52.342
O 38.685 57.888 54.719
O 36.685 59.221 51.626
O 39.93 54.031 60.539
O 39.375 60.307 55.966
O 43.014 57.352 50.28
O 38.696 57.437 57.182
O 37.775 60.29 59.145
O 42.458 57.269 53.963
O 42.547 54.312 57.931
O 33.878 56.475 59.72
O 46.216 56.588 52.637
O 36.04 57.475 57.67
O 35.803 57.681 53.654
O 37.42 62.98 54.343
O 40.293 57.193 52.427
O 39.605 58.243 60.413
O 42.88 56.545 56.125
O 41.098 59.129 57.18
O 38.01 56.638 51.62
O 36.959 55.005 57.413
O 38.568 53.967 50.198
O 44.112 57.961 52.243
O 40.225 56.434 62.301
O 37.019 62.904 56.579
O 35.656 53.484 58.677
O 37.91 49.795 57.98
O 36.446 54.914 54.061
O 36.941 52.18 56.464
O 34.831 63.241 53.989
O 34.279 58.0 56.305
O 41.558 54.762 51.557
O 41.164 55.004 53.881
O 40.52 56.216 56.62
O 33.372 60.588 52.768
O 38.712 52.742 57.567
O 37.263 50.647 53.136
O 41.481 52.655 56.237
O 40.689 60.948 52.072
O 37.492 54.612 60.328
O 36.74 60.665 55.989
O 40.618 48.928 58.161
H 34.804 62.462 54.558
H 36.12 52.629 56.226
H 37.133 51.629 55.694
H 38.003 54.412 59.534
H 36.734 55.108 59.993
H 37.253 55.153 54.533
H 35.792 54.81 54.764
H 42.386 54.555 52.01
H 41.371 53.965 51.047
H 34.222 58.802 56.839
H 33.928 57.313 56.884
H 38.266 49.035 57.503
H 38.099 50.541 57.398
H 37.611 62.584 57.271
H 40.823 57.189 62.371
H 40.362 56.116 61.4
H 44.122 58.893 51.99
H 44.404 57.97 53.163
H 40.145 58.063 52.036
H 40.361 56.607 51.663
H 40.071 58.592 59.643
H 38.684 58.209 60.128
H 41.165 51.824 55.86
H 42.43 52.639 56.063
H 36.89 62.52 53.68
H 38.366 50.997 50.681
H 41.413 51.595 50.349
H 39.259 53.371 50.512
H 36.375 55.472 56.802
H 37.454 55.713 57.843
H 38.015 57.433 52.167
H 38.375 56.936 50.778
H 40.479 59.616 57.739
H 41.561 58.553 57.801
H 42.498 57.431 56.156
H 43.628 56.596 56.734
H 36.804 51.284 52.575
H 33.305 60.795 51.827
H 33.345 61.452 53.196
H 37.711 56.548 61.413
H 38.828 53.699 57.606
H 38.133 52.55 58.315
H 41.656 52.63 52.774
H 42.731 52.136 53.726
H 35.831 50.638 57.749
H 36.382 58.188 58.224
H 35.6 56.889 58.297
H 40.33 55.489 53.83
H 40.058 55.421 56.914
H 40.095 56.43 55.779
H 41.209 54.723 54.803
H 35.786 58.569 54.032
H 35.948 57.109 54.418
H 46.527 57.494 52.517
H 46.06 56.523 53.587
H 33.149 55.999 60.135
H 34.18 57.08 60.409
H 41.707 54.201 58.393
H 42.289 54.643 57.062
H 42.181 57.907 53.293
H 42.713 56.493 53.448
H 38.937 58.316 56.863
H 39.014 57.43 58.093
H 39.561 53.435 55.449
H 39.158 51.971 55.452
H 35.897 53.928 52.173
H 38.956 58.362 53.923
H 38.244 57.1 54.377
H 38.888 61.13 56.094
H 39.854 60.451 55.14
H 40.119 60.256 51.714
H 37.657 60.541 60.07
H 38.196 61.064 58.75
H 35.99 53.102 59.499
H 35.028 54.154 58.974
H 38.33 52.865 52.441
H 35.764 59.128 51.899
H 36.653 59.111 50.668
H 38.881 54.256 52.7
H 39.677 54.028 61.471
H 40.867 53.801 60.555
H 33.076 57.341 53.309
H 36.591 59.928 56.595
H 38.512 49.69 55.279
H 42.094 57.181 50.043
H 35.864 61.058 55.887
H 40.083 55.86 59.234
H 41.464 56.423 59.521
H 40.449 50.625 52.579
H 39.393 50.821 53.652
