41
xyz format
O 31.442 49.918 38.638
O 33.267 49.089 41.3
O 31.749 47.537 40.849
O 30.816 47.124 43.877
O 29.291 53.725 39.126
O 35.034 50.578 40.027
O 29.516 50.703 41.081
O 30.83 45.234 41.651
O 30.927 53.199 40.867
O 30.721 49.255 42.815
O 34.483 52.707 40.128
O 32.19 51.182 42.566
H 34.931 53.129 43.585
H 33.49 53.268 43.125
H 30.213 50.563 40.428
H 29.982 51.086 41.835
H 29.392 52.872 43.109
H 30.13 54.135 38.882
H 32.927 54.104 41.17
H 30.426 47.777 44.472
H 31.548 48.788 42.642
H 30.901 49.748 43.625
H 35.973 50.796 39.986
H 34.759 50.573 39.101
H 31.149 52.95 41.773
H 31.364 52.526 40.33
H 29.503 52.785 39.184
H 32.193 53.633 38.305
H 30.495 45.408 42.54
H 31.776 45.095 41.786
H 30.814 47.356 41.009
H 32.056 46.755 40.374
H 35.235 49.822 42.084
H 34.705 52.812 41.061
H 33.615 52.284 40.144
H 32.481 51.351 43.471
H 32.977 51.359 42.036
H 32.1 50.622 38.596
H 31.533 49.467 37.79
H 33.096 49.687 40.562
H 33.879 48.44 40.931
