38
xyz format
O 71.236 40.427 49.196
O 72.978 36.736 54.334
O 76.699 39.838 51.279
O 73.4 37.316 49.901
O 69.784 35.492 51.381
O 72.258 39.458 51.406
O 74.46 36.18 52.49
O 73.341 33.543 50.234
O 72.584 34.022 52.243
O 70.68 38.392 52.51
O 74.956 38.05 53.538
O 72.581 34.149 46.699
O 70.797 34.651 48.911
H 73.793 36.627 51.954
H 72.472 33.197 49.994
H 73.78 33.669 49.383
H 75.022 35.743 51.838
H 71.809 33.791 47.156
H 72.72 40.018 52.041
H 72.652 38.587 51.539
H 73.326 33.724 47.14
H 70.269 37.794 49.704
H 72.26 34.859 51.888
H 72.709 34.204 53.183
H 70.428 37.562 52.087
H 69.237 34.867 50.889
H 70.388 35.842 50.715
H 72.67 36.702 50.046
H 73.045 37.948 49.262
H 76.119 39.866 50.508
H 70.406 35.225 48.241
H 71.683 35.013 49.035
H 75.694 37.52 53.865
H 74.587 38.447 54.337
H 72.733 35.864 54.668
H 72.363 36.884 53.605
H 72.075 40.901 49.254
H 71.501 39.506 49.079
