68
xyz format
O 68.519 57.296 37.386
O 63.17 64.233 36.155
O 68.14 62.73 34.009
O 67.057 60.849 37.867
O 64.727 61.208 39.209
O 70.575 57.224 38.166
O 63.355 58.652 38.526
O 66.635 59.354 41.847
O 65.461 65.494 37.627
O 65.48 57.043 37.414
O 66.095 62.975 38.981
O 70.897 61.178 34.591
O 63.637 61.443 37.313
O 66.758 58.695 39.359
O 65.072 65.336 34.765
O 66.721 59.471 35.239
O 68.166 63.878 37.838
O 69.646 59.53 39.567
O 69.357 61.929 36.411
O 70.58 60.278 37.239
O 65.47 62.538 35.031
O 66.557 54.01 37.138
H 69.534 62.561 35.703
H 68.424 62.068 36.614
H 68.832 59.428 40.075
H 69.572 60.416 39.19
H 65.964 63.257 39.895
H 65.275 63.232 38.542
H 67.308 64.303 37.714
H 68.783 64.476 37.398
H 66.678 59.608 39.662
H 66.446 58.729 38.446
H 65.161 57.173 36.512
H 66.366 56.679 37.294
H 65.782 59.407 35.02
H 66.974 58.56 35.43
H 65.037 65.601 33.837
H 64.338 65.815 35.168
H 64.584 63.223 33.138
H 64.37 60.876 37.043
H 62.861 61.01 36.936
H 70.625 61.387 33.688
H 71.369 60.341 34.5
H 70.015 59.638 36.788
H 71.38 60.297 36.7
H 65.816 65.74 38.49
H 64.528 65.318 37.804
H 70.997 57.73 37.461
H 70.809 57.708 38.967
H 63.407 58.985 37.621
H 64.278 58.603 38.805
H 67.32 54.294 37.655
H 63.481 63.787 39.697
H 67.313 55.642 35.421
H 66.648 60.812 36.993
H 67.841 60.294 37.776
H 67.817 61.824 34.091
H 67.521 63.244 34.543
H 63.485 63.321 36.176
H 62.696 64.292 35.316
H 63.923 60.709 39.399
H 65.206 61.198 40.047
H 68.707 56.957 36.502
H 68.194 58.191 37.224
H 61.514 62.44 35.533
H 69.028 57.54 41.195
H 64.886 61.773 35.101
H 65.914 62.568 35.888
