44
xyz format
O 32.708 61.385 63.482
O 28.313 61.186 64.264
O 31.672 61.262 66.672
O 30.054 65.574 59.418
O 32.129 64.169 59.621
O 29.409 64.522 61.444
O 34.377 62.425 61.472
O 33.695 66.003 62.934
O 31.202 67.111 60.721
O 32.728 63.924 62.354
O 30.183 62.742 64.217
O 27.706 62.051 61.204
O 28.419 58.854 61.089
O 27.628 63.755 58.981
H 33.146 66.758 63.179
H 33.703 66.029 61.969
H 33.975 61.552 61.382
H 34.188 62.854 60.628
H 29.98 63.546 63.722
H 30.659 62.195 63.579
H 31.706 63.5 60.173
H 32.828 64.524 60.185
H 31.108 67.518 59.851
H 31.932 66.489 60.605
H 29.825 63.652 61.476
H 28.516 64.362 61.774
H 29.239 65.564 58.902
H 30.747 65.647 58.75
H 31.148 61.79 58.776
H 29.286 61.008 57.661
H 31.902 61.078 59.885
H 27.455 64.121 59.857
H 27.686 62.804 59.137
H 28.046 59.464 60.44
H 29.184 59.329 61.436
H 31.988 64.03 62.965
H 33.491 63.811 62.936
H 28.327 62.052 61.944
H 27.092 61.339 61.421
H 28.074 62.111 64.13
H 27.688 60.705 63.707
H 31.536 61.384 65.725
H 32.692 60.565 63.992
H 32.906 62.061 64.142
