22
xyz format
O 43.409 31.841 44.157
O 43.704 34.017 44.311
O 44.366 32.637 42.188
O 47.945 32.418 44.203
O 46.899 27.467 43.896
O 46.485 33.445 45.564
O 44.495 36.267 46.086
O 47.533 29.619 44.772
H 49.249 31.678 46.577
H 48.783 32.128 43.821
H 47.797 31.798 44.928
H 48.044 29.348 43.999
H 48.046 29.282 45.516
H 45.219 32.518 42.623
H 47.079 34.097 45.955
H 46.25 32.874 46.306
H 45.287 35.758 46.3
H 43.373 34.339 45.159
H 44.657 33.948 44.448
H 46.155 27.987 44.224
H 44.304 31.563 44.388
H 42.913 31.718 44.976
