30
xyz format
O 54.953 32.002 51.887
O 55.794 25.778 50.403
O 56.685 35.957 49.083
O 58.4 34.241 47.166
O 56.956 30.53 51.335
O 54.465 34.504 47.404
O 56.932 33.895 50.321
O 55.6 28.51 49.681
O 55.195 26.889 52.277
O 55.573 31.175 47.996
H 54.999 33.712 47.265
H 54.667 31.45 48.187
H 56.093 31.973 48.154
H 55.28 27.767 51.883
H 57.637 29.862 51.186
H 56.763 30.863 50.45
H 57.448 34.359 47.28
H 58.66 33.719 47.934
H 55.955 35.762 48.482
H 57.412 36.192 48.493
H 56.346 26.086 49.673
H 57.73 34.436 50.28
H 56.703 33.753 49.394
H 55.721 28.518 48.723
H 56.493 28.385 50.024
H 57.289 29.652 53.348
H 55.435 31.979 52.722
H 55.523 32.522 51.307
H 53.584 26.932 50.751
H 54.808 29.861 51.402
