59
xyz format
O 29.178 61.196 49.884
O 26.849 60.057 54.334
O 30.798 55.98 50.701
O 30.685 62.111 51.835
O 32.848 56.56 52.79
O 25.545 57.242 53.404
O 26.051 54.568 53.65
O 24.853 62.174 53.682
O 31.547 56.696 55.17
O 28.001 55.325 50.766
O 27.349 60.726 52.297
O 30.982 59.397 51.281
O 28.495 54.48 53.532
O 24.858 59.765 52.328
O 26.679 52.413 55.351
O 31.733 59.795 54.694
O 33.372 60.588 52.768
O 29.809 57.686 52.617
O 28.119 58.058 51.151
O 27.915 63.368 51.704
O 27.274 56.449 55.15
H 31.593 59.294 52.022
H 31.561 59.566 50.528
H 30.68 57.406 52.927
H 29.313 57.834 53.432
H 31.921 59.004 54.174
H 28.145 61.271 52.337
H 26.927 60.996 51.471
H 33.305 60.795 51.827
H 27.664 55.654 51.609
H 28.608 56.018 50.476
H 27.677 58.605 51.812
H 27.996 58.549 50.329
H 30.601 56.925 50.707
H 30.488 55.676 51.563
H 26.583 60.985 54.341
H 27.286 59.936 55.186
H 32.63 54.894 51.315
H 27.259 53.169 55.504
H 27.701 56.614 54.3
H 27.911 56.781 55.795
H 25.833 54.781 54.566
H 25.67 53.69 53.522
H 29.052 55.22 53.26
H 28.95 54.123 54.305
H 25.663 59.242 52.432
H 24.149 59.13 52.494
H 25.873 57.821 54.103
H 24.913 56.67 53.858
H 32.666 55.886 53.458
H 33.076 57.341 53.309
H 31.043 61.398 52.38
H 29.978 62.481 52.379
H 24.723 63.006 53.209
H 24.111 61.628 53.395
H 27.048 63.16 52.074
H 27.929 64.333 51.685
H 29.228 60.523 50.574
H 29.024 62.014 50.372
