55
xyz format
O 32.484 39.866 55.898
O 37.458 38.603 54.247
O 30.368 38.434 58.002
O 33.462 42.924 54.583
O 32.703 37.109 58.739
O 29.781 43.309 53.897
O 31.308 41.03 53.868
O 33.645 39.909 52.16
O 34.587 38.378 54.556
O 33.341 39.729 62.026
O 29.986 41.428 58.399
O 28.056 40.158 54.292
O 30.345 37.97 52.972
O 32.819 40.019 59.355
O 35.19 41.251 55.002
O 27.734 41.323 57.598
O 32.627 38.001 53.376
O 31.383 42.308 56.561
O 33.494 44.757 56.3
H 34.861 40.552 54.423
H 32.695 40.39 58.473
H 31.938 39.708 59.599
H 29.849 38.465 52.308
H 29.849 38.121 53.787
H 28.906 40.156 53.835
H 28.221 40.692 55.079
H 33.431 39.131 61.274
H 33.114 40.575 61.62
H 32.642 37.072 53.638
H 32.413 38.466 54.194
H 31.253 43.262 56.625
H 32.07 42.126 57.214
H 30.473 42.192 58.732
H 30.079 40.773 59.101
H 27.153 40.84 56.997
H 28.315 41.817 57.007
H 34.836 38.32 55.487
H 35.354 38.023 54.09
H 29.994 39.205 57.558
H 31.068 38.142 57.405
H 34.244 39.272 52.57
H 33.274 40.39 52.91
H 31.805 41.479 54.562
H 31.043 40.197 54.278
H 30.073 43.576 54.777
H 29.567 42.373 54.0
H 33.515 43.922 56.783
H 32.69 44.695 55.769
H 34.194 43.554 54.589
H 33.568 42.457 53.745
H 32.021 36.477 58.479
H 33.527 36.626 58.601
H 33.017 39.205 56.356
H 31.751 40.03 56.504
H 37.109 39.27 54.851
