43
xyz format
O 63.318 56.846 29.469
O 65.638 56.162 29.199
O 65.861 53.496 29.931
O 66.045 49.349 32.194
O 68.661 54.588 29.39
O 65.234 55.066 32.016
O 62.539 54.401 30.282
O 65.031 52.972 27.961
O 65.331 49.893 29.792
O 69.305 52.469 30.53
O 68.699 56.77 31.45
O 66.913 54.088 27.641
O 63.094 53.899 32.832
O 64.485 51.869 33.805
O 65.356 57.574 30.96
O 67.305 50.844 30.686
H 62.385 53.25 32.746
H 62.646 54.745 32.709
H 67.463 53.326 27.42
H 66.577 54.383 26.786
H 64.686 50.138 30.467
H 68.285 56.423 32.25
H 68.189 56.369 30.735
H 69.021 52.048 31.351
H 69.794 53.246 30.828
H 63.4 54.642 30.645
H 62.053 55.235 30.271
H 63.616 51.584 33.496
H 65.049 51.767 33.028
H 65.172 54.644 32.882
H 64.641 55.824 32.088
H 68.659 55.374 28.83
H 69.103 53.922 28.849
H 66.319 57.516 30.977
H 67.026 55.137 34.018
H 65.133 53.292 30.531
H 66.572 53.777 30.519
H 65.45 56.863 28.562
H 65.415 55.353 28.72
H 67.639 50.595 29.815
H 66.64 51.517 30.493
H 66.486 50.038 32.707
H 63.373 56.171 28.781
