48
xyz format
O 32.708 61.385 63.482
O 31.491 59.184 57.652
O 35.527 64.484 62.437
O 37.775 60.29 59.145
O 31.427 60.912 59.062
O 30.054 65.574 59.418
O 32.843 62.11 56.765
O 38.35 61.942 61.796
O 32.129 64.169 59.621
O 34.687 59.579 60.557
O 35.314 65.152 59.461
O 34.107 60.949 58.473
O 34.377 62.425 61.472
O 36.382 62.745 59.865
O 33.973 58.652 63.702
O 35.522 60.678 62.854
O 33.695 66.003 62.934
O 32.728 63.924 62.354
H 33.146 66.758 63.179
H 33.853 59.043 62.828
H 37.165 63.032 59.378
H 35.791 62.417 59.176
H 33.703 66.029 61.969
H 33.975 61.552 61.382
H 34.188 62.854 60.628
H 31.706 63.5 60.173
H 32.828 64.524 60.185
H 37.394 62.019 61.679
H 31.932 66.489 60.605
H 34.899 61.215 63.359
H 34.861 64.574 58.835
H 34.231 59.196 59.797
H 35.314 60.197 60.16
H 30.747 65.647 58.75
H 33.281 61.758 55.981
H 32.153 62.682 56.405
H 31.148 61.79 58.776
H 29.286 61.008 57.661
H 31.902 61.078 59.885
H 31.988 64.03 62.965
H 33.491 63.811 62.936
H 37.657 60.541 60.07
H 33.723 61.786 58.762
H 34.669 61.199 57.728
H 35.637 65.007 61.633
H 32.692 60.565 63.992
H 32.906 62.061 64.142
H 31.708 59.743 56.896
