45
xyz format
O 38.204 28.946 37.059
O 34.09 32.312 35.869
O 36.8 31.274 41.013
O 35.931 26.726 42.591
O 32.414 33.011 39.22
O 35.399 33.823 37.601
O 35.259 30.555 38.107
O 39.064 29.864 40.771
O 38.546 26.21 42.283
O 37.781 33.021 39.052
O 37.144 31.56 33.516
O 36.862 29.017 39.224
O 33.196 27.686 43.251
O 34.032 28.321 40.078
O 34.415 30.797 42.537
O 37.9 29.847 35.075
H 38.315 29.075 34.672
H 38.528 30.56 34.904
H 34.976 30.389 41.866
H 33.55 30.85 42.111
H 36.831 33.105 39.198
H 38.654 25.824 41.405
H 36.076 34.215 37.036
H 35.504 32.874 37.459
H 38.761 29.929 39.857
H 36.131 28.451 38.947
H 36.763 29.066 40.183
H 36.066 30.631 37.581
H 34.68 30.009 37.561
H 33.778 27.319 42.574
H 32.546 28.191 42.746
H 32.967 33.562 38.652
H 32.293 32.203 38.707
H 35.741 26.956 43.509
H 36.647 27.326 42.348
H 36.566 31.402 34.273
H 37.19 32.523 33.46
H 37.492 31.944 40.948
H 37.149 30.647 41.659
H 33.486 32.669 35.206
H 34.683 31.747 35.358
H 33.278 28.406 40.674
H 34.787 28.234 40.674
H 38.163 28.188 37.656
H 38.248 29.704 37.655
