30
xyz format
O 37.593 51.641 71.486
O 35.06 50.375 70.509
O 39.373 48.924 72.787
O 38.283 51.259 74.688
O 41.03 51.908 71.811
O 39.999 54.215 73.409
O 39.658 54.91 70.832
O 41.767 55.064 74.406
O 39.914 52.873 75.823
H 40.37 55.562 70.798
H 40.525 53.866 72.678
H 39.563 54.988 73.028
H 36.802 49.59 71.601
H 41.092 50.557 74.576
H 40.488 51.49 71.131
H 40.614 51.632 72.637
H 37.535 51.431 74.103
H 39.01 51.069 74.081
H 40.504 52.611 75.105
H 39.298 53.485 75.402
H 37.133 53.584 74.534
H 39.86 49.008 73.616
H 39.676 49.677 72.265
H 42.244 55.881 74.215
H 42.425 54.373 74.257
H 34.602 50.689 69.719
H 35.123 51.16 71.066
H 39.189 48.794 70.116
H 38.137 51.622 70.689
H 37.78 52.506 71.871
