26
xyz format
O 44.251 57.008 30.865
O 43.167 63.664 30.895
O 43.266 61.36 31.959
O 39.563 62.225 31.07
O 43.851 58.259 29.088
O 41.24 62.051 28.177
O 39.495 59.998 27.26
O 43.197 60.591 29.351
O 43.399 62.901 25.854
O 42.38 58.904 26.848
H 42.513 60.266 29.951
H 43.138 61.551 29.435
H 40.697 62.613 27.609
H 40.671 61.877 28.937
H 40.287 60.022 27.812
H 38.83 60.449 27.794
H 38.32 64.363 29.929
H 43.388 57.548 28.627
H 44.327 58.717 28.384
H 43.006 62.096 26.214
H 40.114 62.96 30.772
H 38.954 62.081 30.335
H 41.719 59.3 26.266
H 42.427 59.517 27.592
H 42.439 61.713 31.606
H 44.254 57.898 31.239
