43
xyz format
O 60.59 39.059 52.721
O 62.194 42.612 47.902
O 63.502 41.26 46.724
O 57.527 39.392 44.856
O 59.491 41.082 51.615
O 61.029 38.18 50.048
O 59.052 40.635 45.899
O 61.991 41.178 50.57
O 59.805 41.423 48.572
O 58.887 37.503 46.227
O 58.668 39.011 49.076
O 57.043 40.261 49.869
O 57.6 42.914 50.605
O 57.525 42.61 46.168
O 56.94 40.673 47.041
H 56.933 43.047 46.793
H 58.375 42.6 46.627
H 58.441 38.08 48.96
H 58.867 39.311 48.18
H 62.168 42.016 51.016
H 57.658 43.835 50.322
H 57.335 42.445 49.804
H 61.572 38.657 46.431
H 56.568 39.522 49.47
H 57.341 39.91 50.718
H 59.987 40.51 46.103
H 59.06 41.024 45.015
H 60.586 37.739 49.312
H 60.635 39.061 50.058
H 61.781 42.897 45.714
H 59.215 41.171 50.694
H 59.813 43.731 49.319
H 57.029 39.712 47.046
H 57.456 40.955 47.807
H 57.998 37.461 46.6
H 59.065 38.45 46.164
H 60.517 40.788 48.719
H 60.105 41.931 47.808
H 62.429 41.917 48.529
H 62.988 43.16 47.859
H 62.793 40.988 46.128
H 61.31 39.333 52.138
H 59.892 38.788 52.111
