26
xyz format
O 74.328 51.162 38.153
O 71.048 48.164 38.908
O 68.599 50.251 38.54
O 73.904 48.505 39.58
O 70.683 50.986 36.535
O 71.952 52.018 39.092
O 71.976 49.716 41.266
H 67.939 50.061 39.219
H 69.428 50.296 39.032
H 73.196 50.234 36.179
H 73.282 48.068 38.985
H 73.765 49.444 39.407
H 69.922 51.233 37.075
H 71.44 51.267 37.063
H 71.198 49.022 39.324
H 70.341 48.338 38.273
H 71.542 50.578 41.266
H 71.578 46.203 38.064
H 73.797 51.776 37.63
H 74.889 50.728 37.497
H 74.118 48.08 36.73
H 72.746 52.346 39.532
H 72.024 51.059 39.174
H 70.226 53.454 38.504
H 69.295 53.033 35.969
H 76.042 52.081 39.711
