23
xyz format
O 58.228 51.797 74.53
O 59.514 53.361 75.42
O 60.761 57.636 74.462
O 61.479 55.336 74.924
O 65.422 51.232 71.391
O 61.067 53.359 73.111
O 63.539 52.401 73.384
H 61.296 52.978 73.968
H 61.081 52.601 72.513
H 63.065 51.726 72.882
H 64.058 52.863 72.714
H 57.679 55.128 76.491
H 60.68 55.175 74.407
H 62.165 55.456 74.256
H 59.622 55.961 72.644
H 65.996 51.975 71.616
H 61.089 57.27 73.631
H 60.001 58.167 74.194
H 58.823 53.884 74.995
H 59.89 53.966 76.072
H 58.294 52.192 73.652
H 59.305 52.73 70.928
H 60.101 54.01 71.115
