63
xyz format
O 72.199 57.22 40.709
O 67.809 53.637 41.01
O 75.095 56.844 38.069
O 73.702 51.787 42.779
O 70.973 55.472 36.151
O 71.488 52.678 41.931
O 70.108 53.36 39.458
O 75.769 51.269 43.95
O 73.251 53.982 43.039
O 76.504 56.359 40.716
O 74.328 51.162 38.153
O 69.945 53.596 43.675
O 74.753 53.486 46.525
O 68.911 55.426 42.911
O 76.744 54.034 43.285
O 74.704 55.139 41.297
O 73.904 48.505 39.58
O 73.177 56.067 37.247
O 71.952 52.018 39.092
O 71.976 49.716 41.266
O 76.871 52.568 39.797
H 69.428 50.296 39.032
H 74.553 55.919 41.845
H 74.166 55.302 40.512
H 73.765 49.444 39.407
H 71.44 51.267 37.063
H 71.198 49.022 39.324
H 71.542 50.578 41.266
H 72.096 49.52 42.203
H 70.089 54.26 44.36
H 68.25 55.805 42.318
H 69.426 56.19 43.198
H 75.8 54.094 43.094
H 76.777 53.912 44.242
H 73.58 54.732 43.551
H 72.865 54.392 42.255
H 73.797 51.776 37.63
H 74.889 50.728 37.497
H 72.848 56.634 37.956
H 73.308 55.213 37.678
H 72.746 52.346 39.532
H 72.024 51.059 39.174
H 76.9 56.124 41.565
H 76.568 55.545 40.2
H 76.311 51.716 43.288
H 75.245 51.981 44.336
H 71.432 56.273 35.869
H 71.667 54.801 36.155
H 70.226 53.454 38.504
H 70.874 53.813 39.83
H 70.546 52.757 41.733
H 71.504 52.297 42.818
H 73.659 51.524 41.852
H 73.275 51.058 43.245
H 72.227 56.435 40.147
H 72.626 56.932 41.526
H 68.548 53.672 41.63
H 67.944 54.413 40.45
H 73.985 48.837 43.115
H 75.213 56.004 38.529
H 74.741 57.431 38.749
H 76.627 53.345 40.316
H 76.042 52.081 39.711
