114
xyz format
O 68.359 43.086 54.523
O 67.345 48.817 50.344
O 71.236 40.427 49.196
O 65.304 43.889 46.505
O 62.194 42.612 47.902
O 70.887 45.059 49.576
O 63.502 41.26 46.724
O 66.14 43.802 53.398
O 63.522 44.213 54.656
O 66.814 46.949 52.976
O 66.986 42.563 49.955
O 61.991 41.178 50.57
O 68.392 41.272 55.898
O 63.531 43.32 52.289
O 66.915 40.92 53.767
O 64.435 39.502 50.039
O 67.153 39.17 51.721
O 67.928 44.615 47.791
O 68.57 43.342 51.808
O 70.023 49.895 51.219
O 64.586 43.393 49.489
O 68.2 38.386 55.036
O 70.24 45.853 51.53
O 63.815 45.919 53.122
O 64.654 39.384 52.712
O 66.21 44.838 51.374
O 72.47 48.32 50.95
O 70.384 41.215 47.306
O 66.353 46.773 48.338
O 67.555 37.264 48.467
O 69.449 41.964 49.151
O 69.57 38.454 49.617
O 67.077 39.77 48.91
O 65.652 39.855 45.902
O 71.166 47.902 54.0
O 64.177 47.751 50.972
H 69.06 44.009 51.312
H 68.945 42.506 51.501
H 68.939 48.313 52.763
H 72.377 48.871 50.162
H 65.27 45.377 55.32
H 64.5 42.452 49.293
H 64.941 43.766 48.672
H 67.212 40.133 43.472
H 70.676 47.072 54.053
H 71.105 48.146 53.068
H 70.285 48.967 51.162
H 69.229 49.943 50.672
H 68.049 38.49 54.088
H 62.717 40.61 50.855
H 62.168 42.016 51.016
H 66.715 38.682 51.012
H 67.491 39.96 51.281
H 69.448 40.53 44.799
H 67.914 40.443 55.771
H 70.941 41.247 46.518
H 69.633 40.672 47.034
H 69.377 38.704 50.529
H 64.206 43.101 51.635
H 62.937 43.916 51.816
H 67.722 40.549 53.388
H 69.685 41.55 53.336
H 72.206 43.377 48.83
H 71.387 43.254 47.557
H 65.423 38.021 44.498
H 66.907 37.586 49.106
H 64.42 40.158 52.185
H 64.777 38.688 52.055
H 66.986 44.584 50.859
H 65.523 44.965 50.708
H 64.854 40.371 50.009
H 64.485 39.191 49.126
H 66.299 40.936 53.024
H 67.88 43.892 47.153
H 67.267 44.382 48.453
H 66.295 42.461 50.622
H 67.407 41.695 49.926
H 63.578 41.631 53.698
H 69.23 42.651 48.509
H 70.21 42.326 49.622
H 66.301 46.896 52.16
H 64.092 43.539 55.047
H 62.754 43.714 54.35
H 65.641 37.216 47.328
H 68.568 42.226 45.891
H 65.913 46.087 48.857
H 66.261 47.565 48.881
H 66.155 43.108 52.727
H 65.279 44.222 53.274
H 70.174 44.494 49.253
H 70.63 45.943 49.285
H 67.686 39.449 48.234
H 66.339 40.13 48.402
H 66.558 39.828 46.234
H 65.137 39.448 46.611
H 68.535 46.485 48.818
H 64.667 47.081 50.478
H 69.542 46.328 51.998
H 70.928 46.519 51.406
H 64.111 45.758 52.218
H 63.301 46.734 53.053
H 66.377 42.039 45.848
H 62.429 41.917 48.529
H 62.988 43.16 47.859
H 67.306 48.652 51.294
H 62.793 40.988 46.128
H 64.219 41.511 46.128
H 72.075 40.901 49.254
H 71.501 39.506 49.079
H 68.338 43.926 54.048
H 67.497 43.045 54.956
H 63.766 45.75 48.52
H 65.69 44.741 46.743
H 64.681 44.108 45.8
