23
xyz format
O 69.302 68.926 56.655
O 70.478 65.422 59.228
O 69.162 67.138 54.708
O 70.076 67.526 58.252
O 71.422 63.771 56.513
O 73.324 65.471 56.738
O 68.354 69.211 58.622
O 70.246 65.83 56.323
H 70.459 65.447 55.463
H 70.636 66.712 56.285
H 72.156 63.24 56.181
H 71.217 63.37 57.367
H 70.811 68.069 58.563
H 69.534 67.4 59.04
H 72.543 65.938 57.062
H 73.416 64.728 57.348
H 72.673 64.135 59.332
H 69.948 68.775 55.954
H 68.736 68.145 56.618
H 69.513 67.48 61.241
H 71.228 66.0 59.414
H 70.3 64.997 60.077
H 69.161 69.735 58.698
