26
xyz format
O 67.296 31.438 55.417
O 69.742 33.516 53.337
O 70.231 31.588 56.036
O 67.957 29.996 50.551
O 68.973 30.499 53.348
O 71.505 31.613 53.708
O 66.965 32.37 52.918
O 71.148 30.531 50.699
H 71.217 30.759 53.364
H 71.663 32.139 52.914
H 68.917 31.353 52.903
H 68.888 29.86 52.63
H 66.618 31.568 53.328
H 66.26 33.017 53.045
H 67.267 32.969 50.822
H 68.724 29.945 49.967
H 67.995 30.894 50.902
H 71.045 31.123 55.803
H 70.303 32.427 55.564
H 66.857 29.313 53.278
H 69.085 33.53 52.63
H 70.49 34.0 52.964
H 70.375 30.71 51.249
H 71.745 31.263 50.898
H 67.582 30.553 55.158
H 68.043 31.781 55.924
