24
xyz format
O 37.458 38.603 54.247
O 38.806 41.967 52.515
O 37.603 39.466 51.337
O 35.795 40.644 50.88
O 36.817 37.38 51.675
O 33.645 39.909 52.16
O 39.99 39.534 51.904
H 36.027 42.8 51.581
H 39.666 38.844 52.496
H 40.334 40.208 52.503
H 34.193 42.704 50.387
H 34.244 39.272 52.57
H 36.19 37.018 52.314
H 37.643 37.435 52.171
H 36.083 40.909 49.998
H 35.449 39.752 50.751
H 39.273 40.351 55.904
H 37.928 40.373 51.272
H 37.557 39.172 50.419
H 36.938 37.299 49.483
H 38.569 41.421 53.276
H 38.049 42.557 52.412
H 37.109 39.27 54.851
H 37.779 37.907 54.834
