71
xyz format
O 42.55 60.666 40.761
O 41.503 67.511 37.057
O 42.6 59.874 35.929
O 47.572 65.923 41.657
O 46.047 61.631 35.735
O 43.266 61.36 31.959
O 40.028 61.029 33.684
O 42.983 62.232 36.705
O 41.83 65.049 38.855
O 45.453 62.692 38.486
O 46.178 62.324 32.096
O 42.512 64.701 36.49
O 45.506 59.699 32.804
O 45.415 62.181 41.486
O 47.638 64.081 34.602
O 45.012 65.452 37.908
O 44.177 64.688 41.352
O 41.973 63.089 34.166
O 46.269 67.635 39.724
O 44.655 67.068 42.12
O 47.816 63.835 36.781
O 45.643 59.188 41.251
O 44.457 62.713 34.642
O 45.127 59.031 38.776
H 45.613 64.91 37.381
H 44.774 66.175 37.315
H 48.259 66.343 35.498
H 45.156 58.413 40.944
H 46.34 59.297 40.592
H 44.837 59.828 32.121
H 44.73 61.839 40.898
H 46.097 62.501 40.882
H 43.773 58.237 34.915
H 47.758 64.65 39.215
H 46.141 66.848 39.179
H 41.675 62.948 33.259
H 42.57 63.845 34.097
H 43.6 64.392 40.637
H 45.06 64.441 41.052
H 47.679 60.212 37.833
H 42.936 65.206 35.786
H 43.246 64.447 37.064
H 45.905 61.889 38.775
H 44.918 62.398 37.739
H 45.734 58.568 38.186
H 44.485 59.432 38.177
H 42.178 64.157 38.975
H 41.138 64.938 38.191
H 42.162 62.267 36.198
H 42.698 62.388 37.614
H 46.469 61.675 32.748
H 45.41 61.908 31.684
H 46.714 66.132 41.267
H 40.945 64.153 41.756
H 47.246 63.437 37.45
H 47.825 64.771 37.015
H 43.108 61.313 32.91
H 40.453 60.436 34.316
H 39.887 61.839 34.19
H 43.791 67.872 40.137
H 47.103 64.85 34.368
H 46.03 61.192 34.875
H 46.45 62.488 35.548
H 43.312 60.15 40.469
H 44.494 62.86 33.688
H 44.554 63.598 35.014
H 41.409 66.955 36.273
H 40.942 67.08 37.713
H 43.392 60.348 35.645
H 42.917 59.302 36.639
H 48.373 67.045 37.882
