26
xyz format
O 28.95 36.009 59.347
O 30.314 34.677 60.446
O 34.495 31.565 59.76
O 31.457 32.241 62.707
O 30.588 35.023 63.795
O 36.3 32.58 61.624
O 33.747 32.487 63.103
O 33.02 35.139 64.608
H 35.122 34.493 61.329
H 33.743 31.688 63.645
H 33.469 33.18 63.714
H 32.875 35.278 61.348
H 35.379 32.294 61.64
H 36.662 32.235 62.45
H 29.769 34.555 63.587
H 30.605 35.749 63.16
H 28.676 36.451 63.952
H 32.157 37.275 62.837
H 28.388 35.819 61.865
H 31.415 33.18 62.926
H 30.786 32.135 62.021
H 34.044 30.967 60.37
H 32.772 35.267 63.684
H 30.452 34.385 61.356
H 30.82 35.496 60.389
H 34.652 36.118 62.918
