26
xyz format
O 28.288 44.115 42.157
O 27.779 46.239 43.778
O 25.063 46.875 39.686
O 27.21 44.915 40.162
O 26.284 47.246 41.59
O 26.765 48.709 43.978
O 25.801 44.315 43.516
O 29.254 46.596 38.507
H 27.721 48.576 43.969
H 26.547 48.869 43.051
H 25.695 46.54 41.886
H 27.167 46.881 41.728
H 29.618 47.371 38.061
H 26.188 44.541 42.661
H 26.428 43.685 43.892
H 26.772 48.278 38.314
H 28.019 48.998 37.83
H 26.747 44.193 39.719
H 27.744 45.309 39.46
H 23.022 47.849 39.977
H 28.468 46.382 44.439
H 27.003 46.003 44.302
H 24.688 47.016 38.807
H 25.973 46.61 39.506
H 28.386 45.065 42.017
H 28.785 43.95 42.968
