31
xyz format
O 67.1 66.698 63.22
O 67.472 70.208 60.375
O 67.461 64.799 62.139
O 65.263 69.121 61.854
O 66.099 67.001 66.451
O 68.79 66.91 61.533
O 65.031 69.513 64.007
O 64.283 66.522 62.313
O 68.87 65.363 64.414
O 65.904 67.722 59.316
O 67.575 63.471 65.438
H 65.255 67.007 59.322
H 67.229 63.617 64.548
H 68.679 65.919 65.18
H 69.812 65.17 64.501
H 64.703 65.728 61.959
H 64.922 66.85 62.959
H 65.115 69.274 64.939
H 64.078 69.602 63.878
H 68.277 66.762 60.729
H 69.513 67.48 61.241
H 66.936 67.004 65.97
H 65.529 66.435 65.916
H 65.3 68.298 61.351
H 64.894 69.756 61.228
H 66.939 64.946 61.34
H 68.212 64.278 61.83
H 67.779 67.269 63.601
H 66.856 66.114 63.948
H 66.691 70.772 60.438
H 67.161 69.351 60.694
