75
xyz format
O 43.128 47.633 32.968
O 43.6 42.791 24.648
O 46.529 42.063 30.219
O 40.307 48.273 23.517
O 42.509 44.712 31.816
O 46.756 45.28 28.776
O 44.636 45.743 30.719
O 39.352 44.169 24.83
O 44.294 43.052 29.815
O 44.903 46.984 25.397
O 42.041 49.464 28.779
O 41.037 47.328 30.485
O 45.106 43.419 27.047
O 41.266 46.155 26.218
O 46.963 45.185 32.225
O 38.848 47.839 25.813
O 41.364 43.526 26.576
O 39.405 45.462 29.705
O 46.743 41.184 28.097
O 47.028 45.182 25.768
O 48.298 43.553 28.503
O 48.858 46.918 28.19
O 46.329 41.858 25.392
O 45.291 39.253 26.091
O 42.271 46.033 28.182
O 44.126 45.483 23.225
H 38.792 48.246 28.876
H 45.898 38.863 25.449
H 45.783 40.004 26.444
H 41.865 45.587 28.936
H 41.872 46.912 28.194
H 42.071 43.704 25.944
H 41.503 44.186 27.267
H 40.627 45.882 25.548
H 42.022 46.462 25.703
H 47.109 41.678 24.852
H 45.609 41.894 24.749
H 46.405 44.749 31.569
H 44.403 42.766 27.152
H 45.014 43.04 31.893
H 45.138 43.571 26.094
H 40.903 47.07 31.405
H 41.992 47.256 30.363
H 44.521 43.712 29.147
H 44.499 42.212 29.385
H 48.814 41.209 30.06
H 42.712 48.795 28.966
H 41.261 49.143 29.248
H 39.225 48.618 26.239
H 38.938 47.147 26.48
H 44.415 46.302 25.875
H 44.994 47.695 26.044
H 48.844 44.269 28.154
H 48.764 42.754 28.226
H 38.924 44.967 24.498
H 38.728 43.466 24.61
H 43.838 46.062 30.279
H 46.605 42.136 28.021
H 47.455 41.005 27.47
H 44.533 46.048 31.63
H 46.669 46.07 29.324
H 46.541 44.558 29.38
H 44.984 45.769 23.564
H 43.498 45.832 23.87
H 41.867 45.079 31.196
H 43.002 44.074 31.285
H 48.088 46.643 27.677
H 46.184 41.467 30.895
H 47.172 42.603 30.695
H 40.259 47.546 24.15
H 42.982 48.102 32.137
H 43.263 42.23 23.939
H 44.054 43.503 24.181
H 47.163 44.402 26.321
H 39.782 49.003 31.163
