38
xyz format
O 39.204 41.383 60.672
O 40.595 39.112 59.971
O 37.573 38.782 63.676
O 36.8 43.442 66.413
O 41.643 43.515 61.298
O 39.839 44.713 60.639
O 36.973 43.195 62.621
O 42.267 41.582 63.243
O 38.109 40.259 65.886
O 37.958 37.179 61.732
O 42.12 39.148 62.0
O 35.986 40.743 63.731
H 37.955 37.869 61.058
H 38.768 36.685 61.552
H 41.532 41.635 62.619
H 43.049 41.635 62.68
H 42.595 39.779 61.443
H 41.235 39.526 62.069
H 36.952 44.888 59.608
H 39.358 43.904 60.851
H 40.098 44.59 59.717
H 38.678 40.603 65.187
H 38.12 39.305 65.742
H 36.135 43.381 62.18
H 37.597 43.09 61.892
H 41.386 42.999 60.524
H 35.138 42.941 64.381
H 37.408 42.733 66.657
H 38.164 39.002 62.945
H 36.8 38.402 63.241
H 39.731 41.798 61.366
H 36.408 40.913 62.88
H 38.385 41.137 61.122
H 36.634 41.052 64.375
H 40.106 38.855 66.757
H 40.878 39.737 65.792
H 40.341 39.909 59.488
H 39.814 38.905 60.499
