46
xyz format
O 41.412 59.904 45.339
O 43.898 59.337 44.775
O 43.014 57.352 50.28
O 43.801 59.878 48.48
O 46.791 61.459 46.866
O 43.288 60.914 51.7
O 41.462 60.503 49.131
O 44.112 57.961 52.243
O 45.512 56.47 48.907
O 47.703 59.154 48.739
O 42.049 57.107 45.768
O 44.197 62.054 47.458
O 46.846 56.204 46.256
O 40.528 62.488 46.463
O 45.625 57.874 45.407
O 42.028 61.824 43.179
H 46.924 59.319 49.285
H 47.347 59.094 47.843
H 42.573 56.542 46.35
H 41.572 57.683 46.378
H 41.431 62.378 46.784
H 40.582 62.226 45.535
H 45.417 57.425 49.012
H 44.606 56.163 48.773
H 44.122 58.893 51.99
H 42.603 61.857 43.954
H 41.232 61.384 43.503
H 43.398 62.237 47.968
H 45.461 57.822 44.457
H 46.027 58.744 45.522
H 46.034 56.171 46.776
H 47.543 56.256 46.922
H 42.125 60.65 49.817
H 40.728 60.093 49.605
H 42.991 61.813 51.512
H 46.187 61.091 47.524
H 43.184 60.036 47.754
H 44.416 59.227 48.119
H 48.025 60.122 45.621
H 40.797 61.56 51.333
H 43.953 59.514 45.723
H 43.284 58.593 44.717
H 43.334 57.919 49.567
H 42.094 57.181 50.043
H 42.022 60.569 45.68
H 40.637 59.988 45.909
