23
xyz format
O 59.878 66.912 54.031
O 57.782 65.822 55.598
O 59.658 68.709 55.633
O 61.419 67.367 51.856
O 60.085 65.541 47.945
O 58.02 64.553 53.514
O 62.023 66.342 54.868
O 59.605 66.027 50.135
H 57.627 67.769 56.908
H 58.844 68.798 53.562
H 59.938 69.75 53.111
H 61.715 66.944 55.558
H 58.654 64.099 52.945
H 57.326 64.834 52.905
H 59.754 66.913 50.49
H 59.589 65.465 50.92
H 61.342 66.589 52.422
H 61.244 68.105 52.453
H 60.054 68.658 56.512
H 59.906 69.587 55.32
H 59.207 66.633 53.396
H 59.763 66.3 54.769
H 60.849 65.152 57.089
