49
xyz format
O 68.359 43.086 54.523
O 66.14 43.802 53.398
O 66.688 44.048 59.049
O 69.345 41.933 58.581
O 69.07 44.581 57.195
O 64.067 41.072 56.855
O 66.986 42.563 49.955
O 68.392 41.272 55.898
O 66.915 40.92 53.767
O 65.903 43.125 57.056
O 68.57 43.342 51.808
O 64.586 43.393 49.489
O 65.206 45.478 56.278
O 66.21 44.838 51.374
O 69.778 41.124 54.197
O 66.154 41.001 58.781
H 68.945 42.506 51.501
H 66.045 45.89 56.522
H 65.27 45.377 55.32
H 64.941 43.766 48.672
H 67.914 40.443 55.771
H 68.136 41.55 56.786
H 66.278 40.981 57.824
H 66.063 41.941 58.98
H 64.206 43.101 51.635
H 67.722 40.549 53.388
H 69.685 41.55 53.336
H 66.986 44.584 50.859
H 65.523 44.965 50.708
H 65.563 46.251 58.662
H 65.748 42.647 56.232
H 66.58 43.772 56.822
H 66.299 40.936 53.024
H 66.295 42.461 50.622
H 64.218 40.633 54.647
H 64.235 41.736 57.535
H 64.092 43.539 55.047
H 68.619 42.112 59.192
H 70.098 41.765 59.163
H 68.649 45.181 56.567
H 65.847 39.687 55.784
H 66.155 43.108 52.727
H 65.279 44.222 53.274
H 66.712 44.1 60.013
H 67.62 44.032 58.797
H 63.435 43.753 57.95
H 65.888 41.873 62.03
H 68.338 43.926 54.048
H 67.497 43.045 54.956
