53
xyz format
Cl 62.646 58.926 60.688
O 63.168 58.198 58.623
O 62.038 56.92 63.279
O 64.423 56.929 66.829
O 64.268 53.989 62.977
O 67.82 55.291 60.46
O 64.113 56.623 64.676
O 63.967 57.638 61.957
O 67.241 56.179 63.668
O 68.523 55.167 58.358
O 61.23 55.035 60.138
O 66.43 57.417 59.538
O 65.642 54.338 58.112
O 65.142 57.127 57.36
O 65.126 53.966 60.897
O 65.587 59.325 64.57
O 67.231 58.478 62.253
O 62.406 59.781 62.749
H 60.56 58.213 61.339
H 64.856 54.715 60.35
H 64.689 53.211 60.483
H 64.857 56.53 58.063
H 64.32 57.358 56.909
H 65.97 53.7 58.758
H 66.384 54.943 57.991
H 60.824 55.595 59.465
H 62.162 55.282 60.11
H 69.26 57.764 61.452
H 67.335 55.252 63.415
H 68.152 56.489 63.742
H 64.537 56.985 62.382
H 64.323 58.483 62.257
H 68.396 55.824 57.662
H 69.213 54.591 58.007
H 67.237 56.532 65.843
H 66.277 55.411 65.487
H 64.117 54.942 63.002
H 64.743 53.811 63.799
H 66.497 57.947 62.587
H 67.216 55.298 61.214
H 69.472 54.975 61.935
H 68.119 56.207 60.398
H 63.613 57.432 64.843
H 65.017 56.934 64.543
H 66.043 58.754 65.201
H 65.026 59.88 65.126
H 66.895 58.016 60.135
H 65.997 56.791 60.132
H 67.695 54.16 56.391
H 63.011 57.332 59.021
H 64.079 58.402 58.868
H 62.101 56.541 62.394
H 61.184 57.37 63.276
