32
xyz format
O 29.555 46.662 46.322
O 31.749 47.537 40.849
O 30.816 47.124 43.877
O 27.725 46.583 48.447
O 31.234 43.464 43.251
O 29.309 49.506 45.239
O 29.516 50.703 41.081
O 30.592 46.561 48.669
O 30.83 45.234 41.651
O 30.721 49.255 42.815
O 32.19 51.182 42.566
O 28.574 44.703 46.284
H 29.982 51.086 41.835
H 30.041 49.453 45.866
H 31.205 46.474 44.475
H 30.426 47.777 44.472
H 31.548 48.788 42.642
H 30.901 49.748 43.625
H 27.93 46.11 49.262
H 28.47 47.187 48.338
H 30.495 45.408 42.54
H 31.776 45.095 41.786
H 28.443 44.289 45.422
H 27.763 44.495 46.764
H 30.814 47.356 41.009
H 32.056 46.755 40.374
H 30.47 46.917 46.494
H 29.091 47.506 46.25
H 32.481 51.351 43.471
H 32.977 51.359 42.036
H 32.1 50.622 38.596
H 28.468 46.382 44.439
