63
xyz format
O 61.531 64.618 56.662
O 57.782 65.822 55.598
O 54.899 66.253 56.186
O 60.537 63.447 55.094
O 55.729 60.392 59.571
O 54.912 63.025 55.92
O 53.481 67.473 57.748
O 55.779 60.703 52.103
O 58.991 62.781 56.522
O 57.288 67.433 57.747
O 52.492 64.562 57.905
O 56.04 65.471 60.968
O 58.02 64.553 53.514
O 56.798 62.435 53.25
O 58.993 65.84 58.401
O 55.939 60.065 56.213
O 56.236 63.753 58.922
O 57.798 60.473 57.314
O 53.609 61.002 51.89
O 56.036 67.297 59.66
O 56.131 58.195 58.527
H 56.986 66.541 57.532
H 57.627 67.769 56.908
H 59.774 65.658 58.939
H 58.367 65.156 58.667
H 56.188 59.276 55.716
H 56.147 60.79 55.611
H 57.103 61.787 53.898
H 56.321 63.084 53.782
H 57.48 61.384 57.351
H 57.259 60.015 57.971
H 58.654 64.099 52.945
H 57.326 64.834 52.905
H 54.384 58.423 52.746
H 56.552 65.032 61.658
H 55.399 66.0 61.459
H 53.215 64.64 58.54
H 51.841 65.201 58.22
H 54.654 64.078 52.743
H 52.488 63.967 53.113
H 52.763 65.417 53.471
H 55.739 61.186 51.269
H 52.874 66.896 57.268
H 53.805 68.079 57.07
H 56.568 60.642 59.977
H 55.109 61.054 59.9
H 58.877 63.508 57.146
H 58.307 62.937 55.86
H 55.573 62.913 56.614
H 54.46 62.172 55.894
H 59.947 63.094 54.416
H 54.836 65.455 55.646
H 54.893 65.919 57.091
H 55.369 63.333 58.861
H 56.082 64.646 58.592
H 59.763 66.3 54.769
H 56.912 66.12 55.304
H 57.594 65.007 56.079
H 60.849 65.152 57.089
H 56.484 57.329 58.287
H 55.319 66.847 59.196
H 55.983 68.206 59.338
H 53.736 61.742 52.497
