34
xyz format
O 60.41 51.628 51.882
O 61.746 48.45 48.04
O 59.147 49.572 52.362
O 61.308 48.56 54.575
O 63.897 50.046 47.79
O 61.818 53.825 48.639
O 58.822 46.964 51.092
O 63.529 50.618 50.228
O 61.18 45.78 50.956
O 61.48 51.258 49.088
O 58.58 48.821 49.111
O 59.433 46.664 54.217
O 59.887 50.759 47.083
H 60.765 50.376 47.203
H 62.5 53.147 48.548
H 60.993 53.336 48.529
H 61.619 47.891 53.952
H 61.158 46.652 50.543
H 63.651 50.978 47.854
H 61.499 50.319 49.313
H 61.597 51.7 49.938
H 58.419 49.622 52.995
H 59.896 49.281 52.897
H 61.621 47.75 48.693
H 63.794 49.728 49.963
H 59.43 47.536 51.577
H 59.048 46.077 51.397
H 63.397 47.541 55.252
H 59.516 48.606 49.204
H 58.583 49.756 48.871
H 59.755 51.369 51.222
H 61.025 50.884 51.9
H 58.545 46.767 53.851
H 59.984 46.506 53.441
