46
xyz format
O 34.331 51.095 28.381
O 34.394 51.205 31.691
O 32.331 50.555 27.192
O 33.377 48.493 26.461
O 33.687 53.546 30.518
O 32.397 53.663 28.188
O 35.683 51.386 26.597
O 35.44 54.642 28.067
O 29.126 52.297 30.21
O 33.038 56.375 30.754
O 35.059 57.15 28.243
O 35.275 54.96 31.084
O 31.907 51.609 30.454
O 30.718 55.772 29.42
O 31.043 48.185 29.152
O 33.741 48.832 30.02
H 32.141 54.501 27.784
H 33.219 53.433 27.738
H 29.776 51.655 29.899
H 29.644 53.101 30.343
H 34.966 54.698 27.228
H 35.317 53.725 28.34
H 36.002 52.304 29.88
H 31.733 52.445 30.905
H 35.009 51.063 25.986
H 31.696 50.942 31.118
H 33.616 52.858 29.845
H 33.117 54.251 30.186
H 34.073 48.918 26.978
H 32.658 48.378 27.095
H 32.661 51.437 26.981
H 31.692 50.712 27.898
H 33.628 51.778 31.826
H 34.156 50.392 32.155
H 33.057 49.321 30.495
H 31.045 54.893 29.65
H 31.481 56.202 29.015
H 35.772 54.471 30.416
H 34.496 48.853 30.621
H 31.056 49.03 29.619
H 35.851 56.79 27.825
H 35.227 57.038 29.187
H 33.641 50.826 29.001
H 34.958 50.362 28.405
H 33.504 56.707 31.532
H 32.178 56.106 31.099
