31
xyz format
O 71.236 40.427 49.196
O 70.887 45.059 49.576
O 69.998 38.521 46.452
O 72.318 38.561 47.268
O 73.252 44.143 46.298
O 67.928 44.615 47.791
O 71.943 43.874 48.046
O 69.876 40.911 44.022
O 70.384 41.215 47.306
O 69.449 41.964 49.151
H 69.06 44.009 51.312
H 68.945 42.506 51.501
H 69.448 40.53 44.799
H 70.802 40.989 44.285
H 70.941 41.247 46.518
H 69.633 40.672 47.034
H 72.897 43.321 45.935
H 72.206 43.377 48.83
H 71.387 43.254 47.557
H 67.88 43.892 47.153
H 67.407 41.695 49.926
H 69.23 42.651 48.509
H 70.21 42.326 49.622
H 68.568 42.226 45.891
H 74.059 41.827 48.594
H 74.59 43.247 48.677
H 70.174 44.494 49.253
H 72.075 40.901 49.254
H 71.501 39.506 49.079
H 70.622 39.044 45.934
H 69.139 38.753 46.079
