61
xyz format
O 67.443 45.63 45.603
O 71.236 40.427 49.196
O 65.304 43.889 46.505
O 70.887 45.059 49.576
O 66.393 42.618 45.076
O 68.83 44.092 41.94
O 69.998 38.521 46.452
O 66.673 43.966 42.372
O 74.299 42.512 49.231
O 68.857 42.968 45.345
O 72.318 38.561 47.268
O 68.37 46.646 41.621
O 72.63 42.195 44.045
O 73.252 44.143 46.298
O 71.943 43.874 48.046
O 69.876 40.911 44.022
O 71.249 43.865 43.486
O 67.926 40.622 43.046
O 70.384 41.215 47.306
O 69.449 41.964 49.151
H 75.325 43.618 45.768
H 67.212 40.133 43.472
H 67.73 40.542 42.104
H 70.542 43.312 43.842
H 71.656 44.25 44.271
H 69.448 40.53 44.799
H 70.802 40.989 44.285
H 70.941 41.247 46.518
H 69.633 40.672 47.034
H 73.416 44.686 45.517
H 72.897 43.321 45.935
H 72.206 43.377 48.83
H 71.387 43.254 47.557
H 67.88 43.892 47.153
H 67.849 46.221 42.313
H 69.244 46.246 41.713
H 69.23 42.651 48.509
H 70.21 42.326 49.622
H 68.507 42.758 44.47
H 68.568 42.226 45.891
H 74.059 41.827 48.594
H 74.59 43.247 48.677
H 70.174 44.494 49.253
H 64.512 44.34 42.195
H 70.602 44.833 40.674
H 71.444 46.094 40.595
H 66.602 44.13 43.32
H 66.314 43.076 42.265
H 66.066 46.248 43.605
H 66.443 42.006 44.331
H 66.377 42.039 45.848
H 67.134 38.421 41.956
H 64.219 41.511 46.128
H 72.075 40.901 49.254
H 71.501 39.506 49.079
H 68.807 44.28 42.886
H 69.396 43.313 41.874
H 70.622 39.044 45.934
H 69.139 38.753 46.079
H 67.8 45.321 44.761
H 64.681 44.108 45.8
