43
xyz format
O 47.424 54.104 66.271
O 49.199 54.548 65.05
O 46.699 55.348 70.014
O 47.298 56.666 66.583
O 51.724 53.542 64.725
O 52.78 57.819 67.129
O 49.944 52.038 65.237
O 52.245 51.887 61.515
O 52.916 55.211 65.598
O 49.498 55.815 69.244
O 51.36 54.265 68.284
O 45.484 55.421 68.155
O 45.016 57.813 65.766
O 50.585 56.881 63.867
H 44.875 57.855 66.72
H 45.843 58.294 65.635
H 51.373 56.572 64.331
H 50.306 57.651 64.378
H 50.824 54.875 67.762
H 51.861 53.775 67.62
H 45.053 55.486 67.293
H 45.827 54.519 68.172
H 49.599 55.493 70.149
H 53.56 54.808 66.194
H 48.635 55.477 68.976
H 52.279 55.623 66.194
H 50.956 54.17 61.906
H 52.32 52.7 60.999
H 51.466 52.035 62.065
H 45.41 54.664 65.141
H 52.619 57.117 67.772
H 51.067 53.562 64.018
H 51.225 53.806 65.508
H 50.703 51.567 64.871
H 49.283 51.987 64.536
H 47.955 57.038 65.981
H 46.642 56.275 65.992
H 53.197 52.59 63.37
H 53.735 53.905 63.909
H 49.159 54.654 64.091
H 49.361 55.443 65.373
H 47.002 53.359 66.717
H 47.867 54.578 66.986
