49
xyz format
O 45.322 43.488 68.492
O 41.066 44.348 67.211
O 41.814 46.814 68.166
O 46.198 44.885 70.629
O 44.69 45.659 69.211
O 42.721 45.412 66.232
O 47.172 40.967 68.31
O 45.084 44.18 65.307
O 41.008 43.753 65.09
O 47.252 42.258 65.355
O 44.837 41.826 64.612
O 45.91 45.331 62.631
O 46.216 45.517 66.637
O 41.943 42.159 66.751
O 40.244 46.565 66.366
H 43.822 46.739 64.01
H 47.776 44.976 64.038
H 43.33 47.334 72.046
H 41.024 43.678 69.851
H 45.072 41.989 65.534
H 44.086 42.412 64.459
H 40.173 43.823 64.61
H 41.581 43.269 64.482
H 42.309 42.538 67.56
H 41.1 41.785 67.034
H 44.421 44.038 65.995
H 44.869 45.054 64.958
H 48.034 42.636 65.776
H 46.901 42.986 64.827
H 46.648 45.261 67.461
H 45.376 45.896 66.926
H 44.192 40.68 67.069
H 43.285 46.192 66.309
H 42.561 45.339 65.282
H 47.269 40.328 67.592
H 47.312 41.819 67.879
H 38.897 46.186 68.064
H 40.303 46.052 65.55
H 45.712 44.983 71.457
H 47.01 45.385 70.779
H 48.43 44.059 69.726
H 46.242 43.545 68.778
H 45.354 42.884 67.739
H 40.17 44.339 67.57
H 41.609 44.628 67.959
H 42.432 46.919 68.9
H 42.046 47.534 67.566
H 44.733 46.602 69.01
H 43.961 45.34 68.664
