50
xyz format
O 63.38 32.816 56.995
O 63.448 36.398 59.761
O 64.14 35.152 56.3
O 65.216 34.181 61.503
O 67.157 36.481 56.673
O 63.183 34.26 59.274
O 64.053 41.016 60.357
O 60.977 37.685 58.77
O 65.474 34.816 58.02
O 63.251 35.457 62.214
O 63.009 38.757 59.777
O 62.748 38.229 57.524
O 65.635 38.831 58.909
O 62.552 38.645 54.658
O 67.142 37.872 60.19
O 65.466 38.983 56.324
O 61.613 40.045 58.66
O 62.973 37.804 62.188
H 66.44 35.89 60.849
H 63.153 37.592 56.922
H 62.325 38.865 56.935
H 65.356 37.907 58.872
H 66.427 38.853 58.359
H 64.069 35.631 62.695
H 62.962 34.601 62.555
H 63.801 38.548 60.288
H 62.36 39.0 60.448
H 61.142 34.778 61.292
H 60.454 36.12 61.119
H 65.82 35.647 58.367
H 66.242 34.232 58.012
H 61.431 37.246 59.5
H 62.659 34.351 58.469
H 63.741 40.81 59.467
H 63.466 34.666 55.807
H 64.202 35.994 55.833
H 63.53 33.361 59.221
H 63.989 40.248 57.353
H 66.54 37.169 56.951
H 64.674 33.441 61.807
H 65.18 34.112 60.541
H 62.598 37.411 62.985
H 63.922 37.815 62.362
H 65.847 39.687 55.784
H 64.728 38.66 55.792
H 62.986 36.758 53.515
H 63.401 36.427 58.797
H 64.334 36.058 59.937
H 62.015 36.395 55.456
H 63.642 32.358 56.187
