28
xyz format
O 50.941 78.844 49.76
O 52.391 73.404 45.204
O 53.628 73.72 48.648
O 51.26 74.535 48.122
O 52.317 76.433 49.131
O 51.514 77.722 47.032
O 53.935 77.88 46.843
O 54.32 75.359 50.973
O 53.652 74.914 46.798
H 54.199 75.697 46.938
H 54.243 74.299 46.346
H 54.149 77.719 45.916
H 50.702 78.027 46.608
H 51.876 77.085 46.402
H 54.526 76.226 51.343
H 53.076 76.696 49.667
H 51.69 76.083 49.777
H 51.25 75.321 47.561
H 51.05 73.816 47.514
H 52.484 72.985 46.068
H 51.854 74.186 45.385
H 53.298 74.452 49.184
H 52.904 73.081 48.661
H 51.592 78.51 49.131
H 50.094 78.603 49.363
H 49.606 76.547 48.752
H 49.18 73.57 48.798
H 49.252 74.669 49.843
