113
xyz format
O 56.075 66.348 33.949
O 56.497 66.826 36.579
O 58.138 71.795 33.147
O 62.353 69.968 37.194
O 59.172 64.393 37.053
O 53.164 70.087 36.92
O 58.935 67.608 35.436
O 58.557 68.338 40.644
O 60.002 66.629 37.379
O 59.556 70.163 37.566
O 53.349 65.643 36.061
O 52.378 67.52 35.425
O 55.8 70.436 43.067
O 62.671 68.238 35.244
O 56.78 69.591 40.979
O 54.911 71.083 38.685
O 57.402 73.198 40.103
O 60.357 65.634 33.812
O 50.833 68.972 30.936
O 54.31 68.004 40.168
O 61.496 69.725 39.274
O 51.541 71.189 32.225
O 58.818 70.08 34.572
O 57.489 67.438 29.8
O 58.081 64.754 39.87
O 52.668 70.676 34.687
O 54.721 68.268 34.616
O 57.387 68.794 33.344
O 56.157 66.826 39.98
O 57.965 71.691 37.41
O 52.464 67.473 38.615
O 59.493 68.987 31.658
O 60.253 71.74 39.196
O 53.198 69.519 32.893
O 54.553 71.519 31.555
O 62.469 68.361 31.93
O 54.164 73.037 36.811
O 55.571 73.157 34.789
H 57.665 69.513 32.762
H 56.854 68.228 32.772
H 54.508 67.913 33.744
H 55.236 69.061 34.421
H 63.39 68.156 32.134
H 61.978 67.628 32.32
H 55.222 63.812 35.254
H 56.71 66.603 39.22
H 56.395 66.163 40.64
H 58.591 65.48 39.489
H 58.545 63.964 39.566
H 53.597 70.911 34.802
H 52.202 71.296 35.264
H 54.544 65.634 39.068
H 61.795 68.811 39.351
H 54.003 69.547 32.361
H 52.549 69.11 32.307
H 53.739 67.569 40.814
H 54.796 68.653 40.692
H 59.744 65.519 34.549
H 61.095 66.121 34.2
H 58.284 73.087 39.728
H 56.92 73.677 39.417
H 55.526 71.807 38.859
H 54.148 71.292 39.239
H 60.052 72.41 38.531
H 60.957 72.143 39.721
H 57.398 69.917 41.645
H 56.913 70.188 40.232
H 57.035 71.458 37.297
H 58.272 71.855 36.51
H 63.332 67.905 34.624
H 62.099 68.79 34.695
H 56.347 64.472 38.095
H 60.141 69.18 30.969
H 59.821 68.172 32.059
H 56.147 69.611 43.428
H 55.181 70.146 42.385
H 59.072 70.06 38.395
H 53.049 67.83 36.046
H 51.631 68.111 35.581
H 59.377 69.341 37.092
H 54.191 65.975 35.723
H 59.136 68.324 39.872
H 59.149 68.135 41.379
H 60.785 67.186 37.284
H 59.447 67.117 37.999
H 59.844 67.753 35.145
H 58.475 67.344 34.629
H 53.385 72.853 36.272
H 54.707 72.246 36.707
H 54.408 72.128 32.29
H 55.454 71.203 31.694
H 58.211 69.972 35.314
H 59.685 70.143 34.992
H 57.036 68.232 29.49
H 58.044 67.758 30.522
H 50.878 71.181 31.523
H 51.429 72.055 32.637
H 52.864 66.723 38.157
H 51.924 67.895 37.935
H 56.124 65.741 34.698
H 56.854 66.127 33.424
H 59.813 63.828 37.503
H 58.324 63.971 37.241
H 53.561 69.491 37.567
H 52.246 69.793 36.87
H 55.251 72.316 34.438
H 54.8 73.735 34.737
H 57.638 71.923 33.963
H 57.454 71.684 32.475
H 55.816 66.991 37.244
H 57.256 67.33 36.899
H 61.63 69.355 37.015
H 62.022 70.814 36.868
