54
xyz format
Na 47.489 37.29 62.212
O 47.762 42.709 62.717
O 40.595 39.112 59.971
O 45.084 44.18 65.307
O 43.497 40.364 66.479
O 42.353 36.063 66.932
O 45.496 40.102 58.895
O 47.252 42.258 65.355
O 44.837 41.826 64.612
O 42.267 41.582 63.243
O 42.649 37.545 64.368
O 42.12 39.148 62.0
O 44.969 37.1 62.414
O 44.737 35.929 65.741
O 45.865 40.33 61.551
O 45.196 38.262 66.439
O 44.481 39.194 63.317
O 47.348 39.235 63.286
O 42.502 38.243 59.304
H 44.024 42.132 60.772
H 41.532 41.635 62.619
H 43.049 41.635 62.68
H 42.595 39.779 61.443
H 41.235 39.526 62.069
H 44.616 37.317 61.542
H 45.359 39.357 58.297
H 45.072 41.989 65.534
H 44.086 42.412 64.459
H 46.901 42.986 64.827
H 44.181 36.018 59.556
H 42.492 38.443 64.05
H 42.161 36.992 63.745
H 45.413 35.775 66.413
H 45.173 36.512 65.107
H 44.192 40.68 67.069
H 43.0 39.74 67.023
H 42.204 36.869 66.423
H 49.553 40.791 64.018
H 42.618 39.181 59.111
H 43.044 38.102 60.091
H 45.832 38.767 66.961
H 44.469 38.102 67.054
H 44.052 39.967 63.705
H 44.709 38.651 64.082
H 44.381 35.112 68.241
H 47.207 37.603 65.381
H 40.878 39.737 65.792
H 47.158 41.964 62.824
H 45.911 41.003 60.86
H 45.156 39.746 61.255
H 40.341 39.909 59.488
H 39.814 38.905 60.499
H 47.713 39.466 62.423
H 48.074 38.776 63.727
