28
xyz format
O 44.313 31.574 52.484
O 41.417 32.357 57.638
O 45.137 32.146 55.159
O 41.565 31.817 54.306
O 39.361 30.466 53.336
O 40.933 30.223 57.005
O 44.021 30.799 56.917
O 41.801 34.548 56.395
O 41.886 32.097 51.535
O 42.909 28.724 55.5
H 44.03 30.982 57.865
H 43.11 30.532 56.744
H 41.579 31.266 51.153
H 40.089 30.554 52.708
H 38.588 29.448 55.137
H 42.65 34.306 56.004
H 41.201 34.581 55.639
H 42.133 31.417 54.976
H 40.855 32.223 54.819
H 42.186 28.313 55.991
H 42.525 28.901 54.632
H 45.589 32.64 54.463
H 44.217 32.129 54.868
H 40.309 30.369 56.284
H 44.29 32.511 52.252
H 43.462 31.424 52.914
H 41.971 31.801 58.2
H 40.868 32.842 58.267
