53
xyz format
O 33.994 67.104 54.839
O 31.427 60.912 59.062
O 32.843 62.11 56.765
O 37.42 62.98 54.343
O 35.314 65.152 59.461
O 37.86 65.411 53.471
O 34.127 65.404 56.244
O 37.019 62.904 56.579
O 34.107 60.949 58.473
O 36.382 62.745 59.865
O 34.831 63.241 53.989
O 38.105 64.816 56.457
O 32.056 63.298 53.082
O 30.114 62.254 55.04
O 34.128 64.994 52.731
O 36.74 60.665 55.989
H 32.675 63.613 53.753
H 38.742 65.061 57.14
H 37.724 65.66 56.185
H 34.804 62.462 54.558
H 34.685 63.975 54.599
H 37.165 63.032 59.378
H 35.791 62.417 59.176
H 34.222 58.802 56.839
H 34.188 62.854 60.628
H 36.339 63.389 57.065
H 37.611 62.584 57.271
H 34.971 65.48 56.706
H 33.478 65.672 56.907
H 36.893 63.76 54.557
H 36.89 62.52 53.68
H 37.481 66.12 54.005
H 38.796 65.421 53.708
H 35.32 66.01 59.018
H 34.861 64.574 58.835
H 33.281 61.758 55.981
H 32.153 62.682 56.405
H 33.345 61.452 53.196
H 30.001 62.64 55.917
H 30.398 63.0 54.496
H 31.148 61.79 58.776
H 31.902 61.078 59.885
H 38.196 61.064 58.75
H 31.529 65.022 54.994
H 33.723 61.786 58.762
H 34.669 61.199 57.728
H 34.573 67.535 55.48
H 33.65 67.836 54.312
H 31.708 59.743 56.896
H 33.612 65.555 53.324
H 34.242 65.539 51.942
H 36.591 59.928 56.595
H 35.864 61.058 55.887
