28
xyz format
O 63.229 49.027 63.19
O 64.723 51.009 61.033
O 65.57 48.977 59.756
O 68.628 50.902 61.299
O 66.957 52.591 60.533
O 67.303 47.911 62.304
O 65.009 47.781 61.968
O 65.242 50.684 64.256
O 66.843 50.424 62.784
H 64.689 53.211 60.483
H 67.63 47.602 61.451
H 69.19 49.035 62.324
H 65.453 47.239 61.304
H 64.342 48.263 61.464
H 64.364 46.721 59.467
H 66.88 51.877 59.887
H 69.046 51.4 60.586
H 68.095 50.243 60.836
H 65.953 48.365 59.116
H 66.27 49.093 60.41
H 67.575 48.893 65.012
H 67.4 50.082 58.703
H 68.326 52.746 62.532
H 66.627 51.237 62.31
H 66.166 49.801 62.491
H 64.177 51.43 61.708
H 64.112 50.412 60.583
H 63.048 49.687 62.509
