24
xyz format
O 28.95 36.009 59.347
O 30.314 34.677 60.446
O 31.457 32.241 62.707
O 30.588 35.023 63.795
O 33.747 32.487 63.103
O 32.979 35.87 60.593
O 33.02 35.139 64.608
H 33.743 31.688 63.645
H 33.469 33.18 63.714
H 33.222 36.713 60.996
H 32.875 35.278 61.348
H 29.769 34.555 63.587
H 30.605 35.749 63.16
H 28.676 36.451 63.952
H 32.157 37.275 62.837
H 28.388 35.819 61.865
H 28.647 35.358 58.702
H 29.162 36.782 58.81
H 31.415 33.18 62.926
H 30.786 32.135 62.021
H 28.298 37.501 56.754
H 32.772 35.267 63.684
H 30.452 34.385 61.356
H 30.82 35.496 60.389
