62
xyz format
O 39.204 41.383 60.672
O 35.84 42.538 57.24
O 40.595 39.112 59.971
O 37.573 38.782 63.676
O 39.899 36.73 64.839
O 39.486 34.653 58.813
O 34.737 41.613 60.558
O 36.91 40.031 58.631
O 40.034 33.806 65.611
O 35.825 45.508 61.706
O 38.841 33.212 60.586
O 33.708 43.194 58.924
O 33.341 39.729 62.026
O 39.839 44.713 60.639
O 36.973 43.195 62.621
O 36.277 45.16 58.973
O 38.109 40.259 65.886
O 37.642 35.601 63.734
O 37.958 37.179 61.732
O 35.986 40.743 63.731
O 37.524 35.336 60.016
H 37.584 44.321 57.251
H 37.955 37.869 61.058
H 38.768 36.685 61.552
H 37.202 36.222 59.808
H 37.339 34.831 59.214
H 35.604 45.583 59.521
H 36.952 44.888 59.608
H 39.358 43.904 60.851
H 33.431 39.131 61.274
H 33.114 40.575 61.62
H 37.736 35.523 64.691
H 38.526 35.402 63.4
H 38.678 40.603 65.187
H 38.12 39.305 65.742
H 36.135 43.381 62.18
H 37.597 43.09 61.892
H 32.995 43.844 58.953
H 34.51 43.731 58.954
H 36.655 45.713 62.155
H 38.748 33.656 61.438
H 39.739 34.537 65.054
H 39.367 33.124 65.468
H 40.907 34.263 60.791
H 37.257 40.697 59.238
H 36.107 39.719 59.069
H 35.355 41.646 59.817
H 34.633 42.539 60.811
H 36.395 42.325 58.001
H 39.128 37.218 64.526
H 40.504 37.421 65.136
H 33.515 43.922 56.783
H 39.213 35.029 57.967
H 39.746 35.424 59.333
H 38.164 39.002 62.945
H 36.8 38.402 63.241
H 39.731 41.798 61.366
H 36.408 40.913 62.88
H 38.385 41.137 61.122
H 36.634 41.052 64.375
H 40.341 39.909 59.488
H 39.814 38.905 60.499
