42
xyz format
O 51.025 49.636 71.163
O 57.393 50.847 72.057
O 51.219 52.43 70.538
O 55.974 50.296 69.876
O 54.745 47.562 72.214
O 53.87 53.66 68.672
O 53.887 51.634 67.558
O 51.928 47.178 70.185
O 54.178 49.153 69.305
O 53.821 50.34 72.797
O 57.868 52.088 68.687
O 55.106 54.612 70.907
O 54.572 51.969 70.214
O 57.812 48.611 72.06
O 56.405 50.712 66.119
H 54.539 50.737 72.289
H 53.283 49.899 72.128
H 56.53 51.468 66.706
H 56.297 49.967 66.724
H 54.004 51.955 66.655
H 54.752 51.773 67.964
H 54.238 52.482 70.96
H 53.808 51.454 69.928
H 51.075 47.623 70.266
H 51.81 46.593 69.426
H 57.204 52.096 69.388
H 54.019 49.465 68.406
H 53.34 48.746 69.558
H 53.216 53.783 69.372
H 51.593 50.26 70.694
H 50.145 50.026 71.087
H 55.495 47.489 71.61
H 54.021 47.855 71.646
H 55.874 49.9 70.751
H 56.701 49.799 69.481
H 50.464 52.513 71.135
H 51.946 52.831 71.031
H 57.484 51.647 71.524
H 56.681 51.061 72.673
H 57.462 48.38 71.191
H 57.563 47.861 72.614
H 58.091 50.859 74.349
