28
xyz format
O 68.971 51.431 66.409
O 71.635 51.422 65.96
O 71.186 53.533 67.989
O 68.284 54.102 67.92
O 66.727 55.814 66.239
O 66.554 56.94 69.479
O 70.387 56.056 67.936
O 69.354 58.359 68.053
O 67.465 53.232 69.817
H 66.957 54.023 70.034
H 66.885 52.744 69.219
H 69.518 51.395 70.487
H 69.138 54.155 67.474
H 67.648 54.064 67.195
H 70.326 56.317 67.009
H 69.489 56.176 68.268
H 69.649 59.045 67.441
H 68.394 58.46 68.065
H 66.901 56.671 68.619
H 66.881 56.259 70.08
H 67.69 53.79 65.016
H 71.5 54.164 68.649
H 71.658 53.787 67.186
H 70.969 51.131 65.325
H 64.937 56.399 67.451
H 68.209 58.483 65.494
H 69.389 52.296 66.32
H 68.073 51.638 66.696
