32
xyz format
Na 37.083 30.36 63.863
O 35.394 36.402 63.467
O 37.573 38.782 63.676
O 39.899 36.73 64.839
O 40.034 33.806 65.611
O 35.905 36.968 66.666
O 36.433 33.152 65.915
O 38.109 40.259 65.886
O 37.642 35.601 63.734
O 37.958 37.179 61.732
O 35.986 40.743 63.731
H 37.955 37.869 61.058
H 38.768 36.685 61.552
H 37.202 36.222 59.808
H 36.407 33.866 65.267
H 37.083 32.537 65.554
H 39.46 31.478 63.946
H 37.736 35.523 64.691
H 38.526 35.402 63.4
H 38.678 40.603 65.187
H 38.12 39.305 65.742
H 41.973 35.369 66.38
H 36.276 36.184 67.089
H 39.739 34.537 65.054
H 39.367 33.124 65.468
H 39.128 37.218 64.526
H 40.504 37.421 65.136
H 38.164 39.002 62.945
H 36.8 38.402 63.241
H 36.408 40.913 62.88
H 36.634 41.052 64.375
H 34.971 36.741 64.266
