50
xyz format
O 72.082 35.177 40.463
O 70.084 34.179 42.561
O 71.902 37.543 42.603
O 72.754 38.695 44.273
O 76.559 40.556 43.807
O 69.998 38.521 46.452
O 72.318 38.561 47.268
O 75.344 40.312 46.613
O 72.746 39.699 40.29
O 74.923 38.278 45.443
O 70.151 37.013 44.08
O 69.867 37.018 41.266
O 69.764 37.35 38.359
O 74.619 38.452 40.942
O 73.845 36.116 44.6
O 68.423 36.015 39.495
O 72.171 37.544 38.155
H 75.047 38.878 44.697
H 75.735 37.755 45.453
H 68.031 35.177 39.771
H 70.078 36.543 37.933
H 69.437 36.386 43.907
H 70.917 36.449 44.241
H 73.531 40.26 40.319
H 72.182 40.059 40.986
H 72.969 41.291 44.045
H 75.251 39.12 41.238
H 74.071 38.295 41.721
H 74.113 36.637 43.833
H 73.367 36.749 45.151
H 74.526 40.825 46.623
H 75.466 40.057 47.536
H 72.538 37.67 46.971
H 73.148 39.046 47.173
H 70.874 34.714 42.709
H 69.403 34.83 42.352
H 71.688 34.524 39.871
H 72.474 35.823 39.862
H 70.171 36.215 40.825
H 69.576 37.583 40.538
H 71.773 38.054 37.439
H 72.338 36.681 37.756
H 72.911 39.309 45.001
H 73.093 39.163 43.5
H 76.152 40.139 43.037
H 75.807 40.905 44.303
H 71.542 38.227 42.024
H 71.922 36.756 42.044
H 70.622 39.044 45.934
H 74.382 41.179 42.247
