28
xyz format
O 60.264 31.615 47.188
O 58.427 26.082 47.382
O 55.123 28.446 40.186
O 55.014 28.877 45.193
O 58.732 32.014 45.041
O 56.573 27.325 45.185
O 57.955 28.652 46.267
O 61.724 31.721 45.545
O 58.877 30.145 43.394
H 58.527 32.469 45.868
H 59.141 31.189 45.329
H 57.504 27.758 41.817
H 54.378 28.197 44.938
H 55.181 27.783 40.886
H 55.637 29.187 40.53
H 56.844 27.877 44.441
H 58.743 26.851 47.874
H 58.032 26.465 46.589
H 55.881 30.217 43.185
H 59.449 31.678 47.702
H 58.959 30.146 42.432
H 58.003 29.767 43.55
H 55.583 26.116 42.276
H 61.581 31.117 44.805
H 61.554 32.592 45.166
H 61.052 28.933 44.868
H 57.833 29.594 46.094
H 58.808 28.453 45.863
