24
xyz format
O 42.55 60.666 40.761
O 41.677 58.091 41.798
O 39.974 61.558 41.697
O 39.394 58.119 42.329
O 35.641 60.734 40.835
O 37.669 56.619 40.494
O 38.052 59.85 42.629
O 41.942 55.608 42.03
H 41.775 55.301 41.13
H 42.885 55.445 42.156
H 38.457 60.378 43.328
H 37.718 60.51 42.008
H 36.144 61.557 40.883
H 37.038 57.05 41.084
H 37.423 56.942 39.619
H 39.742 57.22 42.38
H 38.917 58.133 41.49
H 37.061 59.047 40.145
H 38.211 59.964 39.769
H 39.8 60.892 41.021
H 39.726 62.388 41.27
H 41.793 60.139 40.475
H 42.582 58.294 41.531
H 41.189 58.081 40.964
