33
xyz format
O 59.394 49.104 23.261
O 56.201 49.297 25.156
O 56.128 49.545 27.927
O 60.892 54.228 28.697
O 58.688 50.203 26.442
O 58.569 52.523 28.233
O 59.8 52.798 25.368
O 58.902 49.145 28.359
O 58.318 47.048 25.715
O 60.785 47.793 26.633
H 60.203 47.252 27.181
H 58.072 53.127 23.068
H 59.57 52.185 26.077
H 58.379 46.281 25.132
H 57.976 47.746 25.142
H 59.811 49.149 28.682
H 58.443 49.745 28.959
H 60.101 51.23 30.326
H 57.934 50.449 25.892
H 59.243 49.681 25.849
H 59.373 51.989 28.26
H 57.96 51.994 27.704
H 57.293 47.728 29.129
H 60.519 51.842 23.188
H 60.311 50.907 24.367
H 56.334 50.327 27.4
H 56.476 48.815 27.399
H 55.844 50.188 25.258
H 55.79 48.976 24.344
H 61.033 53.292 28.886
H 58.544 48.75 22.97
H 59.671 48.494 23.955
H 56.147 51.587 29.748
