59
xyz format
O 40.247 67.595 32.417
O 40.46 71.051 32.715
O 43.167 63.664 30.895
O 40.343 65.535 28.373
O 43.266 61.36 31.959
O 40.028 61.029 33.684
O 39.563 62.225 31.07
O 41.24 62.051 28.177
O 39.495 59.998 27.26
O 40.224 65.104 34.051
O 38.547 65.3 29.963
O 39.413 66.158 35.805
O 43.197 60.591 29.351
O 42.012 67.128 29.474
O 41.973 63.089 34.166
O 40.529 69.2 35.079
O 38.266 65.462 32.948
O 43.399 62.901 25.854
O 41.026 65.701 31.399
O 42.048 69.033 31.63
H 42.629 68.264 31.667
H 42.439 69.583 30.94
H 42.513 60.266 29.951
H 43.138 61.551 29.435
H 39.439 66.852 35.134
H 40.697 62.613 27.609
H 40.671 61.877 28.937
H 40.287 60.022 27.812
H 38.83 60.449 27.794
H 38.32 64.363 29.929
H 37.755 65.74 29.629
H 41.675 62.948 33.259
H 42.57 63.845 34.097
H 39.278 63.573 35.654
H 38.57 65.019 32.146
H 37.695 66.167 32.617
H 43.006 62.096 26.214
H 40.114 62.96 30.772
H 38.954 62.081 30.335
H 41.638 67.651 28.754
H 42.69 66.594 29.041
H 40.962 69.411 34.242
H 41.006 65.443 30.469
H 41.894 66.11 31.505
H 42.439 61.713 31.606
H 43.108 61.313 32.91
H 39.887 61.839 34.19
H 41.03 65.325 33.568
H 40.296 59.232 32.442
H 39.956 64.256 33.675
H 40.302 70.196 32.295
H 41.415 71.062 32.859
H 41.409 66.955 36.273
H 39.483 65.381 27.961
H 40.729 64.652 28.435
H 40.538 67.456 33.327
H 39.458 68.143 32.51
H 42.364 63.905 31.373
H 42.919 63.762 29.967
