75
xyz format
O 34.331 51.095 28.381
O 37.534 56.033 29.941
O 34.669 53.535 32.647
O 34.394 51.205 31.691
O 32.331 50.555 27.192
O 31.13 55.868 33.737
O 33.687 53.546 30.518
O 32.397 53.663 28.188
O 35.683 51.386 26.597
O 29.438 51.371 32.483
O 31.285 52.849 34.228
O 36.886 51.982 29.661
O 35.44 54.642 28.067
O 34.707 55.884 33.208
O 29.126 52.297 30.21
O 33.038 56.375 30.754
O 35.059 57.15 28.243
O 35.275 54.96 31.084
O 31.907 51.609 30.454
O 30.718 55.772 29.42
O 32.599 53.517 36.145
O 34.196 51.64 34.002
O 36.132 57.776 33.006
H 33.239 51.649 34.134
H 34.46 50.762 34.303
H 32.141 54.501 27.784
H 33.219 53.433 27.738
H 29.776 51.655 29.899
H 29.644 53.101 30.343
H 35.456 55.846 33.815
H 33.939 55.891 33.793
H 30.348 48.892 32.189
H 34.966 54.698 27.228
H 35.317 53.725 28.34
H 37.214 51.628 30.496
H 36.002 52.304 29.88
H 31.733 52.445 30.905
H 35.009 51.063 25.986
H 36.228 51.967 26.052
H 31.696 50.942 31.118
H 30.595 56.373 33.112
H 31.852 55.524 33.196
H 28.762 50.829 32.056
H 29.09 52.269 32.412
H 31.86 53.37 33.654
H 30.585 53.467 34.474
H 33.616 52.858 29.845
H 33.117 54.251 30.186
H 32.661 51.437 26.981
H 31.692 50.712 27.898
H 37.333 55.72 29.05
H 33.628 51.778 31.826
H 34.156 50.392 32.155
H 36.921 57.769 32.449
H 35.414 57.95 32.385
H 37.431 54.322 32.197
H 33.057 49.321 30.495
H 31.045 54.893 29.65
H 31.481 56.202 29.015
H 35.772 54.471 30.416
H 35.877 55.667 31.346
H 30.91 50.689 33.988
H 33.011 48.58 32.65
H 32.737 49.471 33.849
H 31.056 49.03 29.619
H 33.378 53.24 35.647
H 32.292 54.302 35.674
H 35.851 56.79 27.825
H 35.227 57.038 29.187
H 34.001 53.745 33.311
H 35.502 53.746 33.085
H 33.641 50.826 29.001
H 34.958 50.362 28.405
H 33.504 56.707 31.532
H 32.178 56.106 31.099
