36
xyz format
O 24.901 52.29 51.995
O 26.166 52.854 46.693
O 29.172 50.2 48.425
O 27.97 51.193 54.054
O 26.647 49.718 47.157
O 24.665 52.096 48.669
O 26.397 50.49 49.722
O 23.247 49.824 48.776
O 30.695 53.439 53.104
O 26.254 53.848 50.583
O 28.73 51.543 51.349
H 24.198 49.751 48.633
H 26.395 49.146 47.893
H 26.965 50.52 47.59
H 26.803 51.363 49.655
H 26.291 50.359 50.672
H 30.619 52.512 53.364
H 30.101 53.514 52.347
H 25.364 52.757 48.74
H 24.286 52.255 47.796
H 31.072 49.863 51.014
H 29.676 51.4 51.477
H 28.36 50.652 51.365
H 30.347 50.32 53.297
H 29.616 49.225 52.54
H 32.788 52.766 52.993
H 32.386 51.309 52.842
H 27.116 52.963 46.831
H 28.536 51.852 53.635
H 27.407 50.882 53.334
H 28.597 50.209 49.2
H 29.206 49.268 48.175
H 25.983 54.666 50.147
H 26.977 53.523 50.032
H 25.625 51.777 52.376
H 24.828 51.949 51.095
