51
xyz format
O 47.424 54.104 66.271
O 46.699 55.348 70.014
O 47.298 56.666 66.583
O 43.247 60.061 70.726
O 43.318 58.978 68.133
O 44.582 51.93 66.294
O 41.727 60.218 65.82
O 42.291 57.22 66.609
O 43.846 53.612 67.873
O 45.484 55.421 68.155
O 41.46 54.421 67.434
O 44.781 57.993 70.55
O 45.016 57.813 65.766
O 41.748 55.727 63.732
O 43.461 55.677 69.217
H 44.285 59.029 64.086
H 44.875 57.855 66.72
H 45.843 58.294 65.635
H 43.01 58.21 63.978
H 41.487 54.352 66.472
H 41.95 55.232 67.619
H 45.053 55.486 67.293
H 45.827 54.519 68.172
H 41.552 60.379 63.638
H 47.273 53.004 71.872
H 47.334 54.219 72.781
H 41.492 55.071 64.392
H 41.845 56.68 65.945
H 42.428 58.065 66.163
H 45.841 60.001 71.945
H 43.574 53.887 66.988
H 43.073 53.145 68.215
H 42.89 52.83 65.185
H 40.875 58.217 64.51
H 44.471 58.295 71.413
H 45.739 58.102 70.6
H 45.41 54.664 65.141
H 41.149 52.222 67.523
H 45.137 52.517 69.281
H 42.594 60.27 66.241
H 45.594 56.554 72.155
H 43.314 59.93 68.291
H 43.323 58.597 69.02
H 42.594 59.399 70.986
H 44.123 55.641 69.92
H 47.955 57.038 65.981
H 46.642 56.275 65.992
H 43.806 51.628 66.783
H 46.543 54.758 70.762
H 46.909 56.194 70.429
H 47.867 54.578 66.986
