136
xyz format
O 46.433 36.815 32.932
O 48.833 45.132 36.582
O 50.363 40.468 38.283
O 50.25 37.275 38.303
O 49.028 39.22 42.219
O 48.456 35.872 42.962
O 51.599 39.451 40.276
O 48.445 33.465 39.636
O 52.181 38.422 42.594
O 44.389 40.113 42.537
O 44.369 38.201 36.674
O 43.966 42.991 35.457
O 47.96 41.069 32.132
O 47.559 41.166 41.228
O 51.131 41.219 32.423
O 45.549 38.002 39.053
O 45.985 42.402 42.479
O 48.183 38.292 34.342
O 46.137 41.844 36.528
O 47.999 38.989 38.43
O 50.811 39.306 35.772
O 51.232 43.383 37.162
O 49.447 41.421 34.204
O 46.963 45.185 32.225
O 47.291 39.979 35.984
O 48.537 35.954 39.136
O 52.624 41.258 36.235
O 47.657 43.455 34.18
O 49.786 37.1 44.85
O 47.9 42.23 37.959
O 44.661 39.923 34.84
O 47.799 36.232 36.156
O 45.917 34.532 40.466
O 46.292 38.488 41.071
O 49.833 37.065 33.547
O 44.806 43.652 32.61
O 52.134 35.937 34.778
O 46.084 44.182 40.467
O 42.65 40.602 34.256
O 46.994 38.6 31.771
O 46.208 40.407 33.329
O 50.61 37.205 41.65
O 46.121 34.438 36.228
O 44.328 40.414 39.675
H 44.658 40.253 35.747
H 45.254 39.162 34.875
H 46.728 33.729 35.982
H 45.992 34.926 35.406
H 46.345 42.774 36.374
H 48.612 38.745 37.725
H 48.572 39.346 39.119
H 51.296 39.825 35.118
H 50.709 38.443 35.35
H 47.284 44.243 34.593
H 47.0 43.21 33.517
H 50.337 36.391 44.496
H 50.347 37.882 44.781
H 50.649 43.047 36.469
H 48.163 36.193 39.993
H 49.338 35.466 39.363
H 51.524 44.238 36.821
H 50.14 41.675 34.826
H 48.653 41.374 34.751
H 46.405 44.749 31.569
H 45.621 41.857 37.343
H 47.855 40.472 36.593
H 46.603 39.614 36.554
H 50.287 43.511 31.541
H 52.707 36.655 35.077
H 45.908 37.144 38.796
H 45.783 38.58 38.316
H 42.851 40.006 33.524
H 43.073 41.431 34.0
H 45.014 43.04 31.893
H 44.538 43.074 33.335
H 43.325 40.478 37.552
H 47.322 38.686 34.153
H 48.728 39.047 34.6
H 51.567 40.729 33.131
H 51.717 41.972 32.272
H 45.676 34.913 39.613
H 46.625 43.114 42.361
H 45.388 42.503 41.727
H 47.396 41.767 38.64
H 48.634 42.625 38.447
H 50.345 43.905 33.824
H 48.407 36.911 36.473
H 48.01 35.464 36.701
H 47.067 40.7 40.539
H 48.015 41.868 40.748
H 48.351 33.855 40.513
H 47.635 33.725 39.18
H 44.514 39.593 43.341
H 43.849 40.859 42.828
H 46.889 44.628 40.759
H 44.529 37.28 36.916
H 43.517 38.174 36.221
H 48.493 40.315 32.415
H 48.556 41.821 32.232
H 54.16 41.795 33.428
H 43.853 42.287 36.108
H 47.777 38.067 31.583
H 46.67 38.849 30.896
H 45.04 44.041 37.703
H 48.764 35.235 42.304
H 47.834 36.424 42.472
H 53.085 38.213 42.859
H 51.866 39.008 43.293
H 50.739 39.196 40.631
H 52.002 38.611 40.025
H 44.777 39.932 40.379
H 43.923 41.163 40.131
H 50.974 36.676 38.527
H 49.97 37.626 39.157
H 48.638 39.053 41.352
H 48.345 39.718 42.686
H 50.79 37.047 33.426
H 49.658 36.298 34.107
H 49.862 40.75 37.508
H 50.812 39.666 37.987
H 45.83 41.287 33.447
H 45.565 39.953 32.77
H 50.037 38.419 31.77
H 46.184 41.467 30.895
H 53.379 40.863 36.687
H 51.942 41.295 36.917
H 50.166 37.357 42.493
H 49.98 36.668 41.153
H 43.587 37.82 33.8
H 48.533 33.204 34.594
H 49.562 33.672 36.953
H 45.757 38.264 41.843
H 46.887 37.733 40.978
H 49.054 44.705 37.419
H 49.595 44.943 36.021
H 45.742 37.399 33.267
