71
xyz format
O 48.289 54.675 60.198
O 49.199 54.548 65.05
O 48.067 51.742 61.864
O 50.429 46.887 61.906
O 54.103 44.89 60.293
O 51.724 53.542 64.725
O 50.654 50.674 67.209
O 49.944 52.038 65.237
O 50.409 44.516 61.86
O 50.197 49.745 63.746
O 52.245 51.887 61.515
O 54.503 48.568 61.921
O 52.916 55.211 65.598
O 50.022 54.357 61.744
O 50.44 45.634 58.702
O 47.377 48.498 61.554
O 51.36 54.265 68.284
O 54.797 52.536 60.356
O 52.312 48.899 61.152
O 53.504 47.74 59.259
O 55.395 46.924 60.065
O 53.589 53.425 63.084
O 53.187 49.53 64.323
O 49.132 50.328 60.552
H 54.436 47.605 61.924
H 54.675 48.784 60.996
H 50.824 54.875 67.762
H 51.861 53.775 67.62
H 52.718 49.741 61.392
H 51.523 49.157 60.66
H 48.188 48.174 61.965
H 49.672 44.386 61.25
H 51.161 44.682 61.278
H 54.004 51.955 66.655
H 53.56 54.808 66.194
H 52.279 55.623 66.194
H 50.77 46.533 58.577
H 51.241 45.097 58.725
H 50.956 54.17 61.906
H 49.563 53.632 62.186
H 54.943 51.804 60.97
H 52.539 47.736 59.247
H 53.737 48.498 58.708
H 52.32 52.7 60.999
H 51.466 52.035 62.065
H 49.564 50.11 63.115
H 50.865 49.33 63.186
H 53.475 48.705 63.913
H 50.08 50.274 66.544
H 51.122 49.921 67.591
H 51.067 53.562 64.018
H 51.225 53.806 65.508
H 50.703 51.567 64.871
H 49.283 51.987 64.536
H 53.531 44.898 59.516
H 53.746 45.593 60.849
H 53.833 50.178 64.013
H 49.938 50.655 60.972
H 49.362 49.429 60.285
H 53.197 52.59 63.37
H 53.735 53.905 63.909
H 51.159 47.028 61.29
H 49.683 46.669 61.333
H 49.091 54.498 59.69
H 48.068 53.818 60.583
H 55.34 46.422 59.242
H 56.345 47.008 60.219
H 47.852 51.612 62.796
H 47.324 51.338 61.399
H 49.159 54.654 64.091
H 49.361 55.443 65.373
