34
xyz format
O 43.758 73.963 38.954
O 49.004 75.83 43.481
O 40.594 75.02 44.73
O 48.235 71.452 38.647
O 41.988 74.705 42.66
O 46.679 73.192 38.953
O 45.906 77.328 42.59
O 43.908 72.08 41.848
O 43.992 75.074 41.265
O 44.975 72.911 43.91
O 41.782 73.087 39.81
O 46.713 74.289 41.021
H 43.08 72.324 41.417
H 44.567 72.175 41.149
H 45.428 73.171 43.099
H 44.248 73.543 43.979
H 45.987 76.821 41.772
H 46.812 77.374 42.921
H 43.991 75.847 41.844
H 44.01 74.329 41.879
H 47.045 73.464 38.102
H 46.143 72.419 38.736
H 42.081 73.855 43.108
H 41.334 74.531 41.971
H 41.393 75.547 44.608
H 48.779 74.405 39.075
H 45.999 74.634 40.471
H 47.303 75.045 41.132
H 48.139 75.691 43.886
H 48.869 76.594 42.907
H 41.738 74.05 39.86
H 44.621 74.24 38.623
H 43.844 73.006 39.047
H 42.481 72.545 44.829
