27
xyz format
O 46.513 21.896 52.613
O 50.526 21.845 51.272
O 49.429 23.459 53.394
O 44.863 22.647 50.426
O 51.592 21.91 48.687
O 49.364 22.466 47.364
O 48.361 21.726 49.178
O 49.208 24.979 48.276
O 46.704 23.572 48.165
H 49.946 24.844 47.668
H 48.46 25.156 47.693
H 48.708 23.078 47.008
H 49.919 22.256 46.603
H 47.868 21.221 49.837
H 48.961 22.267 49.706
H 45.598 23.154 50.794
H 49.843 21.174 51.4
H 51.226 21.373 50.803
H 48.932 24.282 53.303
H 49.129 22.927 52.646
H 46.848 24.07 52.628
H 50.907 21.291 48.403
H 51.447 22.684 48.129
H 46.66 22.61 48.098
H 46.879 23.728 49.101
H 46.975 21.743 51.779
H 47.226 21.996 53.255
