72
xyz format
O 69.039 44.121 31.613
O 72.701 40.453 37.467
O 66.687 42.664 35.601
O 73.451 42.217 35.634
O 72.564 43.314 37.78
O 66.045 49.349 32.194
O 69.679 46.657 34.673
O 67.857 40.342 36.176
O 70.193 47.655 29.788
O 63.979 46.591 31.346
O 69.825 43.099 38.317
O 63.267 47.106 33.72
O 72.137 46.081 33.254
O 65.088 45.87 34.132
O 65.514 48.418 35.6
O 70.372 42.151 35.518
O 65.53 42.804 37.469
O 67.39 45.465 35.564
O 71.557 44.209 35.465
O 65.066 40.585 34.809
O 67.061 43.58 29.222
O 71.009 45.974 37.319
O 63.671 43.581 35.382
O 66.205 46.987 28.342
H 69.988 41.552 36.17
H 70.107 41.769 34.672
H 66.705 44.851 35.855
H 67.015 46.334 35.753
H 71.578 46.203 38.064
H 70.13 46.249 37.608
H 61.455 45.839 35.076
H 66.195 43.02 38.135
H 65.203 43.666 37.183
H 67.605 43.63 30.018
H 66.315 44.16 29.417
H 65.84 48.064 36.436
H 66.272 48.343 35.007
H 65.238 48.935 29.721
H 64.578 45.354 33.495
H 65.616 46.459 33.579
H 72.504 46.213 34.137
H 72.803 46.463 32.669
H 64.431 40.987 35.414
H 65.453 41.34 34.348
H 63.753 47.876 33.399
H 63.142 47.289 34.659
H 61.448 45.934 32.826
H 69.516 43.688 37.618
H 69.179 42.382 38.316
H 64.126 47.37 30.794
H 64.597 45.939 30.991
H 65.525 46.798 29.001
H 67.026 46.723 28.777
H 70.627 44.329 35.695
H 71.563 44.257 34.501
H 69.501 47.127 30.205
H 66.915 40.527 36.071
H 68.123 40.009 35.311
H 63.141 43.774 34.599
H 72.548 44.271 37.654
H 71.789 43.006 37.293
H 69.269 46.078 34.019
H 69.445 46.251 35.517
H 66.397 40.013 38.147
H 67.112 42.849 34.754
H 67.395 42.789 36.245
H 72.62 41.726 35.673
H 74.006 41.78 36.292
H 69.78 44.555 31.172
H 68.838 44.705 32.355
H 72.903 39.819 36.768
H 65.728 48.731 32.865
