39
xyz format
O 34.114 35.713 46.515
O 34.368 33.378 45.237
O 32.374 37.163 51.355
O 33.097 33.851 52.257
O 30.351 31.204 49.225
O 30.169 36.239 49.156
O 34.204 35.282 49.475
O 31.072 33.585 50.361
O 31.743 32.566 46.89
O 34.172 30.657 49.549
O 34.308 33.121 47.957
O 36.144 34.572 47.31
H 38.142 35.865 48.299
H 31.164 28.513 49.856
H 34.703 35.12 50.286
H 33.283 35.267 49.765
H 31.132 36.311 49.144
H 29.877 37.113 49.444
H 32.236 36.213 51.457
H 32.632 37.259 50.43
H 33.541 33.329 45.733
H 29.959 30.325 49.304
H 30.72 31.37 50.101
H 31.252 34.53 50.451
H 31.72 33.29 49.709
H 33.629 33.051 52.158
H 33.741 34.566 52.179
H 31.995 37.15 46.223
H 32.076 33.199 47.538
H 31.553 31.779 47.416
H 33.22 35.352 46.548
H 33.48 30.982 48.959
H 35.739 35.222 47.898
H 36.543 33.934 47.913
H 31.359 30.875 52.151
H 32.794 30.526 51.8
H 35.487 37.056 49.103
H 34.957 32.422 48.103
H 33.87 33.209 48.813
