30
xyz format
O 61.224 67.401 63.609
O 58.319 68.869 61.621
O 59.054 65.661 65.039
O 60.777 65.268 60.86
O 61.686 69.979 63.938
O 64.283 66.522 62.313
O 60.355 71.783 61.643
O 58.791 66.438 62.945
O 60.825 67.465 60.918
O 62.641 65.124 62.733
H 59.774 65.658 58.939
H 62.469 65.163 63.682
H 60.627 68.235 61.466
H 60.421 67.679 60.068
H 60.771 72.544 62.066
H 61.624 70.939 64.02
H 62.023 69.697 64.797
H 62.05 69.887 61.771
H 64.078 69.602 63.878
H 57.431 68.095 64.621
H 61.659 64.884 60.784
H 60.303 64.644 61.423
H 59.979 65.771 65.29
H 58.617 66.427 65.431
H 61.967 67.83 63.167
H 60.988 66.68 63.012
H 58.824 69.41 61.001
H 57.799 68.291 61.049
H 58.904 67.373 63.154
H 58.471 66.443 62.035
