32
xyz format
O 34.624 42.468 47.144
O 33.386 46.348 50.318
O 31.602 42.544 45.783
O 34.353 42.37 49.495
O 34.092 44.254 44.32
O 29.347 42.171 45.413
O 31.234 43.464 43.251
O 32.52 45.173 45.866
O 32.384 41.162 47.373
O 33.943 44.592 49.112
H 32.783 41.632 48.116
H 31.439 41.185 47.569
H 31.205 46.474 44.475
H 30.585 42.954 43.75
H 31.742 43.92 43.934
H 33.936 43.348 44.025
H 35.195 42.772 49.247
H 29.565 41.233 45.361
H 31.937 45.279 46.629
H 33.385 45.005 46.26
H 32.528 42.808 45.852
H 31.118 43.359 45.965
H 32.687 40.521 50.282
H 33.205 45.976 43.217
H 33.945 46.458 44.453
H 32.488 41.693 43.956
H 31.222 40.855 43.924
H 31.192 43.132 48.575
H 33.226 44.868 48.527
H 34.741 44.842 48.631
H 34.616 43.202 46.516
H 34.381 41.704 46.606
