43
xyz format
O 70.062 31.75 41.894
O 72.082 35.177 40.463
O 70.084 34.179 42.561
O 67.561 37.754 41.403
O 66.164 30.998 42.14
O 65.915 35.229 38.306
O 66.572 35.879 42.058
O 64.471 31.977 40.092
O 69.046 35.921 46.022
O 67.536 33.841 41.727
O 68.107 32.652 39.275
O 70.151 37.013 44.08
O 69.867 37.018 41.266
O 67.198 29.65 40.719
H 68.031 35.177 39.771
H 69.437 36.386 43.907
H 70.917 36.449 44.241
H 68.004 29.789 40.206
H 66.649 29.107 40.141
H 63.932 31.438 40.684
H 67.387 33.932 42.676
H 67.726 32.901 41.613
H 68.853 33.217 39.036
H 68.501 31.774 39.355
H 64.138 33.314 41.818
H 70.874 34.714 42.709
H 69.403 34.83 42.352
H 71.688 34.524 39.871
H 65.874 35.601 41.452
H 66.15 36.56 42.597
H 65.477 30.367 41.891
H 65.808 31.848 41.851
H 65.897 35.355 39.263
H 66.635 34.6 38.171
H 65.402 34.563 43.387
H 70.171 36.215 40.825
H 67.525 37.412 44.272
H 66.901 36.086 44.671
H 71.922 36.756 42.044
H 70.772 32.007 42.495
H 69.301 31.631 42.476
H 66.918 37.594 40.7
H 67.034 32.279 44.084
