68
xyz format
O 53.925 62.227 47.433
O 59.139 60.722 52.596
O 54.545 65.38 49.164
O 57.659 64.519 48.088
O 50.096 62.503 52.401
O 51.385 60.879 53.472
O 54.912 63.025 55.92
O 55.779 60.703 52.103
O 54.5 64.222 51.801
O 60.014 61.846 50.729
O 57.776 62.291 50.856
O 51.084 62.025 46.917
O 55.711 66.633 47.31
O 54.624 64.417 45.167
O 55.221 57.942 52.735
O 58.02 64.553 53.514
O 56.798 62.435 53.25
O 57.568 62.218 45.647
O 52.588 64.842 52.716
O 52.012 63.466 48.398
O 56.23 60.142 49.067
O 53.609 61.002 51.89
H 56.188 59.276 55.716
H 56.147 60.79 55.611
H 51.871 61.497 47.099
H 50.534 61.896 47.7
H 55.115 67.328 47.615
H 56.197 66.382 48.105
H 55.161 64.224 45.945
H 53.806 64.773 45.536
H 57.103 61.787 53.898
H 56.321 63.084 53.782
H 57.875 61.335 50.763
H 57.255 62.544 50.084
H 51.275 63.505 49.019
H 52.79 63.58 48.957
H 58.654 64.099 52.945
H 57.326 64.834 52.905
H 54.384 58.423 52.746
H 55.575 58.119 51.855
H 59.589 65.465 50.92
H 60.83 62.184 50.338
H 60.021 60.909 50.498
H 54.723 63.373 51.399
H 54.654 64.078 52.743
H 52.488 63.967 53.113
H 52.763 65.417 53.471
H 55.739 61.186 51.269
H 56.524 60.1 51.984
H 58.17 62.629 46.28
H 56.844 62.853 45.574
H 54.46 62.172 55.894
H 52.079 60.238 53.273
H 50.588 60.476 53.105
H 50.432 63.388 52.587
H 50.477 62.289 51.54
H 57.031 64.0 47.57
H 57.31 64.471 48.987
H 54.804 64.451 49.113
H 54.671 65.602 50.095
H 54.764 62.503 47.821
H 53.619 63.014 46.965
H 59.181 61.305 53.363
H 58.535 60.022 52.872
H 53.106 61.386 51.161
H 53.736 61.742 52.497
H 56.685 59.743 49.819
H 55.298 60.112 49.32
