33
xyz format
O 62.038 56.92 63.279
O 66.925 61.162 65.676
O 64.423 56.929 66.829
O 64.268 53.989 62.977
O 64.113 56.623 64.676
O 63.967 57.638 61.957
O 67.241 56.179 63.668
O 62.059 55.315 65.918
O 66.727 55.814 66.239
O 68.558 59.38 65.557
O 65.587 59.325 64.57
O 67.231 58.478 62.253
H 62.719 56.111 68.596
H 69.26 57.764 61.452
H 67.335 55.252 63.415
H 68.152 56.489 63.742
H 64.537 56.985 62.382
H 64.323 58.483 62.257
H 67.237 56.532 65.843
H 66.277 55.411 65.487
H 62.814 55.358 66.518
H 64.117 54.942 63.002
H 66.497 57.947 62.587
H 67.643 61.229 66.318
H 67.381 61.124 64.826
H 63.613 57.432 64.843
H 65.017 56.934 64.543
H 66.043 58.754 65.201
H 65.026 59.88 65.126
H 63.928 57.532 67.396
H 64.937 56.399 67.451
H 68.209 58.483 65.494
H 62.101 56.541 62.394
