39
xyz format
Cl 39.106 49.969 60.184
Na 36.045 52.744 54.029
O 39.083 52.778 54.927
O 36.115 47.947 57.122
O 34.983 47.227 55.413
O 34.184 48.452 59.501
O 35.002 50.37 53.825
O 37.91 49.795 57.98
O 36.941 52.18 56.464
O 35.976 50.126 56.944
O 38.712 52.742 57.567
O 37.263 50.647 53.136
O 37.765 49.304 54.806
O 40.618 48.928 58.161
H 36.12 52.629 56.226
H 37.133 51.629 55.694
H 40.08 48.255 58.596
H 38.266 49.035 57.503
H 38.099 50.541 57.398
H 35.356 50.691 54.664
H 41.165 51.824 55.86
H 37.662 50.033 52.507
H 36.804 51.284 52.575
H 38.828 53.699 57.606
H 38.133 52.55 58.315
H 36.098 48.538 52.913
H 35.831 50.638 57.749
H 35.085 49.892 56.657
H 34.306 49.18 58.879
H 34.027 47.688 58.932
H 39.561 53.435 55.449
H 39.158 51.971 55.452
H 35.203 48.062 54.98
H 35.235 46.559 54.763
H 38.512 49.69 55.279
H 37.184 48.992 55.511
H 36.273 48.147 58.053
H 36.41 47.032 57.03
H 39.393 50.821 53.652
