25
xyz format
O 26.849 60.057 54.334
O 25.545 57.242 53.404
O 26.051 54.568 53.65
O 24.853 62.174 53.682
O 27.349 60.726 52.297
O 23.282 58.677 55.427
O 24.858 59.765 52.328
O 27.915 63.368 51.704
O 27.274 56.449 55.15
H 23.36 57.915 54.839
H 23.173 59.422 54.823
H 28.145 61.271 52.337
H 26.927 60.996 51.471
H 27.677 58.605 51.812
H 26.583 60.985 54.341
H 27.286 59.936 55.186
H 27.701 56.614 54.3
H 27.911 56.781 55.795
H 25.663 59.242 52.432
H 24.149 59.13 52.494
H 25.873 57.821 54.103
H 24.913 56.67 53.858
H 24.723 63.006 53.209
H 24.111 61.628 53.395
H 27.048 63.16 52.074
