35
xyz format
O 32.708 61.385 63.482
O 36.313 55.225 62.82
O 38.772 59.287 62.177
O 32.129 64.169 59.621
O 34.687 59.579 60.557
O 36.171 58.634 61.883
O 34.377 62.425 61.472
O 36.382 62.745 59.865
O 33.973 58.652 63.702
O 35.522 60.678 62.854
O 33.695 66.003 62.934
O 32.728 63.924 62.354
O 38.043 57.227 62.013
H 34.915 58.446 63.734
H 33.853 59.043 62.828
H 33.703 66.029 61.969
H 33.975 61.552 61.382
H 34.188 62.854 60.628
H 35.825 57.749 61.713
H 36.752 58.801 61.131
H 38.684 58.209 60.128
H 30.659 62.195 63.579
H 31.706 63.5 60.173
H 32.828 64.524 60.185
H 36.376 60.877 63.258
H 34.899 61.215 63.359
H 35.314 60.197 60.16
H 38.038 59.528 62.755
H 37.711 56.548 61.413
H 37.732 56.938 62.88
H 31.988 64.03 62.965
H 33.491 63.811 62.936
H 37.657 60.541 60.07
H 32.692 60.565 63.992
H 32.906 62.061 64.142
