100
xyz format
Cl 62.646 58.926 60.688
O 63.168 58.198 58.623
O 61.531 64.618 56.662
O 62.038 56.92 63.279
O 65.032 58.193 53.772
O 58.796 59.374 64.961
O 61.128 58.983 57.055
O 61.631 61.417 54.456
O 61.826 62.956 59.73
O 65.671 61.294 58.902
O 61.228 59.219 53.159
O 60.537 63.447 55.094
O 60.777 65.268 60.86
O 58.991 62.781 56.522
O 59.135 57.985 54.928
O 63.967 57.638 61.957
O 59.661 62.547 61.16
O 64.807 59.715 55.941
O 61.51 56.232 56.192
O 61.59 60.384 58.908
O 59.691 61.441 58.761
O 61.23 55.035 60.138
O 66.43 57.417 59.538
O 65.142 57.127 57.36
O 59.831 58.823 61.169
O 57.663 61.028 61.846
O 62.963 61.964 56.456
O 58.796 56.877 59.666
O 57.798 60.473 57.314
O 60.544 60.771 65.385
O 62.406 59.781 62.749
O 63.848 61.673 60.101
H 59.774 65.658 58.939
H 62.854 64.196 62.576
H 62.767 63.143 64.506
H 60.056 59.601 61.693
H 60.56 58.213 61.339
H 64.857 56.53 58.063
H 64.32 57.358 56.909
H 60.06 61.316 64.752
H 61.469 60.991 65.217
H 60.824 55.595 59.465
H 62.162 55.282 60.11
H 57.709 60.843 66.19
H 57.48 61.384 57.351
H 57.259 60.015 57.971
H 58.401 57.716 59.4
H 58.217 56.565 60.373
H 61.213 59.53 59.155
H 61.853 60.771 59.753
H 58.645 57.378 63.401
H 64.537 56.985 62.382
H 64.323 58.483 62.257
H 59.275 60.602 58.994
H 59.94 61.325 57.836
H 59.517 62.579 62.113
H 59.584 61.609 60.947
H 62.305 56.506 56.666
H 60.831 56.208 56.878
H 64.888 60.489 55.369
H 64.124 59.185 55.512
H 57.38 62.238 64.52
H 63.57 62.473 52.415
H 59.449 57.375 54.248
H 59.835 58.648 54.982
H 63.394 61.494 57.181
H 63.614 62.626 56.193
H 61.659 64.884 60.784
H 60.303 64.644 61.423
H 58.877 63.508 57.146
H 58.307 62.937 55.86
H 63.613 57.432 64.843
H 55.573 62.913 56.614
H 59.947 63.094 54.416
H 61.356 63.625 54.615
H 64.26 62.545 60.131
H 63.907 61.36 61.012
H 61.831 58.471 53.063
H 66.06 60.469 59.218
H 65.9 61.312 57.965
H 60.983 63.291 59.402
H 62.324 62.76 58.927
H 62.583 61.272 54.402
H 61.363 61.528 53.535
H 66.895 58.016 60.135
H 65.997 56.791 60.132
H 59.295 59.347 64.135
H 62.094 64.337 57.394
H 60.849 65.152 57.089
H 58.032 60.418 62.498
H 57.47 61.822 62.359
H 64.102 58.194 53.514
H 61.074 59.732 56.449
H 60.219 58.865 57.356
H 63.011 57.332 59.021
H 64.079 58.402 58.868
H 62.101 56.541 62.394
H 61.184 57.37 63.276
H 61.728 59.697 63.43
H 62.875 60.589 62.99
