36
xyz format
O 62.767 29.328 54.957
O 64.17 33.117 48.956
O 62.639 28.236 52.425
O 62.098 31.907 51.568
O 62.904 31.666 54.133
O 63.755 33.909 52.547
O 66.119 29.495 53.873
O 63.146 26.079 54.305
O 60.027 29.357 52.167
O 64.577 30.162 51.188
O 62.579 30.466 49.483
H 62.42 26.103 54.942
H 63.878 25.701 54.807
H 64.315 27.829 49.077
H 60.694 29.925 52.572
H 65.102 30.328 49.058
H 62.976 29.752 48.968
H 62.531 30.104 50.377
H 65.852 32.467 50.596
H 64.389 33.46 51.975
H 64.269 34.124 53.336
H 65.349 29.176 53.387
H 62.027 28.409 51.698
H 63.51 28.323 52.018
H 61.852 32.648 52.136
H 62.115 32.293 50.683
H 64.737 30.839 51.856
H 65.365 29.607 51.23
H 64.297 33.779 49.647
H 63.933 32.319 49.444
H 62.845 32.628 54.099
H 61.991 31.375 54.013
H 62.175 27.79 49.592
H 63.642 32.358 56.187
H 62.981 28.725 55.679
H 63.628 29.658 54.671
