56
xyz format
O 66.687 42.664 35.601
O 62.081 40.221 36.613
O 66.266 39.062 38.048
O 65.857 38.14 34.556
O 62.061 43.908 37.631
O 67.857 40.342 36.176
O 62.508 37.306 37.731
O 64.431 37.393 30.032
O 69.296 36.144 35.877
O 63.748 37.969 35.67
O 67.213 37.377 36.114
O 67.605 37.375 33.344
O 65.53 42.804 37.469
O 65.972 38.991 29.927
O 64.148 39.647 31.782
O 64.148 40.605 39.335
O 65.066 40.585 34.809
O 64.228 35.454 33.531
O 66.037 35.953 32.324
O 63.671 43.581 35.382
H 66.588 36.649 36.217
H 64.317 43.129 39.276
H 66.67 38.614 29.376
H 66.195 43.02 38.135
H 65.203 43.666 37.183
H 67.501 37.562 37.017
H 63.835 38.802 35.191
H 63.282 37.395 35.049
H 67.926 36.702 33.957
H 68.401 37.658 32.877
H 60.83 42.447 35.455
H 64.63 35.809 34.334
H 64.431 40.987 35.414
H 65.453 41.34 34.348
H 69.368 37.064 35.592
H 70.115 35.742 35.563
H 63.76 39.449 32.644
H 65.056 39.897 31.991
H 69.179 42.382 38.316
H 65.717 36.478 31.58
H 66.698 35.372 31.927
H 63.283 36.792 37.47
H 62.884 38.108 38.113
H 66.915 40.527 36.071
H 68.123 40.009 35.311
H 63.242 42.805 35.763
H 63.141 43.774 34.599
H 62.389 44.481 36.926
H 66.397 40.013 38.147
H 66.221 38.741 38.958
H 65.34 38.066 33.744
H 66.425 38.904 34.397
H 62.966 39.946 36.885
H 62.046 39.986 35.677
H 67.112 42.849 34.754
H 67.395 42.789 36.245
