30
xyz format
O 53.676 55.974 24.5
O 55.916 56.593 25.711
O 51.96 57.512 23.057
O 55.011 57.899 22.699
O 53.542 54.461 26.093
O 51.25 56.499 26.035
O 53.069 59.277 25.674
O 56.215 59.499 24.685
O 54.759 58.174 27.922
H 54.671 53.832 23.529
H 55.107 53.437 24.929
H 56.86 59.045 24.128
H 55.721 60.048 24.063
H 52.633 58.573 26.17
H 55.662 57.423 23.229
H 54.482 58.371 23.355
H 51.979 55.457 22.009
H 51.821 55.32 23.514
H 53.651 59.689 26.324
H 54.105 54.843 26.777
H 53.029 53.793 26.565
H 51.812 55.815 26.419
H 51.737 56.783 25.251
H 53.913 56.847 24.836
H 54.072 55.951 23.62
H 52.533 57.703 22.304
H 51.897 58.359 23.517
H 55.895 56.269 26.621
H 55.823 57.549 25.806
H 54.247 57.597 27.341
