62
xyz format
Cl 47.816 30.708 60.247
O 52.727 30.364 56.437
O 54.066 29.649 51.982
O 53.936 29.521 54.794
O 55.002 31.796 55.372
O 53.795 28.205 57.145
O 56.513 29.937 53.846
O 51.061 31.956 54.321
O 49.581 27.309 55.104
O 52.827 32.964 57.245
O 57.952 31.834 54.264
O 48.257 27.486 58.081
O 51.875 28.909 52.896
O 51.853 26.252 55.552
O 56.86 30.496 57.245
O 50.431 32.206 56.932
O 48.973 30.032 54.848
O 50.973 27.435 57.634
O 49.64 29.997 58.461
O 55.535 32.102 58.886
H 52.229 26.425 54.68
H 52.438 26.731 56.153
H 54.633 31.97 58.569
H 51.9 29.349 53.754
H 51.964 27.973 53.115
H 49.718 29.823 54.27
H 47.342 27.605 58.366
H 48.611 26.842 58.708
H 50.305 32.227 57.889
H 50.508 31.265 56.732
H 50.592 27.822 58.433
H 50.419 26.663 57.467
H 57.575 30.651 56.614
H 56.61 29.577 57.087
H 48.721 29.702 58.431
H 49.782 30.212 59.391
H 52.626 33.425 56.421
H 52.2 33.338 57.876
H 58.456 31.958 55.077
H 57.036 31.958 54.54
H 48.958 26.974 54.447
H 50.311 27.654 54.574
H 58.045 28.955 55.293
H 53.492 28.065 59.341
H 51.532 31.255 54.789
H 51.633 32.726 54.426
H 54.505 28.742 56.771
H 54.212 27.348 57.296
H 55.266 30.976 55.807
H 54.564 32.296 56.072
H 56.095 29.108 54.112
H 55.435 31.979 52.722
H 53.938 28.707 54.276
H 53.997 30.217 54.128
H 52.515 26.087 59.28
H 53.424 30.676 57.028
H 52.2 29.777 56.994
H 47.972 28.522 60.423
H 53.329 35.15 58.404
H 50.4 26.051 53.036
H 53.311 29.605 51.382
H 54.808 29.861 51.402
