46
xyz format
O 62.173 44.389 42.685
O 55.651 41.602 42.9
O 60.062 44.345 41.674
O 56.982 41.707 39.823
O 59.668 41.292 39.142
O 57.482 43.742 42.228
O 58.972 44.967 38.96
O 60.145 38.919 37.668
O 53.501 41.307 42.52
O 61.644 42.892 39.623
O 55.686 39.05 42.203
O 58.394 41.651 42.138
O 57.805 42.605 36.97
O 59.68 39.323 41.176
H 59.645 43.1 44.261
H 59.033 39.88 40.726
H 60.243 39.954 41.641
H 61.452 41.697 42.244
H 58.173 45.031 39.498
H 59.501 45.723 39.244
H 58.506 37.463 41.08
H 59.559 39.236 38.367
H 59.477 41.782 35.643
H 53.029 41.699 41.775
H 54.96 38.828 41.606
H 56.412 39.272 41.607
H 59.517 42.169 39.515
H 60.501 41.013 39.542
H 56.605 43.972 42.56
H 58.042 44.465 42.54
H 60.613 45.028 41.273
H 60.141 43.6 41.066
H 62.27 42.329 39.149
H 62.153 43.688 39.818
H 57.059 42.505 40.36
H 55.86 40.846 43.462
H 55.516 42.324 43.527
H 57.15 40.991 40.448
H 57.521 39.447 43.893
H 61.213 43.592 37.294
H 57.92 41.433 42.951
H 59.27 41.912 42.447
H 58.493 42.296 37.572
H 57.11 42.923 37.56
H 58.898 46.42 41.316
H 62.477 43.573 43.101
