58
xyz format
O 52.342 61.133 68.723
O 55.515 65.421 64.893
O 56.1 64.089 69.08
O 52.85 63.112 63.59
O 53.677 64.195 67.324
O 56.971 65.614 66.749
O 56.551 62.57 64.886
O 54.183 62.051 70.321
O 50.248 60.15 67.523
O 54.925 60.006 67.785
O 54.666 67.197 63.153
O 53.56 66.679 68.589
O 52.026 64.899 71.153
O 51.398 61.435 71.409
O 54.031 61.468 65.908
O 53.651 66.875 65.295
O 54.29 59.603 71.774
O 55.033 62.941 73.36
O 56.957 60.557 66.723
H 53.972 60.508 71.883
H 52.734 66.987 65.575
H 54.331 59.265 72.677
H 57.06 61.458 70.391
H 57.393 62.312 69.18
H 57.709 60.843 66.19
H 56.236 60.492 66.085
H 52.008 62.149 71.633
H 51.93 60.841 70.865
H 55.61 59.365 68.012
H 55.16 60.785 68.304
H 55.163 62.128 72.856
H 55.644 62.852 74.101
H 54.013 66.558 69.433
H 58.653 60.802 68.194
H 53.738 66.938 63.097
H 49.553 62.252 64.971
H 50.401 59.529 68.246
H 50.229 61.011 67.959
H 55.074 62.366 70.123
H 53.617 62.596 69.76
H 53.116 61.725 65.74
H 54.534 62.268 65.71
H 56.645 63.529 64.834
H 57.38 62.238 64.52
H 52.881 63.885 66.875
H 54.28 64.407 66.601
H 52.026 58.411 67.243
H 56.054 65.69 67.042
H 54.803 65.234 64.269
H 56.266 65.635 64.325
H 55.381 64.665 69.368
H 55.838 63.822 68.19
H 52.309 64.108 70.678
H 52.63 65.584 70.84
H 53.454 63.496 64.238
H 52.442 63.882 63.174
H 52.395 61.348 67.784
H 53.046 60.486 68.851
