32
xyz format
O 50.817 40.569 51.66
O 52.158 39.247 55.029
O 51.408 38.624 57.022
O 50.47 40.888 56.059
O 49.299 37.749 52.394
O 49.128 39.582 53.633
O 45.96 40.537 54.742
O 47.13 38.15 52.712
O 48.643 38.698 57.426
O 46.244 37.977 55.297
H 46.615 38.773 53.24
H 46.681 37.307 52.849
H 52.551 38.331 51.652
H 46.055 36.637 50.849
H 45.019 40.807 52.711
H 48.915 40.467 53.956
H 48.591 39.001 54.185
H 47.027 38.244 55.795
H 45.045 38.854 51.698
H 49.195 37.15 51.644
H 50.128 38.208 52.208
H 48.289 39.524 57.074
H 50.092 40.012 55.911
H 49.742 41.39 56.446
H 50.821 37.973 57.427
H 46.882 40.823 54.719
H 45.742 40.543 55.683
H 47.586 41.817 56.957
H 51.856 38.544 54.44
H 51.875 40.056 54.584
H 50.094 40.96 52.165
H 51.357 40.134 52.331
