28
xyz format
Cl 62.646 58.926 60.688
O 61.128 58.983 57.055
O 61.826 62.956 59.73
O 65.671 61.294 58.902
O 59.661 62.547 61.16
O 61.59 60.384 58.908
O 59.691 61.441 58.761
O 59.831 58.823 61.169
O 57.663 61.028 61.846
O 62.406 59.781 62.749
O 63.848 61.673 60.101
H 60.056 59.601 61.693
H 60.56 58.213 61.339
H 58.401 57.716 59.4
H 61.213 59.53 59.155
H 61.853 60.771 59.753
H 59.275 60.602 58.994
H 59.94 61.325 57.836
H 59.517 62.579 62.113
H 59.584 61.609 60.947
H 64.26 62.545 60.131
H 63.907 61.36 61.012
H 66.06 60.469 59.218
H 60.983 63.291 59.402
H 62.324 62.76 58.927
H 58.032 60.418 62.498
H 57.47 61.822 62.359
H 60.219 58.865 57.356
