28
xyz format
O 55.515 65.421 64.893
O 56.1 64.089 69.08
O 57.164 67.559 68.051
O 56.806 65.979 70.41
O 53.677 64.195 67.324
O 56.971 65.614 66.749
O 53.56 66.679 68.589
O 55.027 68.219 70.958
O 54.649 69.424 67.89
H 54.149 67.425 65.912
H 53.767 69.815 67.938
H 54.133 67.289 68.108
H 54.013 66.558 69.433
H 56.645 63.529 64.834
H 54.28 64.407 66.601
H 57.431 65.266 67.523
H 56.054 65.69 67.042
H 56.409 66.776 70.037
H 56.227 65.76 71.15
H 54.803 65.234 64.269
H 56.266 65.635 64.325
H 55.381 64.665 69.368
H 55.838 63.822 68.19
H 52.63 65.584 70.84
H 54.436 68.828 71.417
H 54.933 68.466 70.029
H 56.407 67.997 67.641
H 57.841 67.579 67.363
