54
xyz format
Na 47.489 37.29 62.212
O 52.341 36.905 65.243
O 47.782 37.364 66.119
O 53.036 35.388 62.771
O 50.982 37.216 62.935
O 53.238 39.604 64.257
O 50.461 40.554 64.247
O 49.349 33.687 65.75
O 48.415 31.171 65.467
O 47.945 31.018 63.198
O 49.193 35.31 61.363
O 48.289 35.566 64.494
O 50.762 35.421 65.634
O 52.395 35.805 68.419
O 48.66 36.122 67.8
O 47.348 39.235 63.286
O 49.787 33.289 62.008
O 52.092 33.938 60.397
O 47.192 36.49 59.657
O 50.201 38.684 61.455
H 51.47 34.373 60.993
H 47.872 35.259 65.308
H 48.046 34.895 63.844
H 48.406 31.094 62.353
H 49.904 32.808 62.836
H 48.849 33.178 61.809
H 49.82 32.925 66.111
H 49.622 33.708 64.825
H 50.968 31.906 64.534
H 47.89 31.934 65.741
H 48.703 30.78 66.301
H 50.837 40.251 63.411
H 49.553 40.791 64.018
H 51.148 34.834 66.296
H 49.974 35.771 66.07
H 52.521 39.243 64.793
H 53.39 38.923 63.589
H 51.929 37.373 63.031
H 50.749 36.722 63.731
H 49.526 38.172 60.992
H 49.77 39.531 61.624
H 47.471 35.7 59.177
H 53.013 36.68 65.899
H 52.112 35.179 62.96
H 51.732 36.252 67.878
H 47.797 35.702 67.91
H 48.57 36.957 68.276
H 48.236 35.426 61.313
H 49.452 35.86 62.113
H 47.207 37.603 65.381
H 48.108 38.213 66.44
H 51.704 37.434 65.739
H 47.713 39.466 62.423
H 48.074 38.776 63.727
