81
xyz format
O 59.394 49.104 23.261
O 60.857 42.33 27.258
O 61.001 51.267 23.796
O 56.201 49.297 25.156
O 56.128 49.545 27.927
O 57.432 47.613 30.077
O 62.119 48.05 24.336
O 58.688 50.203 26.442
O 58.569 52.523 28.233
O 60.787 51.273 31.003
O 58.175 43.39 27.245
O 57.692 43.331 24.311
O 62.176 42.232 29.016
O 62.057 48.702 30.499
O 59.8 52.798 25.368
O 58.902 49.145 28.359
O 60.942 45.956 29.562
O 58.318 47.048 25.715
O 62.378 50.704 28.496
O 60.189 41.505 24.371
O 64.349 47.257 27.192
O 62.93 50.149 25.631
O 61.243 44.699 26.709
O 60.991 45.408 23.713
O 58.439 45.375 30.012
O 60.785 47.793 26.633
O 56.58 44.706 27.996
H 63.285 50.493 24.802
H 62.172 50.719 25.811
H 56.951 45.537 28.32
H 55.869 44.987 27.407
H 60.203 47.252 27.181
H 61.341 48.254 27.274
H 60.51 46.007 30.424
H 61.04 46.88 29.299
H 62.752 50.101 27.841
H 58.072 53.127 23.068
H 60.093 53.59 25.836
H 59.57 52.185 26.077
H 62.289 48.784 29.566
H 62.798 49.116 30.957
H 57.002 43.728 24.857
H 62.892 42.56 28.458
H 57.5 42.386 24.35
H 58.379 46.281 25.132
H 57.976 47.746 25.142
H 61.424 45.494 24.571
H 60.056 45.313 23.936
H 62.092 52.854 25.288
H 59.811 49.149 28.682
H 58.443 49.745 28.959
H 63.889 46.489 27.554
H 64.784 46.912 26.402
H 60.349 44.877 26.389
H 61.114 44.489 27.643
H 60.199 42.626 26.617
H 61.512 41.87 26.717
H 58.001 42.606 26.709
H 58.305 44.089 26.592
H 61.607 51.156 30.506
H 60.101 51.23 30.326
H 65.158 49.619 25.555
H 57.934 50.449 25.892
H 59.243 49.681 25.849
H 59.373 51.989 28.26
H 57.96 51.994 27.704
H 61.625 47.515 23.702
H 61.838 48.953 24.142
H 57.293 47.728 29.129
H 60.844 40.963 24.828
H 59.402 41.43 24.925
H 57.751 44.791 30.355
H 58.846 44.86 29.305
H 60.519 51.842 23.188
H 60.311 50.907 24.367
H 56.334 50.327 27.4
H 56.476 48.815 27.399
H 55.844 50.188 25.258
H 55.79 48.976 24.344
H 58.544 48.75 22.97
H 59.671 48.494 23.955
