27
xyz format
O 61.531 64.618 56.662
O 65.032 58.193 53.772
O 61.631 61.417 54.456
O 61.228 59.219 53.159
O 60.537 63.447 55.094
O 59.135 57.985 54.928
O 64.807 59.715 55.941
O 62.963 61.964 56.456
H 62.735 65.85 55.294
H 64.888 60.489 55.369
H 64.124 59.185 55.512
H 59.449 57.375 54.248
H 59.835 58.648 54.982
H 63.394 61.494 57.181
H 63.614 62.626 56.193
H 59.947 63.094 54.416
H 61.356 63.625 54.615
H 60.443 58.946 52.669
H 61.831 58.471 53.063
H 65.39 55.715 53.511
H 62.583 61.272 54.402
H 61.363 61.528 53.535
H 59.181 61.305 53.363
H 62.094 64.337 57.394
H 65.502 58.1 52.934
H 64.102 58.194 53.514
H 61.074 59.732 56.449
