53
xyz format
O 51.588 31.083 47.566
O 46.422 21.704 45.745
O 49.805 28.0 47.394
O 50.526 21.845 51.272
O 51.808 28.999 46.82
O 49.573 23.219 44.03
O 52.252 26.546 47.882
O 46.899 27.467 43.896
O 51.592 21.91 48.687
O 49.399 30.812 46.976
O 49.364 22.466 47.364
O 45.389 24.214 46.521
O 52.97 23.888 49.165
O 47.533 29.619 44.772
O 48.361 21.726 49.178
O 47.02 23.857 43.015
O 49.208 24.979 48.276
O 48.103 25.227 44.433
O 46.704 23.572 48.165
H 49.946 24.844 47.668
H 48.46 25.156 47.693
H 49.836 30.31 46.277
H 49.249 31.678 46.577
H 48.708 23.078 47.008
H 49.919 22.256 46.603
H 51.429 26.447 47.387
H 47.868 21.221 49.837
H 48.961 22.267 49.706
H 48.044 29.348 43.999
H 48.046 29.282 45.516
H 50.397 23.651 44.288
H 49.044 23.235 44.837
H 48.352 25.421 45.345
H 48.901 25.431 43.929
H 52.035 28.241 46.267
H 52.585 29.114 47.381
H 50.587 26.26 49.429
H 49.843 21.174 51.4
H 51.226 21.373 50.803
H 49.129 22.927 52.646
H 49.275 27.194 47.43
H 50.907 21.291 48.403
H 51.447 22.684 48.129
H 46.66 22.61 48.098
H 46.879 23.728 49.101
H 47.448 27.333 44.679
H 46.897 23.468 43.89
H 51.169 30.556 48.257
H 46.537 23.261 42.429
H 46.788 22.583 45.902
H 45.627 21.876 45.225
H 50.576 25.762 45.341
H 50.147 27.219 45.363
