22
xyz format
O 61.956 55.119 25.085
O 58.721 58.317 25.544
O 61.402 58.089 26.958
O 59.8 52.798 25.368
O 58.31 55.312 26.587
O 60.193 56.514 24.13
O 57.63 53.784 23.62
H 63.452 56.379 26.592
H 58.072 53.127 23.068
H 57.922 53.566 24.514
H 60.093 53.59 25.836
H 57.96 54.601 27.139
H 57.719 55.322 25.824
H 59.885 56.298 25.02
H 60.664 57.348 24.247
H 61.484 57.379 26.309
H 61.876 58.826 26.554
H 59.107 58.553 26.397
H 58.018 57.697 25.774
H 60.96 54.281 27.736
H 61.479 54.741 24.336
H 62.604 55.703 24.672
