45
xyz format
O 45.733 48.509 31.953
O 43.128 47.633 32.968
O 41.465 50.784 30.986
O 41.971 55.703 32.339
O 44.469 54.002 29.164
O 44.267 51.138 30.976
O 48.282 52.62 32.825
O 47.394 50.357 29.947
O 42.724 55.002 30.394
O 42.843 53.455 32.678
O 45.371 53.799 33.656
O 42.973 49.986 33.639
O 46.348 51.833 31.199
O 41.843 53.022 34.695
H 43.141 50.784 34.155
H 43.441 50.145 32.81
H 43.45 54.072 32.251
H 42.234 53.207 31.971
H 45.49 50.214 33.639
H 43.471 54.553 34.484
H 45.181 52.905 33.346
H 45.892 54.185 32.94
H 41.815 54.677 30.39
H 42.686 55.798 29.85
H 44.201 51.511 30.088
H 44.008 51.868 31.552
H 47.557 52.831 33.426
H 45.204 47.131 34.858
H 44.719 54.05 30.095
H 43.684 53.44 29.165
H 40.927 52.874 29.366
H 45.839 52.344 28.696
H 42.414 55.966 33.156
H 41.198 55.213 32.645
H 42.06 51.432 30.587
H 42.026 50.01 31.12
H 46.015 52.735 31.29
H 46.391 51.511 32.108
H 46.897 49.637 29.538
H 47.823 49.939 30.703
H 42.982 48.102 32.137
H 42.252 47.607 33.373
H 48.41 48.755 32.888
H 45.723 49.277 31.369
H 46.085 47.803 31.397
