96
xyz format
O 55.282 69.903 61.529
O 57.005 69.809 55.479
O 55.71 72.65 54.97
O 57.043 72.786 59.531
O 59.878 66.912 54.031
O 56.736 71.876 56.756
O 57.782 65.822 55.598
O 54.899 66.253 56.186
O 59.658 68.709 55.633
O 54.567 68.535 53.18
O 61.419 67.367 51.856
O 59.578 73.123 56.951
O 53.481 67.473 57.748
O 51.532 69.267 56.597
O 52.438 69.578 54.231
O 57.823 72.214 52.872
O 57.288 67.433 57.747
O 52.492 64.562 57.905
O 56.574 72.226 51.034
O 56.04 65.471 60.968
O 58.02 64.553 53.514
O 62.023 66.342 54.868
O 55.027 69.354 50.173
O 58.978 69.657 53.142
O 58.993 65.84 58.401
O 56.94 69.882 51.128
O 55.129 70.258 57.088
O 56.236 63.753 58.922
O 57.065 70.114 59.193
O 56.036 67.297 59.66
H 56.986 66.541 57.532
H 57.627 67.769 56.908
H 58.367 65.156 58.667
H 58.082 70.935 48.7
H 58.881 69.698 48.33
H 58.844 68.798 53.562
H 59.938 69.75 53.111
H 57.331 70.644 59.954
H 56.149 70.377 59.04
H 54.08 72.405 52.63
H 53.406 70.897 59.002
H 53.801 71.796 60.16
H 54.176 69.699 49.875
H 55.593 69.437 49.395
H 61.715 66.944 55.558
H 58.654 64.099 52.945
H 57.326 64.834 52.905
H 56.552 65.032 61.658
H 55.399 66.0 61.459
H 56.004 72.764 51.597
H 56.973 72.866 50.432
H 59.754 66.913 50.49
H 59.589 65.465 50.92
H 58.469 72.125 53.583
H 57.28 71.42 52.955
H 54.836 71.794 49.756
H 53.215 64.64 58.54
H 51.841 65.201 58.22
H 53.795 73.528 58.405
H 56.792 68.977 51.429
H 57.886 70.018 51.266
H 52.193 69.939 56.391
H 51.852 68.481 56.136
H 58.746 72.731 57.243
H 59.317 73.988 56.611
H 52.874 66.896 57.268
H 53.805 68.079 57.07
H 61.342 66.589 52.422
H 61.244 68.105 52.453
H 60.054 68.658 56.512
H 59.906 69.587 55.32
H 54.836 65.455 55.646
H 55.532 68.494 53.166
H 54.377 69.479 53.121
H 54.893 65.919 57.091
H 56.082 64.646 58.592
H 57.176 71.188 57.271
H 56.487 72.534 57.416
H 59.207 66.633 53.396
H 59.763 66.3 54.769
H 56.912 66.12 55.304
H 57.594 65.007 56.079
H 55.59 72.083 54.198
H 56.029 73.481 54.597
H 57.814 70.315 55.336
H 56.935 69.259 54.69
H 52.024 71.688 54.9
H 52.542 70.306 51.698
H 51.13 68.268 58.517
H 54.654 70.267 56.248
H 55.566 69.397 57.094
H 56.6 73.596 59.813
H 57.911 72.841 59.95
H 55.319 66.847 59.196
H 55.983 68.206 59.338
H 55.43 70.853 61.437
