38
xyz format
O 69.971 57.602 40.999
O 68.519 57.296 37.386
O 69.707 53.004 35.096
O 70.973 55.472 36.151
O 70.575 57.224 38.166
O 65.48 57.043 37.414
O 67.723 55.17 34.685
O 71.728 55.394 33.185
O 67.743 50.348 36.169
O 68.599 50.251 38.54
O 70.683 50.986 36.535
O 72.557 53.274 33.777
O 73.177 56.067 37.247
O 66.557 54.01 37.138
H 67.394 50.84 35.415
H 68.439 49.801 35.783
H 69.922 51.233 37.075
H 71.44 51.267 37.063
H 65.161 57.173 36.512
H 66.366 56.679 37.294
H 71.416 56.249 32.863
H 72.142 54.995 32.409
H 71.432 56.273 35.869
H 71.667 54.801 36.155
H 70.226 53.454 38.504
H 70.997 57.73 37.461
H 70.809 57.708 38.967
H 67.32 54.294 37.655
H 66.237 53.23 37.61
H 67.026 55.137 34.018
H 67.313 55.642 35.421
H 72.867 52.895 34.609
H 71.621 53.04 33.753
H 69.295 53.033 35.969
H 69.993 53.913 34.947
H 68.707 56.957 36.502
H 70.383 57.661 41.87
H 69.028 57.54 41.195
