83
xyz format
O 38.108 54.297 27.379
O 47.015 56.218 24.12
O 38.092 51.296 27.954
O 43.681 50.692 23.486
O 45.616 58.072 22.814
O 42.253 57.387 25.26
O 40.502 58.425 30.405
O 42.652 54.309 27.015
O 38.927 54.71 24.712
O 42.196 50.038 26.32
O 44.429 56.073 26.017
O 43.851 58.259 29.088
O 41.344 52.15 24.261
O 41.784 54.903 23.623
O 40.068 52.462 29.522
O 40.437 55.974 29.266
O 42.724 55.002 30.394
O 44.749 49.803 27.586
O 39.988 57.619 27.493
O 44.893 51.368 25.879
O 45.152 54.968 22.919
O 40.098 53.051 26.619
O 40.338 50.895 27.642
O 46.627 52.684 24.989
O 38.084 50.946 24.48
O 46.74 54.581 27.217
O 38.956 49.056 28.378
O 42.38 58.904 26.848
H 39.143 49.712 29.062
H 44.395 50.602 25.565
H 44.211 52.029 26.053
H 39.138 57.662 27.947
H 40.625 57.873 28.172
H 44.026 49.252 27.262
H 42.256 54.185 23.183
H 41.946 54.743 24.561
H 44.762 54.875 22.041
H 45.595 54.123 23.064
H 47.158 55.091 26.512
H 41.815 54.677 30.39
H 42.686 55.798 29.85
H 37.815 50.019 24.498
H 38.41 51.108 25.374
H 39.533 55.687 29.088
H 40.941 55.62 28.522
H 42.104 53.933 27.715
H 43.254 54.898 27.486
H 42.046 49.363 25.647
H 42.225 50.861 25.816
H 39.01 54.873 23.764
H 39.46 53.211 29.567
H 39.769 55.017 25.072
H 43.388 57.548 28.627
H 44.327 58.717 28.384
H 45.092 56.417 25.406
H 43.723 55.76 25.438
H 40.927 52.874 29.366
H 40.379 52.144 24.238
H 41.596 52.059 23.333
H 41.646 56.983 24.627
H 42.913 57.817 24.701
H 46.911 51.768 25.101
H 47.33 53.195 25.408
H 39.584 58.228 30.182
H 40.84 57.588 30.746
H 45.65 58.069 23.779
H 44.87 57.494 22.61
H 43.104 50.045 23.062
H 44.196 51.055 22.754
H 40.813 53.337 26.036
H 39.334 52.992 26.033
H 41.719 59.3 26.266
H 42.427 59.517 27.592
H 40.173 50.819 26.693
H 41.155 51.406 27.693
H 37.913 52.106 27.46
H 37.536 50.636 27.522
H 47.109 55.279 24.321
H 47.533 56.652 24.81
H 39.694 48.928 23.872
H 39.471 55.637 31.293
H 38.89 54.823 27.17
H 37.377 54.828 27.039
