30
xyz format
O 49.235 60.47 57.866
O 51.694 59.22 57.721
O 52.85 63.112 63.59
O 47.926 61.005 61.121
O 52.149 60.996 55.772
O 53.335 59.822 59.477
O 52.648 62.02 61.581
O 47.15 59.032 58.231
O 54.031 61.468 65.908
O 50.522 60.756 60.53
H 52.824 59.013 59.601
H 53.859 59.644 58.686
H 52.619 61.279 60.963
H 52.599 62.796 61.009
H 46.957 59.579 59.002
H 53.116 61.725 65.74
H 54.534 62.268 65.71
H 52.881 63.885 66.875
H 55.109 61.054 59.9
H 48.487 60.222 61.173
H 47.885 61.196 60.175
H 52.764 60.913 56.512
H 50.836 58.953 57.369
H 51.519 60.08 58.123
H 48.838 61.286 58.194
H 49.155 59.86 58.61
H 53.454 63.496 64.238
H 52.442 63.882 63.174
H 50.577 61.345 59.767
H 50.717 59.885 60.162
