34
xyz format
O 55.757 39.152 67.204
O 59.913 34.417 65.395
O 55.207 36.551 65.795
O 62.869 34.55 68.12
O 56.145 35.469 68.343
O 62.04 34.867 65.062
O 57.834 39.373 65.035
O 61.007 36.409 67.457
O 53.773 38.205 67.29
O 58.55 37.607 67.065
O 61.113 32.967 68.549
O 56.777 34.943 65.455
H 53.964 37.579 67.999
H 57.957 37.187 67.701
H 59.057 38.229 67.601
H 60.416 36.074 66.772
H 61.335 37.24 67.091
H 62.05 35.534 64.365
H 62.086 34.031 64.58
H 63.387 32.807 66.666
H 56.033 36.416 68.494
H 56.957 35.255 68.819
H 55.885 37.096 66.214
H 54.988 35.897 66.47
H 61.112 32.281 67.87
H 60.423 33.577 68.26
H 62.227 34.534 67.4
H 53.013 36.68 65.899
H 57.332 35.717 65.296
H 56.898 34.764 66.396
H 59.073 34.445 65.871
H 60.005 33.488 65.149
H 55.803 39.296 66.25
H 56.669 38.954 67.45
