48
xyz format
O 59.509 53.567 70.493
O 58.796 59.374 64.961
O 64.423 56.929 66.829
O 56.871 54.921 68.371
O 59.315 59.568 71.552
O 56.347 56.773 69.443
O 58.954 55.719 71.991
O 59.051 56.579 63.042
O 62.059 55.315 65.918
O 61.329 57.219 66.991
O 59.26 56.624 70.009
O 58.291 55.897 65.975
O 54.29 59.603 71.774
O 57.144 58.857 72.231
O 59.477 54.624 67.64
O 62.105 55.706 69.222
O 58.454 57.81 67.415
H 53.972 60.508 71.883
H 54.331 59.265 72.677
H 62.719 56.111 68.596
H 61.247 55.79 68.788
H 57.063 55.246 63.993
H 59.461 57.353 69.409
H 59.131 55.871 69.42
H 59.214 56.161 66.07
H 57.892 56.63 65.489
H 61.466 58.1 67.362
H 61.037 57.394 66.088
H 57.531 57.983 72.369
H 56.279 58.667 71.848
H 59.201 56.028 63.82
H 58.645 57.378 63.401
H 58.123 55.784 72.478
H 62.814 55.358 66.518
H 61.335 55.016 66.482
H 56.608 57.143 70.296
H 57.545 57.758 67.735
H 58.774 58.649 67.769
H 59.174 58.723 71.107
H 58.654 60.149 71.156
H 57.481 55.567 67.994
H 57.453 54.248 68.745
H 63.928 57.532 67.396
H 59.286 54.093 66.857
H 59.66 53.968 68.323
H 58.999 58.527 65.378
H 59.295 59.347 64.135
H 60.101 54.01 71.115
