31
xyz format
O 41.949 71.846 45.23
O 43.758 73.963 38.954
O 40.594 75.02 44.73
O 41.988 74.705 42.66
O 45.906 77.328 42.59
O 43.908 72.08 41.848
O 43.992 75.074 41.265
O 44.975 72.911 43.91
O 41.782 73.087 39.81
O 41.381 71.369 42.682
O 46.713 74.289 41.021
H 43.08 72.324 41.417
H 44.567 72.175 41.149
H 44.852 73.066 46.104
H 45.428 73.171 43.099
H 44.248 73.543 43.979
H 45.987 76.821 41.772
H 43.991 75.847 41.844
H 44.01 74.329 41.879
H 42.081 73.855 43.108
H 41.334 74.531 41.971
H 41.393 75.547 44.608
H 40.767 71.632 43.379
H 42.185 71.135 43.161
H 45.999 74.634 40.471
H 47.303 75.045 41.132
H 41.738 74.05 39.86
H 44.621 74.24 38.623
H 43.844 73.006 39.047
H 41.459 72.302 45.926
H 42.481 72.545 44.829
