31
xyz format
O 36.431 65.411 42.414
O 38.605 65.223 44.081
O 36.648 67.56 41.388
O 35.206 61.71 44.431
O 34.706 64.629 41.292
O 35.843 64.144 45.28
O 34.303 62.494 41.642
O 38.169 64.465 40.819
O 39.413 66.158 35.805
O 39.213 66.005 38.559
H 38.772 66.554 39.22
H 39.05 65.104 38.864
H 38.785 66.494 36.458
H 36.488 66.658 44.875
H 33.749 61.978 41.043
H 33.671 62.903 42.245
H 37.64 65.231 40.564
H 38.902 64.849 41.317
H 35.113 64.064 44.653
H 36.63 64.103 44.723
H 36.876 63.692 39.19
H 36.763 65.065 38.551
H 34.093 65.179 40.788
H 35.244 64.204 40.613
H 36.023 61.91 44.905
H 37.524 67.215 41.601
H 38.182 65.963 43.628
H 39.364 65.017 43.522
H 40.942 67.08 37.713
H 36.674 64.478 42.437
H 35.786 65.498 43.127
