22
xyz format
O 70.478 65.422 59.228
O 72.649 63.494 60.053
O 70.076 67.526 58.252
O 71.422 63.771 56.513
O 70.297 61.437 59.632
O 73.324 65.471 56.738
O 70.246 65.83 56.323
O 73.03 60.867 61.177
H 70.459 65.447 55.463
H 70.636 66.712 56.285
H 72.156 63.24 56.181
H 71.217 63.37 57.367
H 70.811 68.069 58.563
H 69.534 67.4 59.04
H 72.543 65.938 57.062
H 73.416 64.728 57.348
H 72.673 64.135 59.332
H 73.088 62.717 59.685
H 70.542 61.183 58.734
H 70.987 62.061 59.89
H 71.228 66.0 59.414
H 70.3 64.997 60.077
