50
xyz format
O 29.194 43.419 62.652
O 28.95 36.009 59.347
O 30.368 38.434 58.002
O 30.252 41.001 61.495
O 26.565 39.48 61.241
O 25.907 42.907 64.135
O 29.915 38.172 61.749
O 25.713 41.786 60.598
O 33.341 39.729 62.026
O 28.158 36.581 61.319
O 28.559 39.59 60.319
O 29.986 41.428 58.399
O 32.819 40.019 59.355
O 26.32 37.055 60.013
O 27.734 41.323 57.598
O 28.559 37.394 64.127
O 31.383 42.308 56.561
H 26.181 37.735 59.341
H 26.786 36.356 59.539
H 32.695 40.39 58.473
H 31.938 39.708 59.599
H 33.431 39.131 61.274
H 33.114 40.575 61.62
H 28.421 39.351 59.394
H 28.292 40.517 60.358
H 32.07 42.126 57.214
H 29.451 37.754 64.05
H 28.676 36.451 63.952
H 30.473 42.192 58.732
H 30.079 40.773 59.101
H 27.153 40.84 56.997
H 28.315 41.817 57.007
H 27.713 37.177 61.934
H 28.388 35.819 61.865
H 26.446 41.846 59.973
H 26.148 41.757 61.459
H 29.994 39.205 57.558
H 31.068 38.142 57.405
H 28.913 44.214 62.181
H 28.363 42.995 62.902
H 29.162 36.782 58.81
H 29.837 38.983 62.267
H 30.344 38.461 60.934
H 25.478 43.514 63.519
H 25.986 42.087 63.633
H 26.042 38.697 61.452
H 26.88 39.784 62.101
H 31.751 40.03 56.504
H 31.055 41.279 61.954
H 29.541 41.323 62.064
