35
xyz format
Na 46.336 56.344 34.969
O 45.023 54.088 36.793
O 44.851 52.129 39.126
O 48.924 50.386 40.746
O 46.576 56.266 38.022
O 41.915 55.924 36.92
O 40.535 57.907 37.278
O 46.923 54.191 35.632
O 40.455 55.642 38.693
O 43.822 55.229 35.077
O 47.91 51.668 39.049
O 43.431 54.516 38.25
O 47.215 54.53 39.914
H 41.26 56.066 39.016
H 47.59 54.415 34.97
H 46.692 53.277 35.423
H 42.414 56.625 36.483
H 42.009 55.17 36.325
H 40.753 58.258 36.405
H 40.057 57.091 37.085
H 47.494 51.871 39.896
H 48.536 52.391 38.921
H 45.99 55.892 38.693
H 49.862 50.579 40.627
H 48.836 50.254 41.698
H 48.746 55.252 36.686
H 47.853 51.308 36.61
H 46.869 54.091 40.701
H 48.17 54.41 39.984
H 42.647 54.285 38.764
H 43.509 55.471 38.366
H 44.456 52.035 38.25
H 44.765 53.072 39.316
H 45.669 53.765 37.434
H 45.086 55.048 36.869
