35
xyz format
O 31.491 59.184 57.652
O 37.775 60.29 59.145
O 33.878 56.475 59.72
O 31.427 60.912 59.062
O 36.04 57.475 57.67
O 32.843 62.11 56.765
O 36.959 55.005 57.413
O 34.107 60.949 58.473
O 35.656 53.484 58.677
O 34.279 58.0 56.305
O 37.492 54.612 60.328
H 38.003 54.412 59.534
H 36.734 55.108 59.993
H 35.791 62.417 59.176
H 34.222 58.802 56.839
H 33.928 57.313 56.884
H 36.375 55.472 56.802
H 37.454 55.713 57.843
H 34.231 59.196 59.797
H 33.281 61.758 55.981
H 32.153 62.682 56.405
H 38.211 52.492 60.845
H 36.382 58.188 58.224
H 35.6 56.889 58.297
H 35.712 55.372 62.079
H 31.148 61.79 58.776
H 31.902 61.078 59.885
H 33.149 55.999 60.135
H 34.18 57.08 60.409
H 35.99 53.102 59.499
H 35.028 54.154 58.974
H 33.723 61.786 58.762
H 34.669 61.199 57.728
H 31.708 59.743 56.896
H 36.591 59.928 56.595
