53
xyz format
O 36.431 65.411 42.414
O 39.117 70.614 42.097
O 34.964 69.177 43.22
O 41.949 71.846 45.23
O 41.578 68.754 43.816
O 39.268 67.762 44.279
O 38.605 65.223 44.081
O 41.36 64.47 42.569
O 36.648 67.56 41.388
O 37.697 70.486 44.696
O 34.706 64.629 41.292
O 34.303 62.494 41.642
O 38.169 64.465 40.819
O 36.061 67.482 45.142
O 40.496 68.562 45.922
O 39.213 66.005 38.559
O 41.381 71.369 42.682
H 38.772 66.554 39.22
H 39.05 65.104 38.864
H 37.515 73.312 43.747
H 38.678 72.442 43.304
H 42.302 69.994 41.128
H 36.488 66.658 44.875
H 36.498 68.152 44.602
H 33.671 62.903 42.245
H 37.64 65.231 40.564
H 38.902 64.849 41.317
H 42.496 66.034 43.763
H 39.252 72.947 45.368
H 39.446 71.46 45.607
H 44.455 69.756 43.411
H 34.093 65.179 40.788
H 35.244 64.204 40.613
H 40.767 71.632 43.379
H 42.185 71.135 43.161
H 36.961 70.202 45.253
H 38.329 69.76 44.763
H 40.945 64.153 41.756
H 42.299 64.294 42.43
H 37.524 67.215 41.601
H 36.205 67.605 42.245
H 39.726 62.388 41.27
H 38.182 65.963 43.628
H 39.364 65.017 43.522
H 34.373 68.687 43.805
H 35.35 69.85 43.795
H 39.515 71.261 41.501
H 42.08 68.207 43.199
H 41.003 69.276 43.244
H 39.099 68.189 43.43
H 40.04 67.209 44.108
H 36.674 64.478 42.437
H 35.786 65.498 43.127
