27
xyz format
O 42.509 44.712 31.816
O 44.636 45.743 30.719
O 43.966 42.991 35.457
O 44.294 43.052 29.815
O 41.846 41.941 31.692
O 42.205 43.697 34.264
O 46.963 45.185 32.225
O 44.806 43.652 32.61
O 42.65 40.602 34.256
H 47.0 43.21 33.517
H 46.405 44.749 31.569
H 44.993 45.627 34.845
H 43.073 41.431 34.0
H 45.014 43.04 31.893
H 44.538 43.074 33.335
H 44.521 43.712 29.147
H 41.967 43.302 33.416
H 42.759 41.648 31.801
H 41.511 41.387 30.976
H 42.733 44.467 34.018
H 43.706 43.789 35.935
H 40.581 40.135 33.16
H 43.838 46.062 30.279
H 44.533 46.048 31.63
H 46.541 44.558 29.38
H 41.867 45.079 31.196
H 43.002 44.074 31.285
