59
xyz format
O 41.066 44.348 67.211
O 41.814 46.814 68.166
O 40.079 48.43 70.027
O 44.69 45.659 69.211
O 40.764 50.231 68.466
O 43.274 49.346 66.01
O 36.8 43.442 66.413
O 38.212 46.403 67.42
O 42.721 45.412 66.232
O 37.791 47.788 64.487
O 41.008 43.753 65.09
O 42.871 48.179 72.138
O 46.216 45.517 66.637
O 38.245 44.847 65.382
O 37.94 49.073 67.089
O 41.594 51.597 66.938
O 40.805 46.606 71.031
O 41.943 42.159 66.751
O 40.244 46.565 66.366
H 43.33 47.334 72.046
H 42.494 48.331 71.263
H 41.024 43.678 69.851
H 38.008 44.174 64.731
H 38.236 45.669 64.876
H 40.173 43.823 64.61
H 41.581 43.269 64.482
H 42.309 42.538 67.56
H 41.1 41.785 67.034
H 44.421 44.038 65.995
H 44.869 45.054 64.958
H 46.648 45.261 67.461
H 45.376 45.896 66.926
H 43.818 49.004 68.115
H 41.188 51.759 66.077
H 41.473 45.916 70.939
H 38.707 48.538 67.324
H 37.394 49.054 67.884
H 38.415 50.12 65.21
H 39.885 50.056 65.583
H 38.415 48.306 63.963
H 43.285 46.192 66.309
H 42.561 45.339 65.282
H 43.066 50.469 69.777
H 38.897 46.186 68.064
H 37.403 46.427 67.946
H 40.153 47.475 66.059
H 40.303 46.052 65.55
H 37.408 42.733 66.657
H 42.46 48.87 65.8
H 39.648 46.477 63.022
H 40.451 47.46 63.857
H 41.372 49.514 68.247
H 40.098 50.188 67.769
H 40.17 44.339 67.57
H 41.609 44.628 67.959
H 42.432 46.919 68.9
H 42.046 47.534 67.566
H 44.733 46.602 69.01
H 43.961 45.34 68.664
