31
xyz format
O 42.098 48.166 37.965
O 44.16 44.06 38.098
O 40.196 51.677 39.231
O 38.604 51.744 41.346
O 44.581 47.833 40.163
O 42.39 45.371 38.656
O 45.346 46.34 35.392
O 45.069 46.488 38.492
O 41.215 52.032 41.657
O 41.935 47.489 35.878
O 42.779 49.169 40.93
H 38.848 51.921 42.263
H 39.907 46.938 39.678
H 40.031 47.803 40.92
H 44.206 46.609 38.076
H 45.694 46.632 37.771
H 41.758 46.071 38.864
H 42.969 45.348 39.428
H 41.826 49.069 41.047
H 42.932 50.109 41.083
H 45.332 48.37 40.446
H 44.185 48.349 39.45
H 39.244 49.774 39.792
H 42.06 52.126 41.201
H 40.625 52.623 41.173
H 40.996 51.149 39.344
H 45.582 44.88 40.028
H 41.792 46.543 35.751
H 45.04 44.041 37.703
H 41.849 48.299 38.888
H 42.788 48.825 37.817
