41
xyz format
Na 41.179 68.089 69.505
O 46.791 61.308 68.338
O 46.842 66.009 72.567
O 43.906 67.948 71.448
O 45.067 66.077 70.416
O 42.543 66.263 68.848
O 45.332 62.126 71.237
O 47.057 65.904 68.424
O 46.702 68.89 70.75
O 48.427 64.65 73.258
O 44.738 63.208 68.548
O 46.993 63.383 71.966
O 44.667 66.524 67.253
O 48.404 63.435 69.29
H 42.893 63.671 70.682
H 44.438 64.102 68.757
H 44.242 62.979 67.753
H 47.447 66.6 67.881
H 47.816 65.51 68.873
H 46.302 64.028 71.767
H 48.042 64.038 73.897
H 49.366 64.425 73.261
H 47.336 68.474 70.153
H 47.726 63.65 71.397
H 47.178 68.943 71.589
H 41.534 66.713 71.697
H 44.472 62.122 70.798
H 45.112 62.221 72.172
H 42.309 66.75 68.048
H 47.217 66.856 72.295
H 45.891 66.134 72.456
H 44.357 65.653 70.913
H 45.624 65.339 70.136
H 45.516 66.237 66.892
H 44.914 67.107 67.981
H 46.461 61.494 67.45
H 46.198 60.619 68.663
H 43.805 68.34 70.571
H 44.862 67.929 71.581
H 47.556 63.321 68.843
H 49.006 63.688 68.579
