30
xyz format
O 45.9 31.848 71.012
O 44.277 36.009 68.583
O 40.527 28.843 66.644
O 41.849 31.027 69.365
O 40.476 33.058 70.207
O 47.896 34.388 72.314
O 47.963 30.795 69.007
O 45.988 33.491 68.871
O 44.227 31.157 68.262
H 41.142 30.513 68.956
H 41.808 31.877 68.909
H 41.17 33.624 70.566
H 40.576 32.233 70.698
H 39.908 29.566 66.807
H 41.209 28.969 67.316
H 46.189 32.325 71.8
H 46.678 31.859 70.44
H 46.755 28.592 66.925
H 47.241 30.174 68.85
H 47.913 31.399 68.255
H 48.59 34.673 72.922
H 47.285 33.897 72.878
H 44.381 35.112 68.241
H 43.726 35.893 69.367
H 45.761 36.165 71.205
H 43.94 34.942 71.371
H 45.897 32.649 68.407
H 46.329 34.09 68.195
H 43.63 30.419 68.086
H 44.152 31.289 69.216
