47
xyz format
O 39.522 44.361 34.858
O 37.329 43.272 36.635
O 36.424 39.783 33.249
O 37.747 40.213 34.957
O 40.644 44.475 37.494
O 35.692 41.76 34.177
O 36.405 46.299 37.519
O 35.244 44.44 37.319
O 40.838 40.131 41.614
O 40.324 42.635 36.016
O 38.251 41.413 37.661
O 36.516 44.034 34.174
O 38.04 44.595 39.198
O 39.52 41.949 40.861
O 40.346 41.032 38.222
O 40.099 40.717 33.761
O 41.915 43.483 39.942
H 38.939 44.363 39.461
H 37.713 43.796 38.768
H 40.529 41.777 38.809
H 40.191 40.296 38.827
H 38.213 40.449 37.7
H 37.475 41.694 38.161
H 39.548 42.905 40.992
H 42.361 41.65 37.594
H 35.723 44.247 34.681
H 40.574 41.721 35.834
H 39.373 42.586 36.174
H 41.197 40.45 40.777
H 39.691 41.366 33.174
H 34.913 43.577 37.04
H 37.092 45.621 37.498
H 35.667 41.239 34.99
H 36.634 41.845 33.988
H 39.768 44.549 37.095
H 41.243 44.502 36.738
H 41.733 42.664 40.42
H 41.048 43.756 39.617
H 38.388 40.667 35.518
H 37.176 39.754 35.585
H 36.036 39.422 37.781
H 35.35 40.742 37.476
H 37.16 42.566 35.999
H 37.606 44.015 36.085
H 39.076 45.038 34.334
H 39.977 43.824 34.197
H 41.459 45.215 41.249
