23
xyz format
O 73.702 51.787 42.779
O 71.488 52.678 41.931
O 75.769 51.269 43.95
O 73.251 53.982 43.039
O 76.504 56.359 40.716
O 76.744 54.034 43.285
O 74.704 55.139 41.297
O 76.871 52.568 39.797
H 74.553 55.919 41.845
H 74.166 55.302 40.512
H 75.8 54.094 43.094
H 76.777 53.912 44.242
H 73.58 54.732 43.551
H 72.865 54.392 42.255
H 76.9 56.124 41.565
H 76.568 55.545 40.2
H 76.311 51.716 43.288
H 75.245 51.981 44.336
H 71.504 52.297 42.818
H 73.659 51.524 41.852
H 73.275 51.058 43.245
H 72.626 56.932 41.526
H 76.627 53.345 40.316
