60
xyz format
O 71.279 56.117 59.229
O 70.947 50.65 59.738
O 70.082 54.827 62.669
O 73.432 53.05 59.428
O 71.0 53.484 60.153
O 71.535 55.489 64.188
O 72.95 56.414 62.771
O 72.411 52.339 63.983
O 69.161 52.654 63.008
O 67.82 55.291 60.46
O 71.85 55.05 56.796
O 68.628 50.902 61.299
O 68.523 55.167 58.358
O 70.507 57.39 55.906
O 72.137 58.897 57.441
O 69.991 57.299 61.878
O 74.251 59.744 57.75
O 74.303 54.582 63.514
O 74.053 56.966 60.125
H 74.4 58.791 57.712
H 73.758 59.867 58.571
H 74.211 57.164 59.193
H 74.827 54.617 58.679
H 74.718 57.492 60.587
H 70.449 56.87 61.144
H 69.26 57.764 61.452
H 71.336 58.417 57.684
H 72.117 58.902 56.476
H 68.396 55.824 57.662
H 69.213 54.591 58.007
H 70.252 56.608 56.411
H 71.012 57.031 55.165
H 67.706 53.109 60.213
H 69.046 51.4 60.586
H 71.213 54.634 56.201
H 72.351 55.639 56.219
H 67.216 55.298 61.214
H 69.472 54.975 61.935
H 69.505 54.782 63.441
H 68.119 56.207 60.398
H 68.326 52.746 62.532
H 69.812 52.525 62.307
H 72.422 56.343 61.966
H 73.459 57.223 62.641
H 72.973 51.768 63.445
H 71.763 52.681 63.354
H 70.042 53.4 60.241
H 71.306 53.576 61.063
H 71.866 54.828 64.808
H 70.887 55.984 64.705
H 73.319 53.762 60.07
H 73.384 52.248 59.964
H 70.601 56.477 58.644
H 71.976 56.785 59.21
H 70.958 49.858 59.188
H 71.469 51.287 59.235
H 72.713 51.77 57.485
H 71.674 52.878 57.491
H 74.686 55.38 63.897
H 74.946 54.318 62.844
