28
xyz format
O 41.066 44.348 67.211
O 41.814 46.814 68.166
O 38.212 46.403 67.42
O 42.721 45.412 66.232
O 41.008 43.753 65.09
O 41.55 43.194 70.5
O 38.245 44.847 65.382
O 41.943 42.159 66.751
O 40.244 46.565 66.366
H 41.024 43.678 69.851
H 38.008 44.174 64.731
H 38.236 45.669 64.876
H 40.173 43.823 64.61
H 41.581 43.269 64.482
H 42.309 42.538 67.56
H 41.1 41.785 67.034
H 41.473 45.916 70.939
H 43.285 46.192 66.309
H 42.561 45.339 65.282
H 38.897 46.186 68.064
H 37.403 46.427 67.946
H 40.153 47.475 66.059
H 40.303 46.052 65.55
H 40.17 44.339 67.57
H 41.609 44.628 67.959
H 42.432 46.919 68.9
H 42.046 47.534 67.566
H 43.961 45.34 68.664
