48
xyz format
O 50.752 72.257 50.495
O 51.937 69.553 51.704
O 49.158 68.118 50.586
O 52.153 70.067 46.052
O 52.438 69.578 54.231
O 48.334 69.772 54.208
O 53.33 68.67 47.642
O 49.8 68.0 55.179
O 50.798 67.973 52.906
O 49.549 69.373 47.7
O 46.644 68.847 52.456
O 49.873 69.62 45.066
O 50.93 71.658 47.087
O 51.192 66.775 48.366
O 49.013 70.417 51.058
H 49.112 69.992 48.298
H 50.217 68.951 48.254
H 49.916 72.436 52.638
H 49.691 70.311 45.715
H 50.252 67.172 55.383
H 49.229 67.773 54.435
H 53.464 71.832 50.407
H 49.742 68.801 45.561
H 53.364 69.616 47.832
H 52.899 68.294 48.42
H 52.069 69.691 45.167
H 51.555 69.53 46.587
H 51.852 68.481 56.136
H 52.552 68.636 54.056
H 51.513 69.742 54.01
H 48.784 70.064 53.405
H 48.371 70.545 54.786
H 52.763 65.417 53.471
H 52.484 72.985 46.068
H 52.904 73.081 48.661
H 51.601 71.407 47.734
H 50.142 71.815 47.623
H 50.935 72.474 49.572
H 50.957 71.316 50.554
H 50.13 68.548 52.511
H 51.194 67.527 52.147
H 52.024 71.688 54.9
H 52.542 70.306 51.698
H 51.909 69.275 50.78
H 48.715 68.416 49.781
H 50.077 68.005 50.313
H 48.192 69.965 51.288
H 48.72 71.282 50.748
