92
xyz format
O 51.025 49.636 71.163
O 47.517 49.802 77.261
O 46.774 49.983 71.37
O 51.219 52.43 70.538
O 55.974 50.296 69.876
O 47.068 55.584 75.391
O 54.745 47.562 72.214
O 49.298 56.784 75.844
O 43.743 50.273 77.163
O 53.87 53.66 68.672
O 51.126 56.387 77.589
O 53.887 51.634 67.558
O 52.723 54.884 75.119
O 52.347 55.403 73.0
O 52.045 49.715 73.938
O 49.968 48.301 76.975
O 43.889 52.92 77.026
O 46.858 53.389 72.654
O 45.254 50.635 75.202
O 48.644 51.879 74.636
O 53.821 50.34 72.797
O 50.783 51.519 76.896
O 55.106 54.612 70.907
O 46.948 48.523 73.007
O 48.947 49.484 73.465
O 46.904 52.403 76.822
O 54.572 51.969 70.214
O 50.516 53.01 74.369
O 53.678 52.437 73.681
O 54.531 48.37 75.912
O 44.902 53.694 74.853
O 52.977 50.092 77.192
H 46.521 49.057 73.689
H 50.09 51.203 76.303
H 51.475 51.827 76.296
H 54.539 50.737 72.289
H 53.283 49.899 72.128
H 54.436 55.2 70.535
H 47.931 52.021 74.001
H 48.544 52.609 75.26
H 53.592 52.949 74.495
H 53.645 53.106 72.985
H 47.273 53.004 71.872
H 47.334 54.219 72.781
H 44.537 52.277 76.713
H 50.118 53.175 73.505
H 51.406 52.703 74.157
H 43.505 52.498 77.805
H 54.752 51.773 67.964
H 54.238 52.482 70.96
H 53.808 51.454 69.928
H 54.086 44.884 77.694
H 54.109 45.854 76.526
H 51.768 50.587 73.63
H 51.545 49.106 73.381
H 49.599 55.493 70.149
H 49.136 47.996 76.592
H 50.641 47.842 76.457
H 52.857 55.181 76.028
H 51.785 54.661 75.086
H 46.493 52.761 77.619
H 46.547 52.954 76.114
H 51.68 54.719 72.863
H 52.259 55.969 72.223
H 44.493 52.47 72.319
H 54.093 54.561 68.406
H 53.216 53.783 69.372
H 45.594 56.554 72.155
H 51.593 50.26 70.694
H 50.145 50.026 71.087
H 50.735 55.813 78.259
H 50.563 57.172 77.601
H 44.269 49.477 77.306
H 42.942 50.114 77.677
H 49.685 56.001 75.434
H 47.225 56.125 76.175
H 46.35 56.042 74.936
H 55.874 49.9 70.751
H 50.464 52.513 71.135
H 51.946 52.831 71.031
H 47.891 49.825 78.15
H 48.266 50.015 76.691
H 46.103 50.895 74.824
H 44.683 50.527 74.431
H 54.242 48.051 76.776
H 49.573 47.308 74.544
H 53.208 50.869 77.715
H 52.804 49.412 77.855
H 49.415 48.874 72.882
H 49.613 50.149 73.683
H 44.953 52.762 74.608
H 45.521 54.124 74.249
