50
xyz format
O 50.429 46.887 61.906
O 52.244 43.936 64.191
O 50.58 46.217 65.016
O 54.103 44.89 60.293
O 54.146 46.555 63.835
O 50.409 44.516 61.86
O 50.197 49.745 63.746
O 54.503 48.568 61.921
O 50.44 45.634 58.702
O 52.312 48.899 61.152
O 53.504 47.74 59.259
O 55.395 46.924 60.065
O 56.832 46.309 62.245
O 53.187 49.53 64.323
O 55.489 44.035 61.792
O 49.132 50.328 60.552
H 54.436 47.605 61.924
H 54.675 48.784 60.996
H 57.466 45.708 62.655
H 56.299 46.62 62.988
H 54.701 44.182 62.33
H 56.194 43.929 62.443
H 52.718 49.741 61.392
H 51.523 49.157 60.66
H 48.188 48.174 61.965
H 49.672 44.386 61.25
H 51.161 44.682 61.278
H 52.845 43.186 61.339
H 50.77 46.533 58.577
H 51.241 45.097 58.725
H 57.311 48.677 62.668
H 52.539 47.736 59.247
H 53.737 48.498 58.708
H 49.564 50.11 63.115
H 50.865 49.33 63.186
H 53.475 48.705 63.913
H 53.184 46.524 63.759
H 54.396 45.632 63.962
H 53.531 44.898 59.516
H 53.746 45.593 60.849
H 53.833 50.178 64.013
H 49.938 50.655 60.972
H 49.362 49.429 60.285
H 51.461 46.596 65.125
H 50.693 45.575 64.304
H 52.396 44.498 63.421
H 51.159 47.028 61.29
H 49.683 46.669 61.333
H 55.34 46.422 59.242
H 56.345 47.008 60.219
