60
xyz format
O 45.733 48.509 31.953
O 43.128 47.633 32.968
O 41.465 50.784 30.986
O 42.041 49.464 28.779
O 41.037 47.328 30.485
O 44.469 54.002 29.164
O 46.113 50.098 34.367
O 44.267 51.138 30.976
O 47.394 50.357 29.947
O 42.724 55.002 30.394
O 42.843 53.455 32.678
O 45.371 53.799 33.656
O 44.749 49.803 27.586
O 44.893 51.368 25.879
O 45.648 52.248 27.755
O 46.627 52.684 24.989
O 42.973 49.986 33.639
O 46.348 51.833 31.199
O 41.843 53.022 34.695
H 44.211 52.029 26.053
H 43.141 50.784 34.155
H 43.441 50.145 32.81
H 44.026 49.252 27.262
H 44.518 49.966 28.509
H 48.272 48.931 27.349
H 46.929 49.641 27.338
H 43.45 54.072 32.251
H 45.915 49.214 34.7
H 42.234 53.207 31.971
H 45.49 50.214 33.639
H 43.471 54.553 34.484
H 45.181 52.905 33.346
H 45.892 54.185 32.94
H 44.201 51.511 30.088
H 44.008 51.868 31.552
H 47.557 52.831 33.426
H 45.204 47.131 34.858
H 40.903 47.07 31.405
H 41.992 47.256 30.363
H 44.719 54.05 30.095
H 43.684 53.44 29.165
H 42.712 48.795 28.966
H 41.261 49.143 29.248
H 46.911 51.768 25.101
H 46.424 51.79 27.409
H 45.839 52.344 28.696
H 41.867 45.079 31.196
H 47.368 49.932 36.188
H 42.06 51.432 30.587
H 42.026 50.01 31.12
H 46.015 52.735 31.29
H 46.391 51.511 32.108
H 46.897 49.637 29.538
H 47.823 49.939 30.703
H 42.982 48.102 32.137
H 42.252 47.607 33.373
H 43.898 56.461 31.578
H 39.782 49.003 31.163
H 45.723 49.277 31.369
H 46.085 47.803 31.397
