45
xyz format
O 24.435 52.12 58.149
O 26.051 54.568 53.65
O 27.03 56.027 62.615
O 25.241 53.742 62.868
O 25.706 51.594 60.107
O 24.667 54.222 59.785
O 23.41 55.128 53.207
O 27.974 52.504 62.194
O 23.237 53.586 54.766
O 26.615 54.378 57.226
O 26.198 57.436 59.973
O 27.778 54.359 59.092
O 22.733 55.279 57.197
O 26.679 52.413 55.351
O 24.417 57.124 57.337
O 27.274 56.449 55.15
O 27.133 58.615 57.404
H 26.901 55.283 57.048
H 25.663 54.404 57.07
H 27.748 55.321 59.153
H 27.525 54.065 59.976
H 27.156 57.344 59.901
H 26.034 58.346 59.698
H 22.332 55.241 56.319
H 22.679 54.368 57.512
H 23.885 54.065 55.297
H 23.368 52.664 55.021
H 23.905 57.597 58.004
H 24.81 56.391 57.828
H 24.413 54.434 58.878
H 23.836 54.274 60.274
H 25.971 52.427 59.696
H 26.298 50.944 59.709
H 27.259 53.169 55.504
H 26.016 52.488 56.049
H 27.235 57.712 57.73
H 27.773 59.119 57.922
H 24.615 53.493 62.177
H 26.083 53.811 62.401
H 25.833 54.781 54.566
H 25.67 53.69 53.522
H 26.523 55.882 61.806
H 27.827 55.499 62.483
H 23.808 52.42 57.479
H 23.876 51.915 58.909
