42
xyz format
O 40.501 62.894 63.585
O 42.041 62.691 62.027
O 39.899 60.189 68.296
O 43.318 58.978 68.133
O 41.727 60.218 65.82
O 42.291 57.22 66.609
O 40.328 58.319 65.298
O 43.627 58.729 63.446
O 40.68 60.52 63.249
O 37.689 60.247 64.995
O 38.789 62.81 65.645
O 35.661 60.035 66.811
O 43.674 60.899 63.094
O 34.723 62.614 67.073
O 38.013 59.058 66.887
H 43.225 60.715 62.26
H 43.01 58.21 63.978
H 38.817 58.546 67.044
H 37.822 59.454 67.747
H 35.113 59.276 66.571
H 35.69 60.0 67.775
H 40.094 60.579 64.014
H 41.552 60.379 63.638
H 41.845 56.68 65.945
H 42.428 58.065 66.163
H 38.447 61.684 62.721
H 36.376 60.877 63.258
H 39.486 58.643 64.953
H 40.875 58.217 64.51
H 35.631 62.322 66.924
H 39.379 58.815 62.761
H 38.038 59.528 62.755
H 41.348 61.094 65.967
H 42.594 60.27 66.241
H 40.859 60.162 68.399
H 39.775 60.497 67.389
H 38.614 62.358 64.81
H 38.738 62.105 66.303
H 37.063 60.892 65.348
H 37.144 59.468 64.825
H 40.457 62.746 67.769
H 41.269 62.762 64.155
