43
xyz format
O 48.699 60.73 73.193
O 47.068 55.584 75.391
O 49.298 56.784 75.844
O 51.126 56.387 77.589
O 45.791 57.047 72.962
O 50.248 60.15 67.523
O 46.598 60.076 71.351
O 45.717 58.465 74.663
O 51.398 61.435 71.409
O 44.781 57.993 70.55
O 48.396 59.365 76.241
O 51.159 60.212 73.222
O 54.29 59.603 71.774
O 49.121 61.069 69.859
H 53.972 60.508 71.883
H 48.877 59.887 76.895
H 47.538 59.212 76.656
H 51.476 59.531 73.829
H 50.865 60.921 73.807
H 52.008 62.149 71.633
H 51.93 60.841 70.865
H 43.423 59.548 74.108
H 45.549 58.013 75.5
H 45.977 59.355 74.932
H 45.841 60.001 71.945
H 47.193 59.377 71.648
H 50.401 59.529 68.246
H 50.229 61.011 67.959
H 44.471 58.295 71.413
H 45.739 58.102 70.6
H 46.754 57.029 73.012
H 45.594 56.554 72.155
H 50.735 55.813 78.259
H 50.563 57.172 77.601
H 49.458 61.794 70.4
H 48.72 60.471 70.502
H 49.021 57.324 75.092
H 49.685 56.001 75.434
H 47.225 56.125 76.175
H 46.35 56.042 74.936
H 48.302 61.289 72.514
H 49.035 59.972 72.698
H 46.198 60.619 68.663
