71
xyz format
O 33.676 67.464 34.202
O 31.745 65.226 35.258
O 36.051 66.287 35.211
O 33.571 60.472 32.065
O 32.508 60.595 30.112
O 36.922 62.85 34.472
O 33.615 62.512 33.947
O 36.849 64.13 38.33
O 29.415 64.564 38.189
O 32.022 63.804 38.5
O 36.772 61.67 37.716
O 35.277 59.994 30.358
O 34.412 62.958 30.545
O 35.041 64.222 34.011
O 35.254 60.288 36.134
O 31.361 60.244 34.288
O 33.747 62.702 36.677
O 31.295 58.776 31.78
O 31.129 63.323 33.11
O 35.423 61.272 34.117
O 29.251 62.415 35.392
O 35.321 64.73 36.865
O 31.325 60.57 36.467
O 33.79 61.374 38.43
H 34.764 60.575 34.009
H 35.759 61.41 33.223
H 30.842 62.633 32.5
H 31.678 63.899 32.563
H 30.821 59.229 31.071
H 31.987 58.287 31.317
H 32.994 60.84 38.32
H 33.472 62.172 38.87
H 36.211 60.16 30.536
H 35.26 59.762 29.421
H 31.256 63.303 38.192
H 32.212 64.404 37.769
H 29.497 65.504 38.392
H 29.015 64.553 37.311
H 36.206 60.265 35.973
H 35.141 59.728 36.912
H 30.871 61.025 34.002
H 30.929 59.518 33.821
H 33.055 63.03 36.09
H 38.316 63.217 36.773
H 34.397 62.319 36.074
H 35.814 61.778 37.667
H 33.497 63.048 30.838
H 34.923 63.048 31.359
H 35.579 64.437 33.239
H 34.19 64.637 33.82
H 35.601 64.16 36.137
H 34.38 64.865 36.701
H 36.763 65.065 38.551
H 29.046 62.154 34.486
H 30.196 62.615 35.364
H 31.405 64.426 35.679
H 32.254 65.654 35.958
H 33.479 62.718 33.014
H 32.852 61.967 34.175
H 36.872 62.404 35.326
H 37.3 63.713 34.686
H 33.332 61.058 29.913
H 32.657 59.705 29.771
H 32.672 60.473 32.417
H 33.889 59.58 32.252
H 31.262 61.334 37.055
H 31.403 59.822 37.072
H 36.349 66.518 34.322
H 36.837 65.907 35.623
H 33.955 66.659 34.656
H 33.214 67.964 34.886
