53
xyz format
Cl 64.214 44.247 60.337
O 61.976 45.353 59.134
O 63.229 49.027 63.19
O 64.723 51.009 61.033
O 63.124 43.232 58.701
O 61.932 50.662 59.556
O 59.475 44.985 61.593
O 65.57 48.977 59.756
O 62.008 47.645 59.223
O 65.078 46.072 59.477
O 63.169 46.44 57.641
O 57.603 48.38 59.05
O 61.065 47.323 62.157
O 65.009 47.781 61.968
O 59.036 49.134 60.538
O 57.213 45.272 59.184
O 63.46 46.096 63.813
O 66.843 50.424 62.784
O 59.899 46.772 58.819
H 60.702 48.127 62.55
H 61.806 47.099 62.734
H 62.918 44.977 61.962
H 65.453 47.239 61.304
H 64.342 48.263 61.464
H 59.861 49.456 60.924
H 57.897 47.635 58.51
H 57.346 49.046 58.401
H 62.868 46.052 56.809
H 63.819 47.098 57.365
H 64.364 46.721 59.467
H 66.88 51.877 59.887
H 61.546 48.383 58.805
H 61.877 47.797 60.167
H 65.953 48.365 59.116
H 66.27 49.093 60.41
H 57.784 44.494 59.201
H 57.228 45.547 58.259
H 66.627 51.237 62.31
H 66.166 49.801 62.491
H 59.517 45.909 59.025
H 59.803 47.267 59.642
H 62.258 51.468 59.976
H 61.969 50.004 60.261
H 59.99 45.679 61.163
H 59.221 44.403 60.865
H 62.213 43.013 58.466
H 64.177 51.43 61.708
H 64.112 50.412 60.583
H 62.035 51.651 62.241
H 61.635 44.706 59.763
H 61.547 45.113 58.303
H 64.326 46.492 63.972
H 63.048 49.687 62.509
