36
xyz format
O 62.752 58.048 44.383
O 58.264 59.554 45.095
O 59.739 56.869 45.804
O 57.216 55.613 46.616
O 58.972 60.969 41.817
O 58.034 60.286 47.16
O 60.41 58.431 47.998
O 61.716 55.792 45.973
O 60.976 59.705 44.48
O 60.461 57.639 43.872
O 56.121 58.474 44.4
O 62.766 59.39 42.403
H 56.94 57.967 44.337
H 56.174 58.89 45.269
H 58.999 56.547 45.275
H 59.686 56.347 46.614
H 58.753 58.083 41.217
H 55.969 61.19 44.419
H 59.913 61.028 41.609
H 58.883 60.102 42.232
H 58.565 60.433 44.833
H 59.068 59.12 45.406
H 59.652 58.4 47.402
H 61.169 58.461 47.402
H 57.539 59.499 47.421
H 58.553 60.5 47.945
H 60.931 60.318 45.224
H 60.478 60.151 43.784
H 61.031 57.578 43.095
H 59.684 58.112 43.55
H 56.737 56.448 46.539
H 62.516 60.142 42.954
H 63.651 59.163 42.713
H 62.288 57.799 45.192
H 63.679 57.865 44.584
H 61.659 62.161 43.814
