34
xyz format
O 41.908 39.813 54.857
O 43.308 37.862 53.827
O 39.64 39.576 56.348
O 43.337 37.651 56.205
O 44.357 38.187 51.577
O 45.96 40.537 54.742
O 47.13 38.15 52.712
O 46.244 37.977 55.297
O 44.177 41.072 53.102
O 43.622 35.211 53.103
H 46.615 38.773 53.24
H 46.681 37.307 52.849
H 46.055 36.637 50.849
H 45.019 40.807 52.711
H 43.528 40.527 52.641
H 40.334 40.208 52.503
H 45.513 38.357 55.799
H 47.027 38.244 55.795
H 44.101 38.287 50.652
H 43.561 38.249 56.929
H 42.431 37.896 55.978
H 45.045 38.854 51.698
H 45.165 35.663 56.019
H 39.273 40.351 55.904
H 39.971 39.032 55.623
H 42.472 37.388 53.734
H 43.927 37.181 54.119
H 42.723 36.461 57.965
H 43.075 34.891 53.832
H 46.882 40.823 54.719
H 45.742 40.543 55.683
H 41.95 39.658 53.905
H 42.62 40.444 55.019
H 44.524 35.057 53.409
