59
xyz format
O 60.311 48.424 64.719
O 65.515 50.061 67.201
O 65.984 48.353 72.97
O 63.682 51.245 66.618
O 60.87 45.858 66.347
O 62.268 49.56 69.406
O 59.521 47.544 70.035
O 63.065 48.889 72.287
O 59.769 50.395 70.355
O 61.378 51.59 68.789
O 63.746 48.714 65.983
O 61.827 44.232 70.126
O 59.971 48.903 67.52
O 63.256 47.005 70.675
O 57.759 47.152 66.821
O 65.422 51.232 71.391
O 62.226 47.078 67.782
O 58.655 46.414 64.366
O 65.242 50.684 64.256
O 62.204 51.375 64.503
H 63.074 51.066 64.223
H 61.883 50.667 65.076
H 65.247 49.905 64.826
H 65.182 51.421 64.877
H 62.475 44.947 70.163
H 64.584 48.281 66.189
H 63.113 47.986 65.953
H 60.029 51.764 66.305
H 61.303 47.177 68.048
H 62.659 46.737 68.574
H 65.996 51.975 71.616
H 65.809 50.49 71.871
H 60.141 49.668 66.957
H 59.196 49.164 68.033
H 64.054 47.301 71.13
H 62.623 46.865 71.39
H 63.039 44.759 67.614
H 60.548 51.215 68.469
H 61.099 52.35 69.315
H 60.399 47.926 69.909
H 59.263 47.268 69.147
H 63.094 49.766 71.884
H 63.811 48.894 72.9
H 62.141 49.246 68.502
H 63.193 49.358 69.592
H 57.998 47.118 64.293
H 63.393 52.078 66.226
H 62.902 50.931 67.092
H 59.352 46.686 63.756
H 61.044 48.466 65.346
H 59.531 48.346 65.283
H 58.705 47.176 67.014
H 66.301 47.829 73.716
H 66.295 47.865 72.198
H 65.069 50.278 68.029
H 60.43 46.378 65.664
H 60.142 45.517 66.881
H 63.004 46.196 64.658
H 62.421 49.014 63.717
