25
xyz format
O 57.072 33.539 31.857
O 55.405 31.812 29.065
O 55.162 34.673 29.893
O 58.09 35.819 32.365
O 58.715 31.094 30.035
O 60.682 35.39 32.682
O 60.701 34.87 28.626
O 59.258 33.618 30.495
O 54.949 31.345 31.683
H 60.193 34.306 28.03
H 61.344 34.268 29.02
H 60.146 34.888 32.057
H 59.839 32.99 30.047
H 58.861 34.119 29.771
H 55.038 33.313 32.665
H 59.406 30.782 30.633
H 58.003 31.362 30.628
H 54.998 34.016 30.58
H 55.717 35.33 30.331
H 58.343 36.625 32.832
H 57.418 35.425 32.936
H 54.53 31.738 29.468
H 56.002 31.863 29.822
H 57.098 33.439 30.897
H 57.731 32.907 32.171
