24
xyz format
O 68.359 43.086 54.523
O 69.456 35.353 54.513
O 68.392 41.272 55.898
O 66.915 40.92 53.767
O 71.021 36.693 56.206
O 68.2 38.386 55.036
O 70.68 38.392 52.51
O 71.313 39.745 56.801
O 69.778 41.124 54.197
O 72.055 41.22 54.258
H 72.002 40.262 54.152
H 71.885 41.559 53.37
H 72.72 40.018 52.041
H 68.049 38.49 54.088
H 69.145 38.198 55.098
H 67.914 40.443 55.771
H 67.722 40.549 53.388
H 69.81 40.183 53.986
H 69.685 41.55 53.336
H 70.606 38.201 53.454
H 70.246 37.075 56.637
H 71.07 37.164 55.364
H 71.219 39.28 55.96
H 69.507 36.233 54.119
