36
xyz format
O 58.119 54.41 60.805
O 61.15 51.715 61.861
O 59.294 51.231 58.69
O 56.402 51.536 63.405
O 60.257 52.488 65.709
O 60.328 50.152 63.318
O 61.23 55.035 60.138
O 58.218 51.392 64.638
O 59.672 53.905 63.461
O 56.714 49.376 62.964
O 54.797 52.536 60.356
O 58.266 52.377 61.636
O 56.364 54.83 63.474
O 56.405 50.712 66.119
H 57.063 55.246 63.993
H 55.89 54.289 64.118
H 60.424 54.079 64.041
H 58.938 53.767 64.072
H 58.217 56.565 60.373
H 58.016 52.131 65.226
H 58.423 50.668 65.243
H 60.182 51.021 63.711
H 59.444 49.871 63.05
H 58.356 49.648 60.99
H 58.366 51.542 62.11
H 57.503 52.228 61.064
H 55.425 53.208 60.649
H 54.943 51.804 60.97
H 56.355 49.734 62.143
H 55.49 51.645 63.106
H 56.771 52.426 63.342
H 58.753 51.264 59.489
H 60.041 51.807 58.894
H 60.844 52.588 62.139
H 58.88 54.477 61.395
H 57.362 54.424 61.404
