44
xyz format
O 36.862 74.537 51.0
O 33.588 72.568 49.856
O 31.974 67.306 45.976
O 36.026 71.251 53.232
O 29.459 67.221 47.295
O 36.625 68.739 52.341
O 29.895 70.243 51.165
O 28.74 68.696 48.934
O 32.416 70.089 49.615
O 36.687 71.866 49.769
O 38.92 76.07 49.131
O 31.017 70.342 47.136
O 38.824 72.795 48.166
O 32.643 70.762 53.145
O 33.263 70.338 46.724
H 31.104 69.565 47.702
H 30.257 70.135 46.578
H 39.239 75.232 49.489
H 39.003 76.682 49.872
H 33.184 69.989 52.94
H 32.208 70.524 53.973
H 28.771 69.482 48.374
H 29.66 68.563 49.193
H 31.576 69.677 49.853
H 32.612 70.661 50.367
H 36.125 71.78 50.549
H 36.239 72.534 49.235
H 29.174 69.648 51.405
H 30.047 70.755 51.969
H 37.934 73.095 47.945
H 38.945 73.091 49.077
H 28.539 67.456 47.118
H 29.961 67.804 46.711
H 35.828 72.175 53.035
H 35.158 70.861 53.398
H 32.633 67.825 45.498
H 37.731 70.886 48.098
H 33.502 70.209 47.65
H 33.687 69.597 46.272
H 37.264 74.264 50.165
H 36.086 75.041 50.726
H 40.053 72.667 50.93
H 33.997 72.338 50.7
H 33.162 73.416 50.032
