40
xyz format
O 35.646 45.563 28.761
O 34.715 43.491 26.406
O 31.487 44.811 29.285
O 32.331 50.555 27.192
O 35.981 47.245 25.677
O 33.377 48.493 26.461
O 37.055 42.936 31.153
O 34.922 43.384 29.488
O 33.293 43.719 31.61
O 35.865 45.491 31.816
O 37.132 45.325 27.148
O 33.145 46.774 29.52
O 31.043 48.185 29.152
O 33.741 48.832 30.02
H 35.114 45.976 31.453
H 36.352 45.204 31.034
H 37.55 44.88 27.896
H 37.294 44.729 26.406
H 32.933 44.123 30.811
H 34.227 43.963 31.59
H 34.199 43.833 29.034
H 34.758 42.449 29.313
H 37.532 43.206 30.359
H 34.073 48.918 26.978
H 32.658 48.378 27.095
H 35.243 47.185 26.296
H 36.756 47.307 26.248
H 33.493 47.104 28.682
H 33.412 45.846 29.53
H 31.692 50.712 27.898
H 33.057 49.321 30.495
H 31.178 45.424 28.606
H 31.138 45.183 30.105
H 34.496 48.853 30.621
H 35.383 43.826 27.017
H 31.085 47.531 29.861
H 31.056 49.03 29.619
H 35.111 45.781 27.987
H 35.562 46.342 29.325
H 34.958 50.362 28.405
