41
xyz format
O 40.58 71.96 51.324
O 43.198 71.925 49.376
O 44.544 69.498 54.368
O 44.064 70.738 47.13
O 44.923 69.41 49.975
O 42.7 66.81 51.56
O 43.316 64.901 49.42
O 45.601 66.564 49.948
O 43.63 68.584 47.013
O 45.492 72.766 46.761
O 45.407 72.069 49.331
O 43.944 71.675 52.405
O 42.354 69.544 51.287
H 45.561 71.49 48.575
H 45.131 72.903 48.929
H 43.173 68.226 53.175
H 44.598 71.665 51.695
H 43.106 71.532 51.947
H 44.395 68.569 47.602
H 42.877 68.63 47.615
H 45.859 67.44 50.262
H 45.103 66.193 50.687
H 41.244 73.182 48.35
H 45.817 68.84 51.958
H 43.836 65.591 48.991
H 43.039 65.92 51.397
H 43.279 67.375 51.033
H 42.071 73.541 51.674
H 43.081 74.275 50.809
H 44.35 70.178 50.093
H 45.811 69.788 49.948
H 41.832 67.821 49.434
H 44.864 70.622 46.602
H 44.888 70.363 54.624
H 45.311 68.917 54.439
H 42.762 71.265 48.823
H 42.484 72.273 49.924
H 40.053 72.667 50.93
H 40.613 71.287 50.633
H 42.202 69.789 50.365
H 41.648 68.914 51.476
