175
xyz format
O 62.842 59.32 50.441
O 59.892 64.597 44.045
O 62.267 63.912 49.325
O 62.752 58.048 44.383
O 57.587 66.404 42.599
O 60.951 62.205 43.16
O 57.793 65.457 45.373
O 53.925 62.227 47.433
O 59.139 60.722 52.596
O 62.79 61.89 41.071
O 63.446 63.312 46.768
O 61.631 61.417 54.456
O 54.545 65.38 49.164
O 57.659 64.519 48.088
O 61.228 59.219 53.159
O 60.875 56.202 50.356
O 61.67 60.589 49.077
O 55.779 60.703 52.103
O 60.085 65.541 47.945
O 64.193 63.194 52.568
O 59.135 57.985 54.928
O 54.5 64.222 51.801
O 60.014 61.846 50.729
O 63.951 57.903 46.767
O 62.932 65.063 51.091
O 59.342 57.664 49.762
O 58.264 59.554 45.095
O 61.051 62.737 39.649
O 64.402 61.363 50.707
O 57.776 62.291 50.856
O 59.739 56.869 45.804
O 55.711 66.633 47.31
O 54.624 64.417 45.167
O 55.221 57.942 52.735
O 56.798 62.435 53.25
O 58.972 60.969 41.817
O 57.568 62.218 45.647
O 58.034 60.286 47.16
O 58.134 55.782 52.161
O 63.845 62.107 44.969
O 60.41 58.431 47.998
O 58.316 54.111 48.936
O 61.716 55.792 45.973
O 60.976 59.705 44.48
O 62.963 61.964 56.456
O 59.605 66.027 50.135
O 62.888 60.417 46.224
O 60.461 57.639 43.872
O 52.012 63.466 48.398
O 56.121 58.474 44.4
O 64.72 61.502 47.32
O 56.23 60.142 49.067
O 53.609 61.002 51.89
O 59.542 64.838 41.515
O 62.766 59.39 42.403
O 66.343 60.743 45.142
H 56.147 60.79 55.611
H 62.155 64.302 43.93
H 64.035 61.994 50.076
H 55.115 67.328 47.615
H 56.197 66.382 48.105
H 55.161 64.224 45.945
H 53.806 64.773 45.536
H 64.824 60.698 50.149
H 57.103 61.787 53.898
H 56.321 63.084 53.782
H 64.782 60.642 47.755
H 64.858 62.132 48.038
H 57.875 61.335 50.763
H 57.255 62.544 50.084
H 56.94 57.967 44.337
H 56.174 58.89 45.269
H 52.79 63.58 48.957
H 58.654 64.099 52.945
H 57.326 64.834 52.905
H 54.384 58.423 52.746
H 55.575 58.119 51.855
H 59.686 56.347 46.614
H 65.543 60.304 44.827
H 59.754 66.913 50.49
H 59.589 65.465 50.92
H 60.83 62.184 50.338
H 60.021 60.909 50.498
H 63.225 57.679 47.362
H 64.643 58.221 47.36
H 63.215 65.577 51.858
H 62.597 64.243 51.474
H 60.172 62.487 39.339
H 60.886 63.121 40.519
H 64.026 62.832 44.358
H 59.768 58.458 50.109
H 58.543 58.0 49.337
H 59.232 63.991 41.857
H 60.412 64.945 41.92
H 55.793 60.689 42.997
H 55.969 61.19 44.419
H 59.913 61.028 41.609
H 58.883 60.102 42.232
H 63.663 61.358 44.388
H 58.565 60.433 44.833
H 59.068 59.12 45.406
H 64.888 60.489 55.369
H 59.652 58.4 47.402
H 61.169 58.461 47.402
H 66.016 61.558 45.542
H 57.539 59.499 47.421
H 58.553 60.5 47.945
H 54.723 63.373 51.399
H 54.654 64.078 52.743
H 61.219 60.522 48.226
H 62.54 60.938 48.848
H 66.613 58.346 45.046
H 65.02 62.866 52.192
H 63.57 62.473 52.415
H 65.818 59.183 42.333
H 60.931 60.318 45.224
H 60.478 60.151 43.784
H 59.449 57.375 54.248
H 59.835 58.648 54.982
H 63.614 62.626 56.193
H 60.455 64.814 47.429
H 59.909 66.224 47.285
H 55.739 61.186 51.269
H 56.524 60.1 51.984
H 58.17 62.629 46.28
H 56.844 62.853 45.574
H 59.947 63.094 54.416
H 61.356 63.625 54.615
H 60.803 55.315 50.729
H 61.123 56.749 51.111
H 60.443 58.946 52.669
H 61.831 58.471 53.063
H 57.031 64.0 47.57
H 57.31 64.471 48.987
H 54.804 64.451 49.113
H 54.671 65.602 50.095
H 65.497 61.328 42.74
H 59.684 58.112 43.55
H 63.526 61.396 41.454
H 62.055 61.266 41.1
H 54.764 62.503 47.821
H 53.619 63.014 46.965
H 62.583 61.272 54.402
H 61.363 61.528 53.535
H 56.737 56.448 46.539
H 63.819 63.957 47.382
H 62.532 63.604 46.657
H 62.635 61.268 46.604
H 62.893 59.82 46.982
H 59.181 61.305 53.363
H 58.535 60.022 52.872
H 65.89 64.252 50.133
H 62.516 60.142 42.954
H 63.651 59.163 42.713
H 62.288 57.799 45.192
H 63.679 57.865 44.584
H 58.55 66.444 42.65
H 57.403 65.466 42.47
H 58.264 64.795 45.895
H 57.045 64.969 45.006
H 57.278 55.714 51.718
H 64.102 58.194 53.514
H 60.173 62.444 43.68
H 58.769 55.771 51.434
H 61.659 62.161 43.814
H 53.106 61.386 51.161
H 53.736 61.742 52.497
H 63.675 58.836 50.381
H 62.238 58.689 50.85
H 59.98 65.558 44.07
H 60.181 64.318 44.923
H 56.685 59.743 49.819
H 55.298 60.112 49.32
H 62.249 64.682 48.742
H 62.001 63.183 48.75
