42
xyz format
O 73.877 61.721 48.033
O 71.719 61.327 50.7
O 71.274 63.123 47.551
O 72.804 63.531 50.301
O 69.016 64.218 45.603
O 72.188 65.307 47.107
O 75.061 62.007 52.346
O 70.138 59.345 47.123
O 71.345 58.403 44.585
O 69.717 60.399 49.481
O 71.196 62.744 44.895
O 68.579 61.247 46.523
O 72.926 61.412 46.035
O 72.488 59.353 48.668
H 69.256 62.997 50.131
H 72.851 65.312 46.405
H 72.686 65.553 47.896
H 69.648 60.383 43.839
H 69.447 58.775 46.765
H 70.7 59.532 46.36
H 72.596 64.339 50.788
H 73.502 63.121 50.827
H 69.62 64.473 46.311
H 68.141 64.332 45.996
H 70.384 62.885 47.838
H 71.657 63.553 48.326
H 73.685 57.913 47.514
H 71.761 60.374 50.845
H 70.826 61.563 50.983
H 70.627 58.359 43.942
H 72.109 58.669 44.058
H 70.159 60.835 48.742
H 69.162 59.734 49.055
H 68.655 60.6 45.811
H 74.309 60.915 48.341
H 74.09 62.371 48.715
H 68.37 62.07 46.063
H 72.515 60.759 45.455
H 73.363 62.018 45.424
H 72.327 60.021 47.99
H 71.608 59.162 49.015
H 70.539 62.455 45.54
