27
xyz format
O 39.261 63.363 48.649
O 40.58 66.22 48.573
O 38.714 68.244 49.258
O 36.886 65.07 47.437
O 39.893 67.174 52.309
O 40.938 68.178 49.511
O 36.339 63.293 50.164
O 38.197 65.74 51.026
O 38.49 63.281 46.223
H 36.262 66.79 50.68
H 38.693 64.204 46.029
H 38.295 65.428 50.117
H 38.852 65.226 51.515
H 37.591 65.692 47.218
H 38.676 67.625 49.999
H 38.928 67.683 48.502
H 40.259 68.211 46.79
H 36.872 63.862 50.733
H 36.957 62.608 49.881
H 40.153 66.017 47.731
H 41.079 65.419 48.776
H 38.386 63.77 48.673
H 39.732 63.871 47.978
H 36.512 69.032 47.985
H 36.671 67.611 48.499
H 40.898 68.848 48.817
H 40.27 67.057 51.428
