75
xyz format
O 48.127 70.555 66.133
O 49.134 68.801 64.594
O 49.25 73.189 64.786
O 49.587 74.158 56.85
O 46.05 68.408 64.582
O 44.98 72.035 63.862
O 50.124 71.066 62.912
O 47.738 71.315 68.637
O 51.441 73.722 65.643
O 46.985 74.753 59.777
O 42.727 71.353 65.521
O 48.548 71.202 59.898
O 52.154 68.613 63.906
O 52.982 73.85 58.814
O 45.047 71.571 66.799
O 47.029 71.051 63.464
O 45.886 73.601 62.148
O 43.308 73.884 60.755
O 52.356 71.258 64.071
O 51.519 74.229 62.427
O 48.587 71.379 57.705
O 53.114 71.179 59.877
O 49.961 72.902 59.884
O 50.457 68.681 61.555
O 40.902 70.103 67.319
O 48.96 76.541 60.738
O 51.262 71.473 57.669
H 49.055 72.215 57.829
H 50.777 67.808 61.295
H 49.644 68.789 61.046
H 45.508 74.345 62.633
H 46.532 73.232 62.763
H 45.145 70.679 66.445
H 44.355 71.479 67.466
H 50.888 72.654 59.994
H 49.908 73.776 60.29
H 46.866 70.1 63.435
H 46.968 71.265 64.403
H 52.615 74.45 58.153
H 51.576 73.349 62.034
H 51.441 74.816 61.665
H 53.04 70.641 64.358
H 51.574 70.98 64.564
H 43.828 73.641 59.979
H 40.694 70.853 66.749
H 41.151 69.406 66.699
H 52.665 68.858 63.124
H 51.627 67.862 63.608
H 49.267 70.565 59.803
H 48.146 70.97 60.744
H 49.083 70.443 66.059
H 47.788 69.651 66.113
H 48.204 76.604 60.141
H 49.569 75.951 60.277
H 42.766 71.387 60.982
H 46.184 74.781 60.315
H 47.352 73.878 59.957
H 41.969 71.868 65.215
H 42.797 70.642 64.871
H 52.177 73.706 65.018
H 51.226 72.789 65.767
H 50.96 71.054 58.485
H 51.676 72.291 57.972
H 44.581 72.354 64.681
H 44.642 71.135 63.778
H 45.273 68.9 64.875
H 46.372 67.988 65.39
H 49.326 68.968 63.663
H 49.913 68.325 64.907
H 49.272 73.961 65.365
H 48.499 72.678 65.115
H 48.142 71.829 67.926
H 47.739 70.412 68.295
H 50.769 70.739 62.272
H 49.499 71.566 62.373
