35
xyz format
Cl 39.106 49.969 60.184
O 40.484 46.959 63.032
O 42.424 48.02 61.262
O 42.588 50.596 60.018
O 42.331 51.399 63.601
O 44.901 48.673 62.946
O 39.298 50.135 64.821
O 47.377 48.498 61.554
O 39.733 52.288 62.804
O 40.748 49.866 63.123
O 45.115 50.715 61.782
O 43.75 46.683 63.049
O 40.618 48.928 58.161
H 43.362 45.812 62.898
H 40.08 48.255 58.596
H 41.103 49.338 58.888
H 46.695 47.905 61.894
H 41.254 49.545 62.366
H 41.226 49.514 63.884
H 38.1 49.088 61.937
H 41.188 51.759 66.077
H 42.444 51.441 60.462
H 43.089 50.834 59.228
H 42.129 52.192 63.088
H 42.9 50.885 63.013
H 39.499 51.489 62.316
H 39.952 51.961 63.686
H 43.374 47.853 61.225
H 42.159 48.042 60.334
H 44.073 48.918 63.377
H 45.4 48.229 63.644
H 43.36 49.982 65.29
H 44.301 52.553 62.681
H 45.528 49.99 61.297
H 45.596 50.734 62.619
