79
xyz format
O 69.456 35.353 54.513
O 67.296 31.438 55.417
O 69.742 33.516 53.337
O 70.231 31.588 56.036
O 66.119 29.495 53.873
O 67.957 29.996 50.551
O 68.683 34.041 48.925
O 68.973 30.499 53.348
O 66.349 33.769 46.959
O 69.784 35.492 51.381
O 66.7 32.576 50.147
O 66.581 36.905 53.668
O 71.505 31.613 53.708
O 66.965 32.37 52.918
O 71.148 30.531 50.699
O 66.43 35.696 51.309
O 73.341 33.543 50.234
O 68.274 30.779 47.532
O 72.584 34.022 52.243
O 66.476 35.428 49.127
O 64.577 30.162 51.188
O 65.962 30.659 49.346
O 72.581 34.149 46.699
O 66.282 34.326 55.018
O 70.797 34.651 48.911
H 71.217 30.759 53.364
H 71.663 32.139 52.914
H 66.193 33.58 55.624
H 67.167 34.219 54.649
H 68.212 36.816 49.014
H 72.472 33.197 49.994
H 73.78 33.669 49.383
H 71.809 33.791 47.156
H 73.326 33.724 47.14
H 68.92 31.495 47.57
H 68.793 29.991 47.737
H 66.339 31.044 48.545
H 68.917 31.353 52.903
H 68.888 29.86 52.63
H 66.618 31.568 53.328
H 66.26 33.017 53.045
H 70.269 37.794 49.704
H 66.476 34.467 49.042
H 72.26 34.859 51.888
H 72.709 34.204 53.183
H 69.237 34.867 50.889
H 70.388 35.842 50.715
H 66.609 32.913 47.322
H 72.67 36.702 50.046
H 65.852 32.467 50.596
H 67.267 32.969 50.822
H 67.286 36.436 53.204
H 65.786 36.671 53.174
H 69.051 33.152 49.011
H 68.406 34.086 48.002
H 68.724 29.945 49.967
H 67.995 30.894 50.902
H 71.045 31.123 55.803
H 70.303 32.427 55.564
H 64.389 33.46 51.975
H 64.269 34.124 53.336
H 65.349 29.176 53.387
H 66.857 29.313 53.278
H 66.904 36.302 55.758
H 70.406 35.225 48.241
H 71.683 35.013 49.035
H 69.085 33.53 52.63
H 70.49 34.0 52.964
H 70.375 30.71 51.249
H 71.745 31.263 50.898
H 66.908 36.49 51.038
H 67.131 35.059 51.495
H 64.737 30.839 51.856
H 65.365 29.607 51.23
H 68.888 35.479 55.284
H 69.507 36.233 54.119
H 63.933 32.319 49.444
H 67.582 30.553 55.158
H 68.043 31.781 55.924
