82
xyz format
O 30.136 64.261 49.929
O 29.178 61.196 49.884
O 26.463 66.289 46.959
O 24.853 62.174 53.682
O 29.459 67.221 47.295
O 29.895 70.243 51.165
O 28.74 68.696 48.934
O 30.135 65.473 56.644
O 27.349 60.726 52.297
O 29.75 66.513 51.072
O 32.416 70.089 49.615
O 32.798 64.958 50.387
O 27.82 67.286 56.005
O 28.553 66.023 53.282
O 27.203 64.702 56.516
O 28.05 64.412 46.663
O 24.032 62.468 48.26
O 31.017 70.342 47.136
O 27.727 63.301 54.51
O 26.189 66.308 50.019
O 26.172 65.533 53.707
O 30.045 68.417 54.438
O 31.771 65.823 54.513
O 25.482 63.546 50.171
O 27.915 63.368 51.704
O 27.673 64.819 49.37
H 31.104 69.565 47.702
H 30.257 70.135 46.578
H 28.679 65.066 46.992
H 28.06 64.545 45.707
H 26.745 65.363 55.981
H 27.444 65.183 57.318
H 23.917 62.328 49.208
H 24.515 63.302 48.208
H 30.194 67.042 51.746
H 28.836 66.822 51.104
H 28.382 66.109 54.229
H 29.175 65.286 53.228
H 31.938 65.247 50.717
H 28.771 69.482 48.374
H 29.66 68.563 49.193
H 31.576 69.677 49.853
H 32.612 70.661 50.367
H 27.438 62.786 55.274
H 28.415 63.876 54.867
H 27.813 66.422 43.537
H 28.145 61.271 52.337
H 26.927 60.996 51.471
H 29.499 64.75 56.577
H 29.791 66.138 56.034
H 29.174 69.648 51.405
H 30.047 70.755 51.969
H 28.539 67.456 47.118
H 29.961 67.804 46.711
H 26.377 65.455 52.767
H 26.008 64.623 53.983
H 30.001 62.64 55.917
H 30.398 63.0 54.496
H 28.287 62.039 57.164
H 26.073 65.439 46.72
H 26.753 66.655 46.114
H 26.45 62.792 47.205
H 29.492 68.809 53.751
H 30.643 67.838 53.949
H 31.529 65.022 54.994
H 31.281 65.75 53.685
H 28.188 68.061 55.564
H 28.119 67.378 56.918
H 25.783 65.677 50.626
H 26.638 66.933 50.602
H 29.978 62.481 52.379
H 24.723 63.006 53.209
H 24.111 61.628 53.395
H 30.656 63.466 50.101
H 30.256 64.412 48.983
H 28.057 65.647 49.056
H 27.079 64.556 48.656
H 27.048 63.16 52.074
H 25.114 63.424 51.055
H 26.039 62.768 50.046
H 27.929 64.333 51.685
H 29.024 62.014 50.372
