64
xyz format
O 47.517 49.802 77.261
O 46.699 55.348 70.014
O 46.774 49.983 71.37
O 47.068 55.584 75.391
O 49.298 56.784 75.844
O 43.743 50.273 77.163
O 45.791 57.047 72.962
O 42.532 51.14 70.219
O 43.889 52.92 77.026
O 45.717 58.465 74.663
O 43.705 55.211 72.213
O 46.858 53.389 72.654
O 45.254 50.635 75.202
O 48.644 51.879 74.636
O 44.781 57.993 70.55
O 41.984 50.858 74.789
O 48.396 59.365 76.241
O 43.87 51.972 72.863
O 46.904 52.403 76.822
O 42.631 53.482 71.005
O 44.902 53.694 74.853
H 46.521 49.057 73.689
H 48.877 59.887 76.895
H 47.538 59.212 76.656
H 47.931 52.021 74.001
H 48.544 52.609 75.26
H 43.423 59.548 74.108
H 47.273 53.004 71.872
H 47.334 54.219 72.781
H 43.3 56.069 72.036
H 44.055 55.302 73.108
H 45.549 58.013 75.5
H 45.977 59.355 74.932
H 44.537 52.277 76.713
H 43.505 52.498 77.805
H 46.493 52.761 77.619
H 46.547 52.954 76.114
H 44.471 58.295 71.413
H 45.739 58.102 70.6
H 42.204 50.373 75.594
H 41.092 50.557 74.576
H 44.493 52.47 72.319
H 43.178 51.714 72.242
H 46.754 57.029 73.012
H 45.594 56.554 72.155
H 44.269 49.477 77.306
H 42.942 50.114 77.677
H 49.021 57.324 75.092
H 47.225 56.125 76.175
H 44.123 55.641 69.92
H 46.35 56.042 74.936
H 42.625 55.755 69.693
H 43.529 53.636 70.686
H 42.078 53.693 70.242
H 42.425 54.373 74.257
H 46.543 54.758 70.762
H 46.909 56.194 70.429
H 47.891 49.825 78.15
H 48.266 50.015 76.691
H 45.83 50.05 71.177
H 46.103 50.895 74.824
H 44.683 50.527 74.431
H 44.953 52.762 74.608
H 45.521 54.124 74.249
