104
xyz format
O 34.33 47.058 35.839
O 37.77 49.323 42.741
O 33.267 49.089 41.3
O 33.548 46.777 43.633
O 37.008 46.736 44.303
O 31.749 47.537 40.849
O 38.688 48.38 45.352
O 40.644 44.475 37.494
O 36.678 46.875 40.602
O 36.405 46.299 37.519
O 35.244 44.44 37.319
O 35.934 45.985 42.469
O 34.092 44.254 44.32
O 40.838 40.131 41.614
O 33.894 43.538 40.384
O 36.566 48.865 45.684
O 39.528 47.063 40.557
O 34.865 50.637 46.801
O 38.04 44.595 39.198
O 35.034 50.578 40.027
O 42.39 45.371 38.656
O 39.52 41.949 40.861
O 38.189 41.608 43.127
O 34.463 48.203 38.824
O 40.346 41.032 38.222
O 35.203 50.261 44.664
O 35.964 42.155 43.105
O 38.213 45.197 46.694
O 41.915 43.483 39.942
O 35.656 48.968 42.243
O 32.8 48.774 45.137
O 33.689 45.502 38.67
O 40.71 45.32 41.849
O 38.523 46.114 42.817
O 37.774 43.969 44.9
H 35.943 50.747 44.28
H 34.426 50.687 44.28
H 36.003 42.399 44.038
H 35.896 43.002 42.648
H 38.939 44.363 39.461
H 37.713 43.796 38.768
H 33.815 47.679 38.335
H 35.196 48.297 38.203
H 40.529 41.777 38.809
H 40.191 40.296 38.827
H 39.907 46.938 39.678
H 40.031 47.803 40.92
H 38.719 41.813 40.338
H 39.548 42.905 40.992
H 33.967 50.691 46.451
H 34.847 49.85 47.359
H 33.936 43.348 44.025
H 34.805 44.562 43.748
H 35.973 50.796 39.986
H 34.759 50.573 39.101
H 37.751 49.496 39.8
H 38.163 42.44 42.638
H 37.725 40.989 42.55
H 34.579 43.721 41.039
H 33.075 43.562 40.895
H 41.197 40.45 40.777
H 39.943 39.851 41.387
H 31.776 45.095 41.786
H 39.583 48.933 37.734
H 38.565 47.928 38.243
H 36.011 48.132 45.979
H 36.863 49.273 46.506
H 35.176 46.504 42.173
H 35.947 45.232 41.865
H 33.969 47.886 46.767
H 36.273 47.394 39.895
H 37.444 46.469 40.178
H 39.064 45.216 46.24
H 38.193 44.325 47.108
H 34.913 43.577 37.04
H 34.736 45.064 36.786
H 37.092 45.621 37.498
H 36.845 47.081 37.164
H 39.768 44.549 37.095
H 41.243 44.502 36.738
H 38.842 47.977 46.215
H 39.529 48.807 45.145
H 30.814 47.356 41.009
H 32.056 46.755 40.374
H 33.205 45.976 43.217
H 33.945 46.458 44.453
H 37.62 46.484 45.005
H 36.154 46.412 44.615
H 35.128 48.58 42.952
H 35.235 49.822 42.084
H 41.733 42.664 40.42
H 41.048 43.756 39.617
H 37.559 48.716 43.462
H 38.122 46.88 42.387
H 38.07 45.362 42.417
H 33.873 45.615 39.611
H 32.736 45.639 38.605
H 33.673 48.672 44.737
H 37.299 44.178 44.086
H 38.015 43.041 44.793
H 33.096 49.687 40.562
H 33.879 48.44 40.931
H 39.952 45.044 41.319
H 41.459 45.215 41.249
