39
xyz format
O 50.817 40.569 51.66
O 52.158 39.247 55.029
O 51.408 38.624 57.022
O 50.47 40.888 56.059
O 51.824 37.156 49.573
O 49.299 37.749 52.394
O 49.128 39.582 53.633
O 56.327 38.29 51.963
O 53.015 37.777 52.292
O 53.612 39.21 48.135
O 54.483 37.411 49.577
O 54.099 35.935 53.144
H 54.087 39.864 48.662
H 52.735 39.184 48.539
H 53.912 37.964 46.181
H 53.486 39.403 45.946
H 52.551 38.331 51.652
H 52.309 37.266 52.707
H 55.957 35.847 51.288
H 56.155 38.031 51.049
H 55.81 39.098 52.074
H 48.915 40.467 53.956
H 48.591 39.001 54.185
H 54.273 36.637 50.114
H 54.008 38.129 50.014
H 49.195 37.15 51.644
H 50.128 38.208 52.208
H 52.5 40.556 50.243
H 50.092 40.012 55.911
H 54.164 38.089 54.285
H 55.62 38.51 54.185
H 52.29 36.446 49.113
H 50.894 36.908 49.493
H 53.798 39.747 52.881
H 51.856 38.544 54.44
H 51.875 40.056 54.584
H 53.692 35.581 52.344
H 50.094 40.96 52.165
H 51.357 40.134 52.331
