26
xyz format
O 50.363 40.468 38.283
O 50.25 37.275 38.303
O 49.028 39.22 42.219
O 48.456 35.872 42.962
O 51.599 39.451 40.276
O 48.445 33.465 39.636
O 52.181 38.422 42.594
O 47.999 38.989 38.43
O 48.537 35.954 39.136
O 50.61 37.205 41.65
H 48.612 38.745 37.725
H 48.572 39.346 39.119
H 50.347 37.882 44.781
H 48.163 36.193 39.993
H 49.338 35.466 39.363
H 48.351 33.855 40.513
H 47.635 33.725 39.18
H 48.764 35.235 42.304
H 47.834 36.424 42.472
H 50.739 39.196 40.631
H 52.002 38.611 40.025
H 50.974 36.676 38.527
H 49.97 37.626 39.157
H 50.812 39.666 37.987
H 50.166 37.357 42.493
H 49.98 36.668 41.153
