22
xyz format
O 35.157 26.844 52.851
O 33.466 28.099 53.863
O 33.464 31.615 55.099
O 32.216 30.69 52.555
O 36.324 31.597 57.694
O 35.27 29.077 56.845
O 32.852 29.488 55.893
O 36.833 30.582 59.644
H 35.571 31.726 57.103
H 37.068 31.469 57.093
H 36.225 31.774 54.999
H 35.345 32.975 55.3
H 34.017 31.524 54.313
H 32.973 32.431 54.941
H 35.544 29.726 56.185
H 35.191 28.257 56.341
H 34.609 31.035 58.962
H 34.429 26.929 52.222
H 32.861 28.632 56.338
H 32.815 30.124 56.618
H 32.693 27.753 54.328
H 33.122 28.865 53.387
