34
xyz format
O 39.117 70.614 42.097
O 36.997 71.202 36.213
O 32.516 68.551 39.64
O 34.149 71.105 39.703
O 37.697 70.486 44.696
O 35.681 68.425 39.15
O 38.876 74.138 40.585
O 38.662 70.096 38.776
O 38.029 73.072 42.967
O 34.786 72.078 41.96
O 37.305 72.804 37.689
O 36.464 71.509 40.554
H 37.427 71.517 40.625
H 36.242 72.425 40.346
H 37.515 73.312 43.747
H 38.678 72.442 43.304
H 37.777 73.34 38.339
H 36.794 72.187 38.229
H 34.178 72.461 42.605
H 35.446 71.631 42.505
H 37.713 70.233 38.659
H 38.712 69.317 39.344
H 38.777 73.222 40.296
H 38.086 74.297 41.117
H 35.098 67.984 39.781
H 36.28 68.935 39.71
H 34.041 69.188 36.75
H 34.711 71.424 38.986
H 34.521 70.241 39.919
H 32.56 69.246 38.972
H 32.633 69.025 40.472
H 39.515 71.261 41.501
H 38.72 69.967 41.501
H 36.291 70.928 35.613
