59
xyz format
O 69.831 48.448 45.987
O 71.921 50.145 46.021
O 67.809 53.637 41.01
O 68.807 50.74 45.586
O 72.217 46.232 42.651
O 70.173 46.186 45.534
O 71.488 52.678 41.931
O 70.108 53.36 39.458
O 67.53 55.478 44.629
O 69.945 53.596 43.675
O 68.911 55.426 42.911
O 71.555 48.52 44.573
O 70.437 48.094 41.294
O 71.048 48.164 38.908
O 70.116 53.973 46.542
O 70.421 51.212 48.57
O 71.952 52.018 39.092
O 71.976 49.716 41.266
H 67.939 50.061 39.219
H 69.428 50.296 39.032
H 69.734 48.755 41.256
H 70.561 47.945 42.24
H 71.036 53.802 46.303
H 70.036 54.932 46.47
H 73.765 49.444 39.407
H 71.198 49.022 39.324
H 70.341 48.338 38.273
H 71.542 50.578 41.266
H 72.096 49.52 42.203
H 69.825 51.744 48.029
H 71.287 51.36 48.169
H 69.766 52.788 44.173
H 70.089 54.26 44.36
H 68.25 55.805 42.318
H 69.426 56.19 43.198
H 72.032 48.049 43.877
H 70.945 49.088 44.088
H 68.948 48.078 43.961
H 72.746 52.346 39.532
H 72.024 51.059 39.174
H 67.686 55.121 45.512
H 67.005 54.794 44.195
H 70.874 53.813 39.83
H 70.546 52.757 41.733
H 71.504 52.297 42.818
H 73.659 51.524 41.852
H 73.275 51.058 43.245
H 71.06 46.53 45.37
H 68.548 53.672 41.63
H 67.944 54.413 40.45
H 71.444 46.094 40.595
H 73.985 48.837 43.115
H 69.201 51.56 45.909
H 69.015 50.741 44.643
H 68.082 53.198 46.86
H 70.42 48.277 46.732
H 68.949 48.327 46.359
H 72.309 49.888 46.867
H 71.002 50.341 46.24
