24
xyz format
O 34.964 69.177 43.22
O 32.516 68.551 39.64
O 34.149 71.105 39.703
O 32.05 65.561 43.145
O 31.973 67.659 42.066
O 35.681 68.425 39.15
O 34.786 72.078 41.96
O 36.464 71.509 40.554
H 37.427 71.517 40.625
H 36.242 72.425 40.346
H 34.178 72.461 42.605
H 35.446 71.631 42.505
H 35.098 67.984 39.781
H 36.28 68.935 39.71
H 32.889 67.809 42.33
H 31.485 68.352 42.528
H 30.446 64.498 44.609
H 31.485 66.182 43.621
H 31.607 65.454 42.294
H 34.711 71.424 38.986
H 34.521 70.241 39.919
H 32.56 69.246 38.972
H 32.633 69.025 40.472
H 34.373 68.687 43.805
