30
xyz format
O 46.433 36.815 32.932
O 50.118 37.717 31.113
O 47.96 41.069 32.132
O 48.183 38.292 34.342
O 48.646 40.269 30.2
O 47.291 39.979 35.984
O 44.661 39.923 34.84
O 47.799 36.232 36.156
O 49.833 37.065 33.547
O 46.994 38.6 31.771
O 46.208 40.407 33.329
H 44.658 40.253 35.747
H 45.254 39.162 34.875
H 45.992 34.926 35.406
H 50.709 38.443 35.35
H 46.603 39.614 36.554
H 47.322 38.686 34.153
H 48.728 39.047 34.6
H 48.407 36.911 36.473
H 48.493 40.315 32.415
H 47.777 38.067 31.583
H 46.67 38.849 30.896
H 50.79 37.047 33.426
H 49.658 36.298 34.107
H 45.83 41.287 33.447
H 45.565 39.953 32.77
H 50.037 38.419 31.77
H 49.607 38.044 30.362
H 45.945 36.067 32.566
H 45.742 37.399 33.267
