23
xyz format
O 55.212 42.13 23.332
O 53.178 41.818 24.845
O 54.64 43.574 28.561
O 58.175 43.39 27.245
O 57.692 43.331 24.311
O 54.628 39.041 26.229
O 55.535 41.724 27.054
H 53.668 39.076 26.316
H 54.832 39.785 25.648
H 54.24 37.722 24.431
H 57.002 43.728 24.857
H 57.5 42.386 24.35
H 56.059 41.682 26.245
H 54.623 41.719 26.737
H 53.101 42.325 24.028
H 53.299 40.91 24.542
H 58.001 42.606 26.709
H 58.305 44.089 26.592
H 54.092 44.364 28.644
H 53.998 42.854 28.516
H 55.332 41.664 24.169
H 55.355 43.056 23.563
H 52.08 40.839 22.712
