37
xyz format
O 64.909 40.94 43.163
O 62.906 39.422 43.925
O 61.117 37.571 41.945
O 62.966 35.992 41.161
O 64.221 38.518 40.79
O 63.25 33.61 42.054
O 61.358 35.36 43.722
O 60.695 40.219 43.778
O 61.191 37.962 45.881
O 64.673 34.846 43.952
O 62.357 41.464 42.486
O 59.68 39.323 41.176
H 61.248 40.821 44.291
H 60.665 39.419 44.317
H 62.149 35.668 44.182
H 60.724 35.207 44.433
H 60.243 39.954 41.641
H 61.452 41.697 42.244
H 62.793 41.322 41.637
H 58.506 37.463 41.08
H 64.219 38.462 39.826
H 63.285 38.577 41.019
H 63.966 37.594 44.535
H 60.562 37.0 42.491
H 61.67 38.034 42.586
H 61.892 37.759 45.249
H 61.572 38.657 46.431
H 62.79 36.147 42.097
H 63.85 36.359 41.03
H 63.609 39.764 44.492
H 63.292 39.45 43.04
H 63.261 40.438 39.677
H 64.584 41.086 40.05
H 64.376 35.671 43.548
H 65.315 40.484 42.415
H 64.614 41.779 42.788
H 62.793 40.988 46.128
