47
xyz format
O 61.956 55.119 25.085
O 60.892 54.228 28.697
O 53.676 55.974 24.5
O 58.721 58.317 25.544
O 55.916 56.593 25.711
O 61.402 58.089 26.958
O 55.011 57.899 22.699
O 57.12 58.002 29.495
O 58.31 55.312 26.587
O 53.542 54.461 26.093
O 60.193 56.514 24.13
O 53.069 59.277 25.674
O 54.387 53.321 24.297
O 56.215 59.499 24.685
O 57.63 53.784 23.62
O 54.759 58.174 27.922
H 54.671 53.832 23.529
H 55.107 53.437 24.929
H 56.86 59.045 24.128
H 55.721 60.048 24.063
H 52.633 58.573 26.17
H 57.922 53.566 24.514
H 55.662 57.423 23.229
H 54.482 58.371 23.355
H 57.96 54.601 27.139
H 57.719 55.322 25.824
H 56.875 58.73 28.91
H 57.161 57.238 28.906
H 60.509 56.959 30.143
H 53.651 59.689 26.324
H 59.885 56.298 25.02
H 60.664 57.348 24.247
H 54.105 54.843 26.777
H 51.812 55.815 26.419
H 53.913 56.847 24.836
H 54.072 55.951 23.62
H 61.484 57.379 26.309
H 61.876 58.826 26.554
H 55.895 56.269 26.621
H 55.823 57.549 25.806
H 59.107 58.553 26.397
H 58.018 57.697 25.774
H 55.005 57.599 28.657
H 54.247 57.597 27.341
H 60.96 54.281 27.736
H 61.479 54.741 24.336
H 62.604 55.703 24.672
