31
xyz format
O 63.509 35.883 46.965
O 64.024 32.977 44.916
O 61.117 37.571 41.945
O 62.966 35.992 41.161
O 60.473 36.334 47.206
O 63.25 33.61 42.054
O 61.435 34.115 47.557
O 61.358 35.36 43.722
O 63.587 31.934 46.821
O 61.191 37.962 45.881
O 64.673 34.846 43.952
H 60.665 39.419 44.317
H 62.149 35.668 44.182
H 60.724 35.207 44.433
H 62.05 33.523 47.106
H 61.99 34.581 48.194
H 63.285 38.577 41.019
H 63.966 37.594 44.535
H 60.562 37.0 42.491
H 61.67 38.034 42.586
H 61.892 37.759 45.249
H 61.572 38.657 46.431
H 60.032 35.849 47.915
H 61.322 36.583 47.591
H 62.79 36.147 42.097
H 63.85 36.359 41.03
H 63.469 32.911 44.129
H 63.587 33.653 45.449
H 64.376 35.671 43.548
H 62.848 35.635 46.306
H 63.928 35.044 47.195
