30
xyz format
O 52.342 61.133 68.723
O 48.699 60.73 73.193
O 54.183 62.051 70.321
O 50.248 60.15 67.523
O 46.598 60.076 71.351
O 52.026 64.899 71.153
O 51.398 61.435 71.409
O 51.159 60.212 73.222
O 54.29 59.603 71.774
O 49.121 61.069 69.859
O 55.033 62.941 73.36
H 53.972 60.508 71.883
H 54.331 59.265 72.677
H 51.476 59.531 73.829
H 50.865 60.921 73.807
H 52.008 62.149 71.633
H 51.93 60.841 70.865
H 55.163 62.128 72.856
H 56.279 58.667 71.848
H 47.193 59.377 71.648
H 50.401 59.529 68.246
H 50.229 61.011 67.959
H 53.617 62.596 69.76
H 49.458 61.794 70.4
H 48.72 60.471 70.502
H 48.302 61.289 72.514
H 49.035 59.972 72.698
H 52.309 64.108 70.678
H 52.395 61.348 67.784
H 53.046 60.486 68.851
