84
xyz format
O 37.603 54.09 36.874
O 35.047 57.531 39.733
O 41.677 58.091 41.798
O 37.424 59.543 39.401
O 39.974 61.558 41.697
O 36.087 52.32 37.839
O 33.823 57.49 36.037
O 39.394 58.119 42.329
O 38.091 53.985 32.814
O 35.318 54.462 35.57
O 39.124 61.219 37.284
O 41.915 55.924 36.92
O 35.879 57.619 36.81
O 38.278 56.39 34.887
O 36.772 61.67 37.716
O 40.227 57.338 34.477
O 35.641 60.734 40.835
O 40.535 57.907 37.278
O 35.826 54.847 38.167
O 35.254 60.288 36.134
O 39.748 54.056 36.206
O 36.904 54.586 41.793
O 40.455 55.642 38.693
O 38.37 58.492 36.904
O 37.669 56.619 40.494
O 38.052 59.85 42.629
O 38.862 54.0 40.963
O 41.942 55.608 42.03
H 35.456 55.846 33.815
H 41.775 55.301 41.13
H 42.885 55.445 42.156
H 39.747 56.148 39.11
H 41.26 56.066 39.016
H 39.603 58.062 34.344
H 38.722 55.731 34.339
H 37.932 55.877 35.628
H 36.556 57.518 36.129
H 36.072 56.906 37.432
H 42.414 56.625 36.483
H 42.009 55.17 36.325
H 36.206 60.265 35.973
H 35.141 59.728 36.912
H 40.143 54.429 35.408
H 36.942 61.558 38.66
H 36.354 54.959 41.093
H 36.685 53.646 41.78
H 39.43 54.596 41.467
H 38.871 54.372 40.072
H 38.457 60.378 43.328
H 37.718 60.51 42.008
H 38.257 58.176 37.809
H 37.982 59.375 36.918
H 40.753 58.258 36.405
H 40.057 57.091 37.085
H 35.253 60.753 39.952
H 36.144 61.557 40.883
H 35.155 54.64 38.829
H 36.597 55.095 38.692
H 37.038 57.05 41.084
H 37.423 56.942 39.619
H 39.896 60.674 37.088
H 39.137 61.296 38.247
H 35.409 53.807 36.273
H 35.834 55.214 35.889
H 35.143 58.222 41.891
H 37.618 53.942 33.655
H 39.742 57.22 42.38
H 38.917 58.133 41.49
H 33.926 56.534 36.12
H 33.57 57.614 35.114
H 36.193 52.631 38.747
H 42.647 54.285 38.764
H 37.061 59.047 40.145
H 38.211 59.964 39.769
H 39.8 60.892 41.021
H 39.726 62.388 41.27
H 41.793 60.139 40.475
H 34.531 57.256 38.964
H 34.973 58.493 39.727
H 37.937 53.472 37.536
H 37.605 53.575 36.058
H 42.582 58.294 41.531
H 41.189 58.081 40.964
H 35.502 53.746 33.085
