215
xyz format
Cl 31.247 50.946 48.398
Na 37.083 30.36 63.863
Na 46.336 56.344 34.969
O 71.279 56.117 59.229
O 61.925 48.975 33.936
O 32.33 43.493 36.27
O 35.394 36.402 63.467
O 59.583 55.722 38.457
O 30.136 64.261 49.929
O 69.971 57.602 40.999
O 65.304 43.889 46.505
O 39.522 44.361 34.858
O 44.202 27.859 45.228
O 62.194 42.612 47.902
O 60.603 53.293 37.665
O 61.539 55.57 41.633
O 53.19 36.105 58.391
O 67.057 60.849 37.867
O 50.558 26.197 60.281
O 50.752 72.257 50.495
O 49.587 74.158 56.85
O 27.335 33.78 43.537
O 37.741 56.897 68.277
O 51.37 72.079 54.307
O 47.845 28.102 61.283
O 59.139 60.722 52.596
O 56.165 27.563 59.504
O 52.099 25.274 58.968
O 50.286 29.566 63.09
O 55.723 41.84 36.029
O 32.903 48.551 33.609
O 39.64 39.576 56.348
O 66.843 29.96 45.926
O 33.453 54.701 51.781
O 55.779 60.703 52.103
O 45.332 62.126 71.237
O 54.911 71.083 38.685
O 63.951 57.903 46.767
O 60.518 37.566 29.042
O 48.235 71.452 38.647
O 59.257 71.748 44.168
O 59.8 52.798 25.368
O 69.162 67.138 54.708
O 36.973 43.195 62.621
O 62.869 34.55 68.12
O 51.532 69.267 56.597
O 59.425 57.438 41.472
O 57.776 62.291 50.856
O 61.668 51.737 35.816
O 36.904 54.586 41.793
O 31.361 60.244 34.288
O 29.245 42.663 67.894
O 60.418 62.155 72.505
O 49.537 73.242 53.011
O 59.739 56.869 45.804
O 46.679 73.192 38.953
O 54.465 34.504 47.404
O 54.205 25.838 61.621
O 55.46 34.327 55.566
O 73.983 46.165 39.976
O 40.224 65.104 34.051
O 57.528 54.975 41.331
O 68.166 63.878 37.838
O 53.759 44.779 36.904
O 47.559 41.7 72.876
O 70.22 59.972 41.714
O 47.9 42.23 37.959
O 72.584 34.022 52.243
O 57.868 52.088 68.687
O 69.646 59.53 39.567
O 53.114 71.179 59.877
O 44.277 43.052 60.919
O 68.644 62.422 42.981
O 52.397 26.998 63.252
O 30.114 62.254 55.04
O 55.129 70.258 57.088
O 54.877 29.222 37.498
O 47.028 45.182 25.768
O 60.41 58.431 47.998
O 51.672 68.261 59.316
O 60.991 45.408 23.713
O 57.708 34.175 53.621
O 59.429 55.082 42.667
O 73.18 56.033 53.525
O 47.533 29.619 44.772
O 61.195 72.648 42.534
O 59.652 52.897 39.842
O 60.461 57.639 43.872
O 64.177 47.751 50.972
O 53.609 61.002 51.89
O 55.178 36.925 57.186
O 71.739 54.065 53.176
O 43.377 43.717 58.569
O 56.712 36.168 54.569
O 29.996 63.967 43.94
O 48.851 49.071 45.41
N 51.761 52.453 51.079
N 47.749 49.355 48.296
C 47.799 48.687 45.956
C 46.353 51.272 45.295
C 47.076 49.542 47.028
C 47.085 51.016 46.603
C 52.523 50.115 50.631
C 51.894 53.827 51.502
H 44.024 42.132 60.772
H 68.832 59.428 40.075
H 69.572 60.416 39.19
H 68.783 64.476 37.398
H 53.406 70.897 59.002
H 50.852 52.155 50.786
H 49.916 72.436 52.638
H 61.25 51.289 35.07
H 56.808 55.354 40.812
H 58.306 55.107 40.775
H 47.045 73.464 38.102
H 46.143 72.419 38.736
H 58.999 56.547 45.275
H 59.686 56.347 46.614
H 58.753 58.083 41.217
H 60.022 57.418 40.714
H 54.07 26.722 61.257
H 61.827 72.163 41.989
H 31.938 65.247 50.717
H 60.396 72.672 41.993
H 59.195 72.653 43.837
H 59.474 71.231 43.383
H 59.787 61.434 72.618
H 52.154 26.86 62.328
H 30.929 59.518 33.821
H 61.424 45.494 24.571
H 60.22 37.025 28.3
H 59.303 55.934 43.102
H 60.184 54.698 43.131
H 53.633 27.164 38.352
H 46.003 49.2 47.141
H 55.588 29.423 38.12
H 46.609 51.625 47.418
H 48.577 49.893 48.452
H 51.419 49.877 50.77
H 69.633 67.225 53.871
H 72.26 34.859 51.888
H 72.709 34.204 53.183
H 48.598 73.036 53.098
H 48.15 51.357 46.487
H 70.104 60.829 41.284
H 71.103 59.695 41.44
H 52.193 69.939 56.391
H 70.252 56.608 56.411
H 61.169 58.461 47.402
H 62.227 34.534 67.4
H 73.709 55.305 53.876
H 69.181 62.996 42.421
H 56.524 60.1 51.984
H 38.217 29.638 56.598
H 52.874 66.896 57.268
H 53.805 68.079 57.07
H 50.767 28.777 62.81
H 49.409 29.231 63.317
H 48.779 74.405 39.075
H 34.156 50.392 32.155
H 44.472 62.122 70.798
H 66.336 30.644 46.381
H 29.439 63.372 44.457
H 63.332 67.905 34.624
H 65.119 30.19 44.579
H 30.813 38.465 36.704
H 56.759 33.997 53.647
H 57.935 34.339 54.545
H 33.011 48.58 32.65
H 54.954 42.365 36.287
H 55.563 40.982 36.44
H 61.031 57.578 43.095
H 62.01 54.729 41.698
H 60.854 55.398 40.975
H 48.867 73.882 56.269
H 50.36 74.163 56.272
H 33.753 47.768 35.531
H 49.973 26.864 60.66
H 52.303 25.259 58.024
H 31.536 61.384 65.725
H 52.324 36.437 55.326
H 73.581 45.506 40.555
H 41.03 65.325 33.568
H 64.667 47.081 50.478
H 47.772 28.846 61.893
H 55.254 34.72 56.423
H 56.198 33.734 55.757
H 66.572 53.777 30.519
H 52.653 36.269 59.176
H 59.713 53.832 39.609
H 58.821 52.836 40.33
H 67.841 60.294 37.776
H 52.024 71.688 54.9
H 50.726 72.476 54.906
H 62.988 43.16 47.859
H 70.601 56.477 58.644
H 43.554 44.337 59.288
H 54.405 36.738 56.639
H 54.83 37.484 57.891
H 59.426 55.398 37.562
H 51.13 68.268 58.517
H 52.245 69.031 59.21
H 47.163 44.402 26.321
H 30.656 63.466 50.101
H 67.614 32.233 45.487
H 57.53 36.641 54.768
H 56.09 36.498 55.229
H 34.652 36.118 62.918
H 34.971 36.741 64.266
H 71.652 53.226 53.646
H 71.439 54.72 53.819
H 70.383 57.661 41.87
H 53.106 61.386 51.161
H 53.736 61.742 52.497
H 69.028 57.54 41.195
