74
xyz format
O 66.298 65.926 54.185
O 65.522 73.736 52.528
O 63.466 72.94 53.637
O 66.394 67.533 57.174
O 64.751 70.124 53.396
O 69.302 68.926 56.655
O 69.162 67.138 54.708
O 69.555 68.937 50.703
O 70.076 67.526 58.252
O 63.034 70.06 51.11
O 62.089 69.299 55.23
O 68.635 71.238 54.809
O 69.937 69.552 53.348
O 66.157 70.708 55.349
O 62.833 70.559 58.25
O 63.676 66.559 57.751
O 68.886 65.327 52.273
O 65.904 67.722 59.316
O 66.579 69.031 52.834
O 65.453 66.525 51.355
O 68.354 69.211 58.622
O 70.246 65.83 56.323
O 65.906 69.426 50.77
O 64.154 70.009 56.571
O 72.44 67.385 52.61
H 70.459 65.447 55.463
H 70.636 66.712 56.285
H 63.36 67.103 57.019
H 64.12 65.822 57.314
H 63.052 69.801 58.805
H 65.383 68.502 59.085
H 62.735 65.85 55.294
H 65.894 68.354 52.763
H 67.402 68.534 52.748
H 70.811 68.069 58.563
H 69.534 67.4 59.04
H 62.178 69.124 56.176
H 62.761 68.735 54.828
H 69.395 70.744 55.14
H 68.256 71.635 55.603
H 63.7 69.442 50.786
H 63.015 69.899 52.062
H 70.4 68.954 52.747
H 69.17 69.84 52.838
H 69.591 65.238 52.926
H 68.109 64.976 52.725
H 68.346 66.682 54.466
H 69.633 67.225 53.871
H 65.288 66.204 52.251
H 66.394 66.738 51.357
H 69.172 69.664 50.198
H 69.927 68.358 50.026
H 69.948 68.775 55.954
H 68.736 68.145 56.618
H 65.947 72.91 52.791
H 65.292 74.154 53.367
H 65.724 68.638 50.243
H 66.743 69.75 50.416
H 72.332 68.165 52.052
H 71.632 66.879 52.457
H 64.638 71.011 53.759
H 64.696 69.55 54.17
H 64.429 70.913 56.769
H 64.733 69.468 57.121
H 66.54 68.26 56.557
H 65.934 66.871 56.644
H 66.511 70.438 56.206
H 66.046 71.662 55.438
H 66.382 65.453 55.022
H 65.959 66.792 54.445
H 63.599 72.684 52.715
H 69.161 69.735 58.698
H 67.785 69.749 58.058
H 66.691 70.772 60.438
