90
xyz format
O 60.137 24.217 52.632
O 62.767 29.328 54.957
O 61.913 24.351 50.786
O 62.639 28.236 52.425
O 62.098 31.907 51.568
O 62.904 31.666 54.133
O 54.066 29.649 51.982
O 58.47 23.376 50.216
O 62.03 26.854 49.778
O 56.513 29.937 53.846
O 54.953 32.002 51.887
O 60.829 28.336 57.964
O 60.061 23.932 48.445
O 58.67 28.235 55.142
O 55.794 25.778 50.403
O 58.683 30.544 58.511
O 58.427 26.082 47.382
O 57.952 31.834 54.264
O 59.234 28.691 48.974
O 56.86 30.496 57.245
O 56.956 30.53 51.335
O 58.887 27.167 58.899
O 63.146 26.079 54.305
O 60.027 29.357 52.167
O 60.809 30.629 56.69
O 59.054 26.879 52.516
O 60.38 26.866 56.319
O 57.726 23.294 53.087
O 55.6 28.51 49.681
O 55.195 26.889 52.277
O 59.597 30.668 50.29
H 62.42 26.103 54.942
H 63.878 25.701 54.807
H 59.555 28.983 52.921
H 60.694 29.925 52.572
H 60.925 30.897 57.61
H 61.699 30.685 56.321
H 55.28 27.767 51.883
H 55.034 27.071 53.211
H 58.743 26.851 47.874
H 62.531 30.104 50.377
H 59.342 30.368 59.195
H 58.577 31.504 58.538
H 57.575 30.651 56.614
H 56.61 29.577 57.087
H 57.637 29.862 51.186
H 56.763 30.863 50.45
H 58.611 26.244 58.833
H 60.008 26.177 55.753
H 60.82 27.46 55.698
H 58.743 28.365 49.739
H 60.158 28.594 49.237
H 58.564 27.059 51.704
H 58.378 26.564 53.128
H 58.456 31.958 55.077
H 57.036 31.958 54.54
H 57.038 23.9 52.786
H 57.899 23.574 53.994
H 56.346 26.086 49.673
H 60.048 32.675 56.416
H 58.24 27.47 55.545
H 58.045 28.955 55.293
H 60.968 24.213 48.617
H 60.08 23.643 47.525
H 59.791 31.879 52.116
H 56.493 28.385 50.024
H 60.964 26.769 59.582
H 61.53 28.672 57.391
H 60.043 28.813 57.669
H 57.289 29.652 53.348
H 56.095 29.108 54.112
H 55.435 31.979 52.722
H 60.412 30.714 49.774
H 58.901 30.765 49.628
H 62.027 28.409 51.698
H 63.51 28.323 52.018
H 62.495 24.728 50.115
H 62.397 24.485 51.611
H 59.881 24.904 52.005
H 60.361 23.465 52.07
H 57.971 24.126 49.868
H 57.899 23.023 50.91
H 62.845 32.628 54.099
H 61.991 31.375 54.013
H 61.127 26.825 50.118
H 62.175 27.79 49.592
H 54.808 29.861 51.402
H 63.642 32.358 56.187
H 62.981 28.725 55.679
H 63.628 29.658 54.671
