40
xyz format
O 56.041 56.892 75.006
O 59.514 53.361 75.42
O 55.016 54.74 74.581
O 55.715 59.118 75.927
O 58.954 55.719 71.991
O 60.761 57.636 74.462
O 53.994 56.471 77.582
O 58.174 58.5 75.385
O 61.479 55.336 74.924
O 57.144 58.857 72.231
O 58.118 55.763 75.911
O 61.067 53.359 73.111
O 62.08 57.686 71.165
H 61.296 52.978 73.968
H 61.081 52.601 72.513
H 58.521 56.391 76.523
H 57.679 55.128 76.491
H 60.68 55.175 74.407
H 62.165 55.456 74.256
H 57.531 57.983 72.369
H 56.279 58.667 71.848
H 59.622 55.961 72.644
H 58.123 55.784 72.478
H 53.352 55.915 78.042
H 53.543 57.32 77.497
H 61.089 57.27 73.631
H 60.001 58.167 74.194
H 55.76 58.813 76.841
H 55.803 54.328 74.202
H 56.131 59.989 75.955
H 62.74 57.302 71.756
H 61.258 57.255 71.429
H 58.823 53.884 74.995
H 59.89 53.966 76.072
H 59.174 58.723 71.107
H 57.799 58.226 74.539
H 58.231 59.461 75.311
H 56.61 56.379 74.418
H 55.413 57.314 74.406
H 58.294 52.192 73.652
