134
xyz format
O 38.108 54.297 27.379
O 37.534 56.033 29.941
O 38.829 49.07 31.297
O 38.916 52.01 32.064
O 40.307 48.273 23.517
O 36.757 48.855 30.077
O 41.465 50.784 30.986
O 38.092 51.296 27.954
O 43.681 50.692 23.486
O 44.636 45.743 30.719
O 39.352 44.169 24.83
O 42.253 57.387 25.26
O 35.981 47.245 25.677
O 42.652 54.309 27.015
O 38.927 54.71 24.712
O 42.196 50.038 26.32
O 44.903 46.984 25.397
O 44.429 56.073 26.017
O 42.041 49.464 28.779
O 41.344 52.15 24.261
O 41.784 54.903 23.623
O 35.683 51.386 26.597
O 41.037 47.328 30.485
O 44.469 54.002 29.164
O 40.068 52.462 29.522
O 40.437 55.974 29.266
O 44.267 51.138 30.976
O 36.886 51.982 29.661
O 41.266 46.155 26.218
O 42.724 55.002 30.394
O 44.749 49.803 27.586
O 39.988 57.619 27.493
O 44.893 51.368 25.879
O 38.848 47.839 25.813
O 45.152 54.968 22.919
O 41.364 43.526 26.576
O 37.132 45.325 27.148
O 39.405 45.462 29.705
O 46.917 49.355 21.679
O 45.648 52.248 27.755
O 40.098 53.051 26.619
O 40.338 50.895 27.642
O 46.627 52.684 24.989
O 38.084 50.946 24.48
O 46.74 54.581 27.217
O 47.77 49.6 26.866
O 42.271 46.033 28.182
O 38.956 49.056 28.378
O 44.126 45.483 23.225
H 38.792 48.246 28.876
H 39.143 49.712 29.062
H 37.294 44.729 26.406
H 44.395 50.602 25.565
H 44.211 52.029 26.053
H 41.865 45.587 28.936
H 41.872 46.912 28.194
H 39.138 57.662 27.947
H 44.026 49.252 27.262
H 44.518 49.966 28.509
H 42.256 54.185 23.183
H 41.946 54.743 24.561
H 44.762 54.875 22.041
H 42.071 43.704 25.944
H 41.503 44.186 27.267
H 46.929 49.641 27.338
H 40.627 45.882 25.548
H 42.022 46.462 25.703
H 41.815 54.677 30.39
H 42.686 55.798 29.85
H 37.815 50.019 24.498
H 38.41 51.108 25.374
H 44.201 51.511 30.088
H 37.214 51.628 30.496
H 39.533 55.687 29.088
H 40.941 55.62 28.522
H 42.104 53.933 27.715
H 43.254 54.898 27.486
H 42.046 49.363 25.647
H 42.225 50.861 25.816
H 39.01 54.873 23.764
H 39.46 53.211 29.567
H 39.769 55.017 25.072
H 35.009 51.063 25.986
H 36.228 51.967 26.052
H 40.903 47.07 31.405
H 41.992 47.256 30.363
H 43.684 53.44 29.165
H 42.712 48.795 28.966
H 41.261 49.143 29.248
H 45.092 56.417 25.406
H 43.723 55.76 25.438
H 39.225 48.618 26.239
H 38.938 47.147 26.48
H 40.927 52.874 29.366
H 40.379 52.144 24.238
H 41.596 52.059 23.333
H 44.415 46.302 25.875
H 44.994 47.695 26.044
H 41.646 56.983 24.627
H 42.913 57.817 24.701
H 46.911 51.768 25.101
H 36.756 47.307 26.248
H 44.87 57.494 22.61
H 38.924 44.967 24.498
H 38.728 43.466 24.61
H 39.088 45.462 30.616
H 38.814 46.078 29.256
H 37.333 55.72 29.05
H 37.838 56.939 29.803
H 43.838 46.062 30.279
H 43.104 50.045 23.062
H 44.196 51.055 22.754
H 46.424 51.79 27.409
H 45.839 52.344 28.696
H 40.813 53.337 26.036
H 39.334 52.992 26.033
H 43.498 45.832 23.87
H 40.173 50.819 26.693
H 41.155 51.406 27.693
H 41.867 45.079 31.196
H 37.913 52.106 27.46
H 37.536 50.636 27.522
H 42.06 51.432 30.587
H 42.026 50.01 31.12
H 36.688 49.689 29.596
H 36.648 49.112 31.001
H 40.259 47.546 24.15
H 39.694 48.928 23.872
H 42.982 48.102 32.137
H 38.89 54.823 27.17
H 37.377 54.828 27.039
H 38.647 50.012 31.184
H 39.782 49.003 31.163
H 37.703 47.12 31.05
