35
xyz format
O 55.605 54.552 33.093
O 57.564 54.032 32.004
O 56.982 56.852 31.554
O 57.059 61.949 36.604
O 54.616 60.248 35.118
O 52.165 58.072 35.945
O 57.741 58.74 36.33
O 59.849 56.469 30.648
O 56.273 59.946 33.503
O 55.261 57.088 32.938
O 59.491 59.983 35.846
O 60.675 62.226 35.959
H 53.675 60.06 35.224
H 55.048 59.534 35.604
H 54.909 62.402 34.784
H 56.493 59.211 38.8
H 54.516 57.202 33.54
H 56.016 56.967 33.527
H 55.732 59.148 33.549
H 57.0 59.765 34.112
H 56.854 58.406 36.509
H 56.912 61.978 35.65
H 58.011 61.809 36.685
H 57.893 57.169 31.516
H 56.934 56.208 30.837
H 59.381 55.956 29.977
H 58.945 60.207 35.082
H 60.314 59.664 35.454
H 52.664 58.63 36.555
H 57.88 63.109 33.043
H 56.186 54.101 33.718
H 54.985 55.028 33.659
H 58.037 54.856 32.178
H 57.405 54.055 31.052
H 60.061 62.128 35.221
