30
xyz format
O 48.637 63.626 27.633
O 47.057 60.214 27.955
O 49.36 58.68 25.953
O 46.858 63.734 30.549
O 47.059 58.37 29.734
O 45.759 60.767 25.944
O 45.524 62.925 28.119
O 50.361 62.177 28.747
O 49.451 60.881 26.037
O 50.86 64.333 27.138
H 46.012 63.738 27.935
H 46.171 62.228 27.957
H 48.285 60.189 29.899
H 49.269 60.976 25.093
H 49.815 61.739 26.287
H 49.904 61.344 28.917
H 49.906 62.809 29.318
H 48.511 62.111 31.003
H 46.309 60.648 25.16
H 44.858 60.701 25.605
H 43.843 62.601 25.051
H 46.937 63.1 29.826
H 52.308 61.343 28.154
H 50.307 58.846 25.865
H 50.635 64.631 26.248
H 51.062 63.396 27.023
H 48.311 62.723 27.738
H 48.337 64.073 28.434
H 47.409 59.36 27.676
H 46.127 60.03 28.137
