51
xyz format
O 40.58 71.96 51.324
O 43.198 71.925 49.376
O 44.064 70.738 47.13
O 44.923 69.41 49.975
O 42.36 74.43 51.431
O 42.549 75.651 53.252
O 46.604 71.79 52.932
O 45.913 75.626 50.034
O 46.061 73.681 54.138
O 43.137 74.945 48.592
O 42.982 73.392 53.7
O 45.492 72.766 46.761
O 45.407 72.069 49.331
O 44.864 75.995 53.24
O 43.944 71.675 52.405
O 46.46 73.561 50.56
O 42.354 69.544 51.287
O 43.266 77.536 50.451
H 45.561 71.49 48.575
H 45.131 72.903 48.929
H 44.309 77.8 47.27
H 45.776 78.085 52.679
H 44.598 71.665 51.695
H 43.106 71.532 51.947
H 45.257 73.338 53.729
H 46.608 73.942 53.387
H 45.903 76.458 50.523
H 45.186 75.72 49.407
H 46.761 71.459 52.039
H 46.658 70.999 53.483
H 45.821 75.997 53.37
H 44.707 75.207 52.706
H 45.817 68.84 51.958
H 42.577 76.418 52.665
H 42.071 73.541 51.674
H 43.081 74.275 50.809
H 43.903 77.183 51.085
H 42.548 77.863 51.007
H 44.35 70.178 50.093
H 45.811 69.788 49.948
H 43.526 75.571 47.969
H 43.363 74.083 48.222
H 43.237 72.641 54.25
H 42.115 73.644 54.043
H 44.888 70.363 54.624
H 45.608 73.496 51.01
H 47.104 73.494 51.277
H 42.762 71.265 48.823
H 42.484 72.273 49.924
H 40.613 71.287 50.633
H 42.202 69.789 50.365
