42
xyz format
O 37.77 49.323 42.741
O 37.008 46.736 44.303
O 38.688 48.38 45.352
O 36.678 46.875 40.602
O 35.934 45.985 42.469
O 36.566 48.865 45.684
O 34.865 50.637 46.801
O 35.203 50.261 44.664
O 38.213 45.197 46.694
O 33.772 47.17 47.384
O 35.656 48.968 42.243
O 36.908 47.584 47.915
O 38.523 46.114 42.817
O 37.774 43.969 44.9
H 35.943 50.747 44.28
H 34.426 50.687 44.28
H 33.967 50.691 46.451
H 34.847 49.85 47.359
H 34.805 44.562 43.748
H 36.011 48.132 45.979
H 36.863 49.273 46.506
H 36.328 48.213 48.361
H 36.547 46.724 48.165
H 35.176 46.504 42.173
H 35.947 45.232 41.865
H 34.526 46.575 47.292
H 33.969 47.886 46.767
H 39.064 45.216 46.24
H 32.735 48.884 48.294
H 38.842 47.977 46.215
H 39.529 48.807 45.145
H 33.945 46.458 44.453
H 37.62 46.484 45.005
H 36.154 46.412 44.615
H 35.128 48.58 42.952
H 35.235 49.822 42.084
H 37.878 50.175 43.182
H 37.559 48.716 43.462
H 38.122 46.88 42.387
H 38.07 45.362 42.417
H 33.673 48.672 44.737
H 37.299 44.178 44.086
