35
xyz format
O 46.363 47.688 49.017
O 49.172 45.68 46.848
N 47.255 47.449 45.656
N 47.151 45.013 48.815
C 48.957 45.954 50.29
C 44.622 43.983 46.852
C 45.26 44.81 45.927
C 48.16 48.371 50.547
C 48.154 46.94 51.113
C 46.527 44.474 45.431
C 45.238 42.808 47.286
C 47.138 43.291 45.869
C 47.358 48.43 49.217
C 47.997 46.502 44.861
C 48.149 44.729 49.876
C 46.498 42.464 46.792
C 47.172 45.301 44.376
H 46.634 44.163 48.564
H 47.62 45.375 47.967
H 49.811 45.563 50.91
H 47.593 44.314 50.765
H 46.373 45.688 43.682
H 47.091 46.597 51.226
H 46.49 45.733 49.144
H 44.715 42.134 47.983
H 44.74 45.706 45.551
H 43.611 44.238 47.21
H 46.97 41.517 47.098
H 48.118 42.997 45.462
H 48.851 43.939 49.48
H 47.86 44.657 43.762
H 49.235 48.678 50.337
H 48.594 46.979 52.149
H 49.412 46.442 49.385
H 46.477 47.113 46.174
