50
xyz format
O 51.751 59.64 43.556
O 55.795 60.641 40.337
O 48.723 61.078 40.356
O 50.45 60.463 41.983
O 47.823 59.757 44.75
O 50.964 58.471 40.09
O 47.869 57.755 41.356
O 50.168 59.763 45.276
O 54.237 59.335 38.115
O 48.895 63.842 41.633
O 55.293 63.072 41.956
O 50.905 62.574 44.425
O 51.839 62.809 41.651
O 47.96 60.817 42.826
O 52.727 62.421 39.125
O 45.643 59.188 41.251
O 52.623 59.858 41.431
H 52.089 63.519 42.254
H 52.386 62.065 41.933
H 54.418 62.882 41.595
H 51.764 62.316 44.068
H 50.472 63.017 43.684
H 45.156 58.413 40.944
H 46.34 59.297 40.592
H 50.001 56.851 41.436
H 51.855 62.024 39.248
H 53.33 61.77 39.504
H 48.701 63.202 40.938
H 49.857 63.923 41.608
H 48.35 58.456 40.9
H 50.988 60.171 45.582
H 50.376 58.82 45.253
H 54.479 60.094 38.66
H 53.476 58.957 38.574
H 53.358 59.364 41.048
H 52.204 60.274 40.668
H 52.026 58.747 43.799
H 52.441 60.202 43.931
H 51.193 58.913 39.263
H 51.533 57.691 40.098
H 48.217 58.876 44.774
H 48.025 60.122 45.621
H 48.974 60.57 39.575
H 47.761 61.126 40.299
H 50.027 61.291 42.24
H 49.718 59.836 41.935
H 56.506 60.386 40.938
H 55.074 60.891 40.927
H 47.668 61.693 42.543
H 47.443 60.215 42.276
