43
xyz format
Na 47.489 37.29 62.212
O 51.408 38.624 57.022
O 50.233 42.399 59.323
O 50.47 40.888 56.059
O 50.982 37.216 62.935
O 53.238 39.604 64.257
O 50.461 40.554 64.247
O 47.968 41.509 59.92
O 53.432 41.067 61.428
O 52.072 42.394 57.726
O 51.472 40.468 59.169
O 52.185 42.86 61.964
O 48.643 38.698 57.426
O 47.348 39.235 63.286
O 50.201 38.684 61.455
H 55.121 42.085 62.992
H 47.891 44.3 59.121
H 51.384 43.011 57.447
H 52.887 42.798 57.405
H 51.593 42.329 61.416
H 51.05 39.992 59.895
H 52.007 41.137 59.615
H 48.426 38.737 58.366
H 53.646 40.315 60.862
H 53.142 38.071 60.416
H 48.691 41.07 60.387
H 47.557 40.797 59.414
H 53.533 40.716 62.322
H 50.837 40.251 63.411
H 49.553 40.791 64.018
H 52.521 39.243 64.793
H 53.39 38.923 63.589
H 51.929 37.373 63.031
H 50.092 40.012 55.911
H 49.742 41.39 56.446
H 49.814 43.268 59.361
H 49.786 41.961 58.588
H 49.526 38.172 60.992
H 49.77 39.531 61.624
H 51.997 38.881 57.743
H 50.821 37.973 57.427
H 47.713 39.466 62.423
H 48.074 38.776 63.727
