27
xyz format
O 43.992 24.817 43.626
O 39.813 27.995 42.506
O 38.546 26.21 42.283
O 47.631 28.186 41.32
O 46.899 27.467 43.896
O 43.006 29.024 43.006
O 45.559 27.575 42.147
O 42.198 26.308 42.487
O 42.5 24.114 45.083
H 42.93 26.565 41.912
H 41.424 26.369 41.914
H 47.681 27.239 41.141
H 47.224 28.549 40.523
H 38.654 25.824 41.405
H 38.707 25.469 42.881
H 42.375 28.644 42.383
H 43.567 29.583 42.454
H 40.048 28.067 41.572
H 40.003 28.873 42.858
H 46.155 27.987 44.224
H 44.5 26.951 45.37
H 45.427 26.801 41.586
H 44.704 27.692 42.582
H 41.919 24.392 44.364
H 41.89 23.833 45.776
H 44.221 24.388 42.793
H 44.233 25.741 43.482
