90
xyz format
O 32.33 43.493 36.27
O 32.586 46.087 34.72
O 25.972 52.103 35.086
O 28.288 44.115 42.157
O 31.442 49.918 38.638
O 27.779 46.239 43.778
O 25.063 46.875 39.686
O 31.434 51.37 36.637
O 25.132 49.206 37.179
O 27.21 44.915 40.162
O 30.16 50.975 34.524
O 32.903 48.551 33.609
O 30.109 48.309 36.131
O 26.284 47.246 41.59
O 28.584 45.546 34.732
O 22.985 51.131 41.585
O 27.125 44.516 37.501
O 26.765 48.709 43.978
O 23.17 48.138 40.886
O 29.174 51.139 37.763
O 28.235 43.314 33.495
O 27.318 50.233 41.013
O 30.272 42.39 37.595
O 29.516 50.703 41.081
O 29.133 42.04 35.199
O 25.801 44.315 43.516
O 29.254 46.596 38.507
O 27.812 50.917 34.873
O 27.327 49.045 38.502
O 30.609 45.454 35.664
O 30.038 48.87 33.103
H 33.686 49.679 37.39
H 29.477 50.486 37.119
H 28.842 51.862 37.216
H 23.726 50.818 41.051
H 22.62 51.859 41.067
H 30.213 50.563 40.428
H 29.982 51.086 41.835
H 27.721 48.576 43.969
H 26.547 48.869 43.051
H 30.518 48.127 33.489
H 29.392 52.872 43.109
H 31.05 48.136 36.002
H 29.678 47.537 35.742
H 27.193 44.968 36.651
H 27.498 43.643 37.328
H 27.641 50.188 34.264
H 28.034 51.655 34.291
H 25.695 46.54 41.886
H 27.167 46.881 41.728
H 29.152 45.95 37.797
H 29.618 47.371 38.061
H 28.045 43.861 32.723
H 28.597 42.503 33.117
H 31.364 52.526 40.33
H 27.49 50.506 41.923
H 26.363 50.095 40.992
H 28.81 53.902 36.316
H 29.503 52.785 39.184
H 27.646 45.417 34.545
H 28.918 45.985 33.94
H 26.188 44.541 42.661
H 26.455 52.316 41.203
H 29.791 42.721 35.014
H 28.455 42.508 35.703
H 31.092 45.958 36.331
H 30.423 44.614 36.101
H 26.772 48.278 38.314
H 28.019 48.998 37.83
H 26.747 44.193 39.719
H 27.744 45.309 39.46
H 29.88 50.168 34.976
H 33.753 47.768 35.531
H 23.022 47.849 39.977
H 22.613 48.921 40.972
H 24.568 49.939 36.902
H 25.862 49.226 36.547
H 32.1 50.622 38.596
H 31.533 49.467 37.79
H 27.003 46.003 44.302
H 24.688 47.016 38.807
H 25.973 46.61 39.506
H 32.043 51.162 35.917
H 30.916 52.108 36.292
H 25.553 51.522 35.733
H 26.54 52.671 35.622
H 31.993 46.634 34.189
H 28.386 45.065 42.017
H 32.307 43.099 37.15
H 32.673 44.382 36.425
