39
xyz format
O 37.534 56.033 29.941
O 42.253 57.387 25.26
O 40.502 58.425 30.405
O 43.851 58.259 29.088
O 41.24 62.051 28.177
O 39.495 59.998 27.26
O 40.437 55.974 29.266
O 39.134 55.815 32.179
O 39.988 57.619 27.493
O 43.197 60.591 29.351
O 43.399 62.901 25.854
O 39.422 58.85 32.292
O 42.38 58.904 26.848
H 39.138 57.662 27.947
H 40.625 57.873 28.172
H 42.513 60.266 29.951
H 43.138 61.551 29.435
H 40.697 62.613 27.609
H 40.671 61.877 28.937
H 40.287 60.022 27.812
H 38.83 60.449 27.794
H 39.533 55.687 29.088
H 40.941 55.62 28.522
H 43.388 57.548 28.627
H 44.327 58.717 28.384
H 44.858 60.701 25.605
H 43.843 62.601 25.051
H 43.006 62.096 26.214
H 39.584 58.228 30.182
H 40.84 57.588 30.746
H 38.954 62.081 30.335
H 37.333 55.72 29.05
H 37.838 56.939 29.803
H 41.719 59.3 26.266
H 42.427 59.517 27.592
H 40.296 59.232 32.442
H 38.817 59.525 32.626
H 39.471 55.637 31.293
H 38.835 56.732 32.131
