182
xyz format
Cl 37.891 57.32 40.296
O 32.315 48.439 42.319
O 40.731 52.618 34.97
O 37.31 55.407 44.233
O 35.102 57.256 39.707
O 44.069 47.956 40.226
O 36.513 45.187 44.505
O 38.103 49.843 35.277
O 39.125 47.015 42.626
O 40.704 45.48 41.823
O 37.686 50.475 43.12
O 42.43 47.909 31.602
O 34.655 55.46 41.57
O 42.585 54.301 45.253
O 41.486 47.874 38.301
O 38.138 55.175 35.939
O 36.562 56.608 42.523
O 43.042 51.639 34.407
O 40.121 46.21 33.33
O 37.529 49.065 38.5
O 37.765 58.814 36.107
O 38.888 55.233 33.869
O 31.906 45.28 42.71
O 36.796 42.031 38.817
O 38.257 56.669 38.227
O 39.259 47.395 39.757
O 38.444 52.753 37.304
O 34.273 53.97 43.81
O 33.535 52.256 39.381
O 35.824 41.369 40.858
O 40.999 51.611 41.83
O 39.313 55.61 40.56
O 35.544 51.339 36.206
O 37.699 46.1 35.331
O 34.51 56.651 43.926
O 37.299 43.243 42.414
O 40.844 53.566 39.733
O 36.119 44.928 36.341
O 34.138 58.556 42.15
O 41.817 51.745 38.294
O 34.155 46.117 42.69
O 35.262 46.446 39.261
O 42.701 49.659 39.971
O 40.522 49.641 34.139
O 35.005 49.085 37.852
O 42.512 53.63 32.996
O 36.748 52.714 41.824
O 35.084 50.509 42.688
O 38.651 51.289 39.796
O 36.645 48.305 43.311
O 36.793 49.098 45.475
O 42.782 48.568 35.436
O 39.437 48.317 37.332
O 34.455 48.584 40.111
O 35.683 53.865 36.088
O 40.893 52.177 32.284
O 39.714 45.591 37.707
O 38.247 52.869 34.141
O 39.694 54.139 43.373
O 36.593 54.58 39.25
O 39.632 44.887 44.418
O 41.538 55.31 35.458
H 42.374 54.575 33.138
H 43.136 53.597 32.26
H 43.44 48.212 36.047
H 35.617 48.865 37.139
H 42.121 48.964 36.017
H 35.202 49.066 40.488
H 36.269 47.645 43.907
H 36.538 47.911 42.436
H 34.345 49.644 37.423
H 36.39 53.579 42.062
H 37.507 52.611 42.412
H 36.773 44.779 37.036
H 40.794 54.002 40.593
H 40.216 52.837 39.808
H 35.287 44.655 36.748
H 40.322 57.384 42.722
H 39.815 45.266 38.61
H 38.52 52.583 35.021
H 37.317 52.615 34.095
H 41.953 49.751 39.367
H 43.461 49.921 39.436
H 40.562 45.387 37.293
H 34.553 59.319 41.729
H 33.376 58.37 41.586
H 36.522 53.39 36.051
H 38.767 43.563 39.528
H 35.297 53.585 36.928
H 34.266 47.904 40.769
H 39.102 50.545 40.213
H 38.361 51.829 40.541
H 40.592 49.548 33.18
H 40.166 50.531 34.257
H 43.79 50.119 37.158
H 38.592 57.548 38.012
H 38.314 45.529 34.853
H 37.9 46.983 34.997
H 36.041 50.848 35.541
H 35.974 51.099 37.037
H 34.927 41.595 40.585
H 33.029 53.051 39.173
H 34.396 52.596 39.651
H 41.502 52.427 41.945
H 41.274 51.293 40.961
H 38.79 55.404 41.345
H 40.063 56.108 40.908
H 35.331 56.355 44.339
H 37.376 56.657 37.833
H 34.384 49.993 43.107
H 34.825 51.424 42.853
H 36.041 55.127 38.677
H 37.486 54.727 38.917
H 36.608 43.547 41.813
H 38.017 43.873 42.274
H 37.563 41.513 38.54
H 36.214 42.008 38.047
H 44.231 50.214 41.791
H 39.267 52.932 37.776
H 37.986 52.122 37.873
H 39.144 48.31 40.041
H 38.731 46.891 40.388
H 34.212 53.534 42.951
H 35.063 53.582 44.208
H 43.209 45.993 37.536
H 31.543 45.893 42.059
H 38.742 56.172 34.038
H 39.534 55.227 33.152
H 39.906 56.54 36.512
H 39.644 47.048 33.379
H 40.388 46.045 34.243
H 39.171 47.393 43.513
H 38.823 46.111 42.777
H 43.035 52.461 34.913
H 37.228 48.209 38.831
H 37.272 49.683 39.196
H 37.698 57.855 36.023
H 37.319 59.003 36.942
H 37.382 57.109 42.426
H 36.771 55.75 42.134
H 38.278 54.904 36.854
H 37.243 55.536 35.941
H 34.119 56.251 41.707
H 41.665 47.196 38.965
H 41.504 47.388 37.467
H 34.038 54.83 41.178
H 41.695 54.027 45.505
H 41.66 48.426 31.336
H 42.247 47.028 31.253
H 38.645 50.485 43.011
H 37.363 50.122 42.282
H 40.167 44.955 41.216
H 41.111 46.144 41.254
H 41.436 52.402 31.518
H 41.432 51.539 32.768
H 37.986 50.495 34.576
H 35.408 58.17 39.65
H 35.755 56.831 40.277
H 38.507 49.091 34.826
H 39.934 48.998 36.863
H 39.442 47.568 36.722
H 41.357 55.401 38.61
H 34.754 46.979 38.636
H 35.713 45.803 38.7
H 34.492 47.018 42.771
H 42.277 54.314 38.083
H 34.487 45.824 41.832
H 41.126 55.604 34.636
H 41.939 52.151 37.427
H 40.94 51.344 38.238
H 36.474 45.478 43.586
H 37.459 45.155 44.695
H 43.377 47.337 40.489
H 38.188 55.77 44.06
H 39.709 53.245 43.009
H 39.629 53.997 44.326
H 37.477 54.469 44.391
H 39.585 45.716 44.91
H 32.411 47.711 42.946
H 40.482 53.25 34.284
H 41.058 53.175 35.688
H 31.939 48.018 41.536
