39
xyz format
O 37.741 56.897 68.277
O 39.899 60.189 68.296
O 36.647 56.414 65.243
O 34.465 56.317 67.248
O 40.328 58.319 65.298
O 39.651 55.792 66.746
O 33.071 56.098 65.026
O 40.68 60.52 63.249
O 37.689 60.247 64.995
O 35.661 60.035 66.811
O 37.19 54.806 67.572
O 34.723 62.614 67.073
O 38.013 59.058 66.887
H 38.817 58.546 67.044
H 37.822 59.454 67.747
H 35.113 59.276 66.571
H 35.69 60.0 67.775
H 40.094 60.579 64.014
H 39.486 58.643 64.953
H 34.292 61.837 67.452
H 35.631 62.322 66.924
H 40.041 56.314 67.458
H 39.349 54.989 67.188
H 33.726 56.785 64.851
H 32.723 56.329 65.897
H 39.379 58.815 62.761
H 41.348 61.094 65.967
H 35.391 56.511 67.055
H 34.458 56.156 68.2
H 36.98 57.28 64.976
H 35.864 56.289 64.692
H 39.775 60.497 67.389
H 38.738 62.105 66.303
H 37.063 60.892 65.348
H 37.144 59.468 64.825
H 38.372 57.355 68.846
H 36.971 57.479 68.273
H 37.183 54.771 66.607
H 36.274 54.626 67.815
