141
xyz format
O 54.453 56.755 39.842
O 51.751 59.64 43.556
O 52.703 53.557 40.845
O 50.118 59.605 35.868
O 55.795 60.641 40.337
O 53.649 54.883 36.971
O 48.723 61.078 40.356
O 50.45 60.463 41.983
O 48.924 50.386 40.746
O 50.964 58.471 40.09
O 57.059 61.949 36.604
O 47.869 57.755 41.356
O 50.168 59.763 45.276
O 54.237 59.335 38.115
O 51.207 52.913 38.078
O 54.616 60.248 35.118
O 48.397 65.069 39.805
O 52.165 58.072 35.945
O 57.741 58.74 36.33
O 49.989 55.99 41.873
O 50.844 62.099 37.121
O 51.132 54.952 35.903
O 48.895 63.842 41.633
O 56.273 59.946 33.503
O 53.953 64.891 39.245
O 57.233 58.595 38.722
O 51.696 65.656 40.213
O 55.261 57.088 32.938
O 54.748 63.329 34.566
O 59.491 59.983 35.846
O 51.325 55.259 43.721
O 51.332 56.014 38.196
O 55.293 63.072 41.956
O 50.905 62.574 44.425
O 52.03 62.043 33.772
O 51.839 62.809 41.651
O 55.5 60.524 43.901
O 50.159 65.868 36.503
O 49.132 54.37 36.61
O 54.216 54.975 43.071
O 48.454 60.024 37.289
O 47.816 63.835 36.781
O 52.727 62.421 39.125
O 47.215 54.53 39.914
O 49.821 63.232 39.043
O 52.623 59.858 41.431
O 51.146 64.523 34.918
O 45.127 59.031 38.776
O 56.162 64.145 38.985
H 51.685 56.05 43.3
H 51.284 54.616 43.003
H 52.089 63.519 42.254
H 52.386 62.065 41.933
H 54.418 62.882 41.595
H 55.779 63.427 41.202
H 50.568 56.014 38.786
H 52.087 56.004 38.798
H 49.247 63.066 38.285
H 50.569 63.711 38.665
H 53.675 60.06 35.224
H 55.048 59.534 35.604
H 54.909 62.402 34.784
H 52.767 61.874 34.372
H 51.275 62.16 34.363
H 51.764 62.316 44.068
H 50.472 63.017 43.684
H 46.34 59.297 40.592
H 50.001 56.851 41.436
H 49.175 55.581 41.552
H 51.624 62.05 36.554
H 56.493 59.211 38.8
H 50.107 62.084 36.498
H 51.609 64.733 40.483
H 51.324 65.669 39.322
H 54.516 57.202 33.54
H 56.016 56.967 33.527
H 54.034 64.341 38.456
H 55.732 59.148 33.549
H 57.0 59.765 34.112
H 51.855 62.024 39.248
H 53.33 61.77 39.504
H 48.701 63.202 40.938
H 49.857 63.923 41.608
H 56.854 58.406 36.509
H 48.35 58.456 40.9
H 47.607 57.156 40.645
H 50.988 60.171 45.582
H 50.376 58.82 45.253
H 56.912 61.978 35.65
H 47.758 64.65 39.215
H 58.011 61.809 36.685
H 49.086 65.387 39.208
H 50.985 55.7 35.311
H 58.945 60.207 35.082
H 54.479 60.094 38.66
H 53.476 58.957 38.574
H 53.358 59.364 41.048
H 52.204 60.274 40.668
H 50.743 52.927 38.925
H 51.204 53.837 37.8
H 51.911 57.313 36.485
H 52.664 58.63 36.555
H 48.614 59.083 37.436
H 47.679 60.212 37.833
H 53.716 54.235 43.438
H 53.656 55.295 42.352
H 48.536 52.391 38.921
H 45.905 61.889 38.775
H 52.026 58.747 43.799
H 52.441 60.202 43.931
H 50.611 65.296 37.137
H 50.352 66.759 36.821
H 51.193 58.913 39.263
H 51.533 57.691 40.098
H 45.734 58.568 38.186
H 47.12 56.892 38.516
H 51.832 65.092 34.548
H 51.6 64.044 35.623
H 56.448 63.223 38.954
H 49.862 50.579 40.627
H 48.746 55.252 36.686
H 49.016 53.993 37.491
H 48.974 60.57 39.575
H 47.761 61.126 40.299
H 53.556 64.745 36.346
H 50.027 61.291 42.24
H 49.718 59.836 41.935
H 50.638 59.48 36.671
H 50.617 60.265 35.372
H 53.073 53.784 39.983
H 51.796 53.884 40.799
H 47.246 63.437 37.45
H 47.825 64.771 37.015
H 53.422 55.817 37.055
H 53.335 54.495 37.797
H 56.506 60.386 40.938
H 55.074 60.891 40.927
H 46.869 54.091 40.701
H 48.17 54.41 39.984
H 54.799 56.23 40.574
H 54.346 56.113 39.129
