45
xyz format
O 48.932 74.673 45.769
O 42.36 74.43 51.431
O 45.392 75.422 45.818
O 42.549 75.651 53.252
O 45.913 75.626 50.034
O 43.137 74.945 48.592
O 46.99 75.288 48.146
O 44.074 77.278 46.493
O 44.864 75.995 53.24
O 41.787 76.941 48.916
O 48.296 77.728 46.186
O 48.954 76.999 48.202
O 46.357 78.554 52.067
O 43.266 77.536 50.451
H 46.283 73.282 46.563
H 44.852 73.066 46.104
H 43.114 77.202 46.55
H 44.309 77.8 47.27
H 46.995 77.883 51.796
H 45.776 78.085 52.679
H 47.287 75.485 47.249
H 47.197 74.352 48.255
H 50.702 78.027 46.608
H 45.903 76.458 50.523
H 45.186 75.72 49.407
H 45.821 75.997 53.37
H 44.707 75.207 52.706
H 50.094 78.603 49.363
H 42.841 76.003 54.102
H 42.577 76.418 52.665
H 45.874 76.255 45.748
H 45.782 74.873 45.126
H 43.081 74.275 50.809
H 43.903 77.183 51.085
H 42.548 77.863 51.007
H 49.606 76.547 48.752
H 48.318 77.346 48.84
H 43.526 75.571 47.969
H 43.363 74.083 48.222
H 47.504 77.953 45.683
H 48.494 76.825 45.909
H 49.303 74.846 46.644
H 49.707 74.641 45.194
H 42.106 77.715 48.437
H 41.079 77.291 49.472
