30
xyz format
O 55.05 29.987 34.027
O 52.3 31.798 35.173
O 53.874 28.182 34.482
O 57.266 30.748 33.858
O 54.054 28.79 31.82
O 51.196 29.812 33.687
O 49.57 30.11 35.451
O 50.742 28.711 31.832
O 52.116 26.022 34.088
O 50.182 27.31 36.279
H 51.446 29.172 34.365
H 52.002 29.924 33.168
H 54.25 32.346 33.53
H 50.065 29.532 36.044
H 55.526 30.629 31.978
H 54.06 30.99 31.808
H 51.065 27.81 31.709
H 49.807 28.593 32.042
H 52.677 25.942 34.869
H 51.245 25.75 34.403
H 54.957 26.289 34.772
H 53.543 27.982 31.682
H 54.867 28.635 31.323
H 49.727 26.708 35.676
H 51.112 27.217 36.038
H 51.581 31.807 34.53
H 54.428 30.438 34.612
H 55.625 29.504 34.634
H 53.188 27.929 33.852
H 53.428 28.137 35.337
