33
xyz format
O 54.276 40.381 53.43
O 57.624 35.185 56.593
O 57.952 31.834 54.264
O 56.144 35.509 52.173
O 55.46 34.327 55.566
O 56.327 38.29 51.963
O 53.015 37.777 52.292
O 57.708 34.175 53.621
O 54.926 38.322 54.83
O 54.099 35.935 53.144
O 56.712 36.168 54.569
H 52.309 37.266 52.707
H 55.957 35.847 51.288
H 56.984 35.924 52.404
H 56.155 38.031 51.049
H 55.81 39.098 52.074
H 57.575 30.651 56.614
H 58.456 31.958 55.077
H 57.036 31.958 54.54
H 58.905 33.112 52.112
H 54.564 32.296 56.072
H 56.759 33.997 53.647
H 57.935 34.339 54.545
H 54.164 38.089 54.285
H 55.62 38.51 54.185
H 55.254 34.72 56.423
H 56.198 33.734 55.757
H 53.798 39.747 52.881
H 54.405 36.738 56.639
H 54.366 35.146 53.633
H 53.692 35.581 52.344
H 57.53 36.641 54.768
H 56.09 36.498 55.229
