35
xyz format
O 57.782 65.822 55.598
O 54.899 66.253 56.186
O 54.912 63.025 55.92
O 53.481 67.473 57.748
O 58.991 62.781 56.522
O 57.288 67.433 57.747
O 52.492 64.562 57.905
O 56.04 65.471 60.968
O 58.993 65.84 58.401
O 56.236 63.753 58.922
O 56.036 67.297 59.66
H 56.986 66.541 57.532
H 57.627 67.769 56.908
H 59.774 65.658 58.939
H 58.367 65.156 58.667
H 57.48 61.384 57.351
H 56.552 65.032 61.658
H 55.399 66.0 61.459
H 53.215 64.64 58.54
H 51.841 65.201 58.22
H 52.874 66.896 57.268
H 53.805 68.079 57.07
H 58.877 63.508 57.146
H 58.307 62.937 55.86
H 55.573 62.913 56.614
H 54.46 62.172 55.894
H 54.836 65.455 55.646
H 54.893 65.919 57.091
H 55.369 63.333 58.861
H 56.082 64.646 58.592
H 56.912 66.12 55.304
H 57.594 65.007 56.079
H 55.566 69.397 57.094
H 55.319 66.847 59.196
H 55.983 68.206 59.338
