247
xyz format
O 37.674 62.161 44.145
O 36.606 63.094 56.505
O 37.31 55.407 44.233
O 41.103 62.508 44.769
O 37.931 60.471 53.901
O 39.285 53.007 47.473
O 32.132 58.5 47.734
O 35.102 57.256 39.707
O 37.08 55.562 47.297
O 37.755 62.105 46.953
O 41.774 61.694 60.902
O 38.707 66.183 47.045
O 40.968 65.539 56.943
O 36.858 61.114 59.291
O 40.171 65.209 50.172
O 32.671 58.778 54.834
O 31.409 55.62 55.136
O 35.319 59.972 44.317
O 33.244 55.411 51.551
O 34.655 55.46 41.57
O 42.585 54.301 45.253
O 33.199 56.0 47.064
O 36.562 56.608 42.523
O 39.156 57.735 51.869
O 43.249 60.23 49.49
O 42.154 56.081 49.342
O 36.404 63.408 51.707
O 43.199 59.069 52.856
O 38.965 66.823 53.141
O 37.117 53.611 49.614
O 37.98 61.849 49.584
O 41.536 55.91 53.992
O 42.476 63.403 52.692
O 35.53 54.791 50.58
O 41.833 52.719 51.41
O 39.231 55.662 52.602
O 39.093 54.841 49.408
O 42.942 56.44 51.365
O 37.167 62.634 53.935
O 36.416 56.658 52.697
O 34.273 53.97 43.81
O 37.486 64.982 49.031
O 34.535 62.237 44.918
O 37.083 59.265 52.119
O 37.662 60.621 56.757
O 38.521 63.858 59.186
O 38.254 58.189 56.949
O 34.51 56.651 43.926
O 34.253 58.878 52.678
O 33.76 56.562 49.115
O 40.901 56.159 56.451
O 36.942 57.388 49.056
O 34.138 58.556 42.15
O 32.503 58.575 43.62
O 35.855 63.398 47.553
O 39.793 57.161 47.521
O 41.092 67.564 52.382
O 34.218 56.081 54.224
O 39.622 62.98 55.82
O 42.318 62.905 58.41
O 41.805 65.784 53.786
O 43.031 60.31 55.824
O 39.742 60.3 45.758
O 33.446 62.059 48.928
O 40.423 58.447 55.45
O 35.619 56.798 56.599
O 36.579 57.889 54.513
O 39.903 62.408 52.407
O 38.981 64.24 53.934
O 36.11 60.84 47.736
O 38.238 60.056 48.334
O 37.082 53.834 53.931
O 33.647 60.381 46.524
O 33.487 59.015 49.763
O 39.694 54.139 43.373
O 40.401 59.478 49.978
O 31.232 57.247 52.366
O 38.775 64.348 45.338
O 37.222 65.602 51.125
O 36.283 51.769 52.254
O 39.863 60.972 59.542
O 40.291 60.584 57.416
O 37.324 58.12 45.849
H 36.794 65.554 51.989
H 37.758 66.403 51.179
H 34.124 56.917 49.935
H 41.971 62.951 57.51
H 36.39 53.579 42.062
H 42.539 65.047 58.921
H 43.262 62.744 58.283
H 41.548 66.171 54.633
H 39.959 59.576 45.157
H 39.519 61.03 45.166
H 33.578 55.49 53.809
H 34.854 55.481 54.632
H 42.548 66.331 53.502
H 39.26 62.885 56.71
H 40.475 63.407 55.963
H 36.153 57.668 49.536
H 37.603 57.272 49.749
H 41.057 67.638 48.22
H 33.065 55.962 49.414
H 34.553 59.319 41.729
H 33.376 58.37 41.586
H 32.913 59.165 44.265
H 32.052 57.918 44.164
H 33.785 62.043 48.025
H 33.672 61.187 49.274
H 38.814 64.719 54.755
H 39.941 64.139 53.918
H 35.748 61.207 48.553
H 35.591 61.267 47.043
H 39.577 63.152 51.886
H 40.276 61.811 51.747
H 39.755 58.512 54.756
H 41.149 57.973 55.027
H 35.049 57.23 55.951
H 36.284 56.353 56.059
H 35.991 58.645 54.389
H 37.457 58.249 54.336
H 38.4 57.578 56.216
H 37.312 58.391 56.895
H 38.702 55.565 48.903
H 38.723 54.952 50.293
H 38.591 54.967 52.801
H 39.274 56.175 53.418
H 38.405 64.178 58.283
H 37.859 63.16 59.269
H 38.096 61.103 57.472
H 36.744 60.916 56.805
H 34.068 57.148 44.626
H 35.331 56.355 44.339
H 37.977 59.406 43.083
H 35.485 62.263 45.085
H 34.472 61.976 43.991
H 40.437 53.244 53.039
H 38.983 52.805 53.07
H 36.368 59.786 52.506
H 36.71 58.946 51.288
H 36.422 63.126 54.303
H 37.78 62.558 54.677
H 38.107 65.716 49.109
H 36.622 65.412 49.014
H 42.874 60.971 56.509
H 42.149 59.971 55.625
H 38.003 63.907 45.716
H 38.591 64.361 44.391
H 34.825 51.424 42.853
H 34.184 59.735 52.238
H 34.561 58.286 51.98
H 36.604 55.849 53.19
H 35.729 56.392 52.073
H 43.229 56.992 52.103
H 43.308 55.572 51.573
H 34.212 53.534 42.951
H 35.063 53.582 44.208
H 41.432 56.595 53.319
H 41.552 55.09 53.483
H 34.394 59.241 50.001
H 32.956 59.462 50.434
H 42.042 63.613 53.528
H 42.807 64.256 52.384
H 36.0 55.455 50.061
H 34.709 54.657 50.09
H 32.987 60.689 45.891
H 33.848 59.484 46.228
H 38.39 59.746 47.433
H 38.699 61.953 50.219
H 37.211 61.66 50.137
H 37.552 59.465 48.668
H 42.578 52.395 50.888
H 41.886 53.678 51.315
H 42.708 59.702 52.317
H 44.12 59.331 52.737
H 39.686 66.279 53.482
H 38.171 66.394 53.484
H 36.394 53.158 49.163
H 36.297 63.562 50.76
H 37.33 63.147 51.793
H 42.179 55.615 48.496
H 42.194 57.013 49.091
H 43.62 60.483 50.345
H 37.612 52.895 50.031
H 31.08 54.821 49.311
H 39.121 58.65 51.564
H 39.389 57.238 51.075
H 40.724 61.253 56.871
H 41.025 60.067 57.77
H 37.382 57.109 42.426
H 34.15 55.908 46.928
H 36.771 55.75 42.134
H 32.856 56.171 46.178
H 34.119 56.251 41.707
H 41.695 54.027 45.505
H 42.601 55.244 45.458
H 33.122 54.15 55.828
H 31.165 55.415 56.047
H 32.099 56.288 55.228
H 33.157 56.333 51.822
H 32.335 55.139 51.369
H 33.072 58.527 55.675
H 35.146 59.025 44.252
H 35.706 60.075 45.195
H 32.93 58.066 54.235
H 39.857 53.006 46.695
H 33.035 58.162 47.787
H 38.394 53.01 47.101
H 31.654 57.804 47.266
H 35.408 58.17 39.65
H 36.576 55.605 46.475
H 36.46 55.172 47.926
H 41.026 64.952 50.54
H 39.58 65.196 50.935
H 36.302 53.678 53.385
H 40.498 64.946 57.543
H 40.261 66.025 56.5
H 40.667 57.551 47.394
H 39.884 56.271 47.16
H 36.153 64.248 47.206
H 35.273 63.64 48.284
H 40.995 68.156 53.139
H 40.789 68.095 51.635
H 37.522 58.827 45.221
H 38.808 66.661 46.212
H 39.462 65.582 47.057
H 41.455 62.443 60.383
H 42.243 61.151 60.257
H 38.705 62.111 47.124
H 37.652 61.449 46.252
H 37.245 57.336 45.292
H 40.258 60.429 49.895
H 41.598 61.748 45.1
H 40.899 63.013 45.566
H 38.766 60.528 54.382
H 37.267 60.424 54.6
H 38.188 55.77 44.06
H 40.542 59.187 49.069
H 39.629 53.997 44.326
H 37.477 54.469 44.391
H 31.328 58.193 52.199
H 31.087 57.196 53.319
H 37.128 62.849 43.742
H 37.891 61.58 43.406
H 35.675 63.032 56.752
H 36.847 63.998 56.74
H 37.168 52.094 52.049
H 39.426 61.635 60.091
