95
xyz format
O 66.077 51.943 48.352
O 62.752 58.048 44.383
O 67.809 53.637 41.01
O 65.141 55.078 45.493
O 65.816 54.329 48.2
O 65.525 52.671 44.585
O 62.787 52.349 46.174
O 60.875 56.202 50.356
O 67.53 55.478 44.629
O 67.36 55.888 52.61
O 70.148 55.109 49.272
O 63.951 57.903 46.767
O 67.002 54.671 50.022
O 64.779 53.145 50.193
O 69.945 53.596 43.675
O 62.31 52.908 43.54
O 68.991 57.036 50.856
O 62.898 54.962 51.608
O 61.818 53.825 48.639
O 68.911 55.426 42.911
O 63.529 50.618 50.228
O 70.116 53.973 46.542
O 70.421 51.212 48.57
O 71.703 56.515 48.601
O 64.109 55.729 48.859
O 61.716 55.792 45.973
O 66.894 57.467 45.327
O 68.467 53.516 52.803
O 67.769 53.237 47.772
H 71.036 53.802 46.303
H 70.036 54.932 46.47
H 69.825 51.744 48.029
H 71.287 51.36 48.169
H 69.766 52.788 44.173
H 62.5 53.147 48.548
H 60.993 53.336 48.529
H 70.089 54.26 44.36
H 64.782 60.642 47.755
H 63.142 55.79 52.04
H 62.996 55.156 50.668
H 68.25 55.805 42.318
H 69.426 56.19 43.198
H 70.473 54.656 51.476
H 68.705 53.405 51.874
H 69.144 54.116 53.142
H 68.362 56.811 50.159
H 70.452 54.417 48.671
H 69.555 55.641 48.727
H 63.225 57.679 47.362
H 64.643 58.221 47.36
H 64.725 53.574 51.056
H 65.176 52.287 50.388
H 66.576 59.367 47.728
H 66.873 53.794 50.404
H 66.197 55.147 50.262
H 72.345 56.221 47.943
H 72.248 56.917 49.289
H 62.806 53.46 44.157
H 63.651 50.978 47.854
H 64.837 50.073 47.571
H 62.068 52.136 44.067
H 66.941 57.538 46.289
H 67.686 55.121 45.512
H 67.005 54.794 44.195
H 66.613 58.346 45.046
H 66.85 56.557 52.137
H 67.838 55.427 51.91
H 64.615 56.175 48.167
H 63.699 54.986 48.4
H 60.803 55.315 50.729
H 61.866 52.299 46.461
H 63.056 53.242 46.421
H 62.126 55.729 46.845
H 62.006 54.987 45.525
H 65.39 55.715 53.511
H 68.548 53.672 41.63
H 67.944 54.413 40.45
H 63.812 50.677 51.149
H 65.448 53.984 47.377
H 69.201 51.56 45.909
H 64.823 52.659 45.248
H 66.269 52.248 45.031
H 62.893 59.82 46.982
H 65.298 55.949 45.878
H 64.193 55.076 45.309
H 66.452 54.994 47.907
H 68.082 53.198 46.86
H 68.379 53.852 48.198
H 66.6 49.41 50.183
H 62.288 57.799 45.192
H 63.679 57.865 44.584
H 65.502 58.1 52.934
H 66.084 51.876 47.389
H 66.789 51.354 48.629
H 63.675 58.836 50.381
