36
xyz format
O 35.998 54.064 51.222
O 36.685 59.221 51.626
O 35.803 57.681 53.654
O 40.293 57.193 52.427
O 36.032 56.502 49.186
O 38.01 56.638 51.62
O 36.446 54.914 54.061
O 35.492 58.963 47.841
O 41.558 54.762 51.557
O 41.164 55.004 53.881
O 37.87 56.507 47.514
H 37.253 55.153 54.533
H 35.792 54.81 54.764
H 35.941 59.571 48.441
H 35.045 58.346 48.433
H 40.145 58.063 52.036
H 40.361 56.607 51.663
H 33.817 58.675 50.24
H 38.015 57.433 52.167
H 38.375 56.936 50.778
H 36.566 57.216 49.556
H 36.083 55.808 49.856
H 40.33 55.489 53.83
H 35.786 58.569 54.032
H 35.948 57.109 54.418
H 33.839 56.592 49.437
H 42.181 57.907 53.293
H 42.713 56.493 53.448
H 35.897 53.928 52.173
H 38.956 58.362 53.923
H 38.244 57.1 54.377
H 37.837 55.765 48.13
H 35.764 59.128 51.899
H 36.653 59.111 50.668
H 38.881 54.256 52.7
H 42.094 57.181 50.043
