49
xyz format
O 46.699 55.348 70.014
O 47.298 56.666 66.583
O 43.318 58.978 68.133
O 42.532 51.14 70.219
O 41.727 60.218 65.82
O 42.291 57.22 66.609
O 40.328 58.319 65.298
O 39.651 55.792 66.746
O 43.846 53.612 67.873
O 43.627 58.729 63.446
O 45.484 55.421 68.155
O 41.46 54.421 67.434
O 45.016 57.813 65.766
O 41.594 51.597 66.938
O 43.662 53.147 64.699
O 42.631 53.482 71.005
O 41.748 55.727 63.732
O 43.461 55.677 69.217
H 44.285 59.029 64.086
H 44.875 57.855 66.72
H 45.843 58.294 65.635
H 43.01 58.21 63.978
H 41.487 54.352 66.472
H 41.95 55.232 67.619
H 45.053 55.486 67.293
H 45.827 54.519 68.172
H 41.552 60.379 63.638
H 41.492 55.071 64.392
H 41.845 56.68 65.945
H 42.428 58.065 66.163
H 43.574 53.887 66.988
H 43.073 53.145 68.215
H 42.89 52.83 65.185
H 39.486 58.643 64.953
H 40.875 58.217 64.51
H 40.041 56.314 67.458
H 39.349 54.989 67.188
H 45.41 54.664 65.141
H 41.149 52.222 67.523
H 41.348 61.094 65.967
H 42.594 60.27 66.241
H 42.124 51.624 69.49
H 43.314 59.93 68.291
H 43.323 58.597 69.02
H 44.123 55.641 69.92
H 42.625 55.755 69.693
H 43.529 53.636 70.686
H 42.078 53.693 70.242
H 46.642 56.275 65.992
