25
xyz format
O 34.394 51.205 31.691
O 33.687 53.546 30.518
O 32.397 53.663 28.188
O 29.438 51.371 32.483
O 29.126 52.297 30.21
O 33.038 56.375 30.754
O 31.907 51.609 30.454
O 30.718 55.772 29.42
O 30.038 48.87 33.103
H 32.141 54.501 27.784
H 33.219 53.433 27.738
H 29.776 51.655 29.899
H 29.644 53.101 30.343
H 30.348 48.892 32.189
H 31.733 52.445 30.905
H 31.696 50.942 31.118
H 28.762 50.829 32.056
H 29.09 52.269 32.412
H 33.616 52.858 29.845
H 33.117 54.251 30.186
H 33.628 51.778 31.826
H 31.045 54.893 29.65
H 31.481 56.202 29.015
H 30.91 50.689 33.988
H 32.178 56.106 31.099
