51
xyz format
O 52.342 61.133 68.723
O 56.1 64.089 69.08
O 57.996 62.756 72.8
O 56.806 65.979 70.41
O 60.838 65.916 69.691
O 54.183 62.051 70.321
O 50.248 60.15 67.523
O 59.336 67.61 69.825
O 52.026 64.899 71.153
O 57.734 62.056 70.046
O 51.398 61.435 71.409
O 58.262 65.909 72.617
O 60.908 65.06 71.969
O 54.29 59.603 71.774
O 58.313 64.255 69.655
O 55.033 62.941 73.36
H 53.972 60.508 71.883
H 54.331 59.265 72.677
H 57.06 61.458 70.391
H 57.393 62.312 69.18
H 52.008 62.149 71.633
H 51.93 60.841 70.865
H 55.16 60.785 68.304
H 55.163 62.128 72.856
H 55.644 62.852 74.101
H 54.013 66.558 69.433
H 58.743 66.85 69.774
H 59.645 67.599 70.739
H 50.401 59.529 68.246
H 50.229 61.011 67.959
H 55.074 62.366 70.123
H 53.617 62.596 69.76
H 60.314 65.808 71.83
H 60.312 64.305 72.047
H 57.952 66.693 72.146
H 58.196 65.205 71.959
H 57.431 65.266 67.523
H 61.784 65.986 69.867
H 60.71 64.981 69.492
H 56.409 66.776 70.037
H 56.227 65.76 71.15
H 58.911 63.894 70.322
H 58.793 64.133 68.827
H 57.141 63.05 72.464
H 58.297 63.497 73.341
H 58.654 60.149 71.156
H 55.381 64.665 69.368
H 55.838 63.822 68.19
H 52.309 64.108 70.678
H 52.63 65.584 70.84
H 53.046 60.486 68.851
