96
xyz format
O 66.121 45.513 38.924
O 64.031 51.341 44.377
O 64.604 47.698 38.415
O 66.621 52.795 42.105
O 66.392 51.721 46.319
O 68.359 53.757 45.048
O 60.9 53.637 42.399
O 61.759 54.27 40.455
O 63.452 39.721 38.422
O 57.719 49.829 39.951
O 64.857 50.772 40.612
O 64.144 53.274 38.829
O 62.986 46.464 36.113
O 65.165 47.032 46.246
O 68.068 48.982 41.737
O 66.562 41.831 43.525
O 65.39 48.78 42.197
O 68.838 48.405 44.145
O 66.528 44.207 44.978
O 66.283 54.042 38.206
O 63.801 44.419 39.232
O 63.889 48.487 44.361
O 67.752 44.824 41.232
O 68.444 50.941 43.388
O 61.68 51.384 41.407
O 62.95 51.331 38.411
O 60.099 51.609 38.492
O 61.584 49.742 39.357
O 63.256 52.89 42.31
O 68.317 46.49 43.192
O 62.036 48.956 41.945
O 62.215 49.074 35.902
H 67.036 44.707 41.869
H 62.41 51.524 40.791
H 60.894 51.456 40.852
H 62.963 49.028 36.51
H 61.472 48.755 36.429
H 67.72 47.997 46.432
H 68.695 46.543 42.306
H 67.608 50.969 43.87
H 69.11 50.899 44.086
H 67.485 45.602 40.727
H 67.495 46.991 43.121
H 59.831 48.649 41.599
H 66.345 53.27 38.781
H 66.204 54.782 38.821
H 66.959 44.728 44.289
H 66.812 44.631 45.797
H 63.859 47.718 43.779
H 63.901 49.236 43.751
H 64.073 43.498 39.324
H 63.217 44.562 39.988
H 69.569 48.794 44.641
H 68.066 48.895 44.452
H 63.801 53.186 36.305
H 62.731 47.006 35.356
H 62.191 46.448 36.661
H 64.143 52.951 42.687
H 62.731 52.501 43.02
H 66.021 46.676 45.976
H 64.528 46.475 45.781
H 68.266 49.697 41.119
H 67.842 48.239 41.163
H 67.368 42.135 43.96
H 65.13 48.528 41.303
H 65.966 49.543 42.062
H 64.621 51.192 41.449
H 64.526 51.386 39.945
H 60.83 54.106 40.25
H 62.034 54.904 39.781
H 63.324 50.879 37.644
H 62.251 51.88 38.035
H 61.359 54.412 42.745
H 67.569 53.342 44.681
H 61.462 40.714 36.462
H 62.203 41.877 37.099
H 63.408 53.215 39.45
H 64.108 54.186 38.515
H 67.344 51.725 46.156
H 66.241 50.882 46.771
H 57.835 50.462 40.67
H 58.547 49.332 39.947
H 63.334 40.421 39.077
H 66.286 52.469 42.95
H 67.425 52.279 41.964
H 62.84 49.481 41.84
H 60.151 52.431 38.996
H 59.44 51.089 38.969
H 61.841 49.023 42.888
H 61.342 48.952 39.856
H 61.261 49.558 38.466
H 64.461 49.58 46.195
H 63.863 48.294 38.58
H 65.09 47.7 39.249
H 65.818 44.767 38.391
H 66.381 46.172 38.269
