66
xyz format
O 24.435 52.12 58.149
O 26.849 60.057 54.334
O 25.545 57.242 53.404
O 26.051 54.568 53.65
O 27.03 56.027 62.615
O 24.667 54.222 59.785
O 23.41 55.128 53.207
O 23.282 58.677 55.427
O 23.237 53.586 54.766
O 26.615 54.378 57.226
O 28.495 54.48 53.532
O 24.858 59.765 52.328
O 26.198 57.436 59.973
O 27.778 54.359 59.092
O 22.733 55.279 57.197
O 26.679 52.413 55.351
O 24.417 57.124 57.337
O 25.51 60.993 57.648
O 28.419 58.854 61.089
O 27.274 56.449 55.15
O 27.133 58.615 57.404
H 26.901 55.283 57.048
H 25.663 54.404 57.07
H 27.748 55.321 59.153
H 27.525 54.065 59.976
H 27.156 57.344 59.901
H 26.034 58.346 59.698
H 22.332 55.241 56.319
H 22.679 54.368 57.512
H 23.076 50.791 56.144
H 30.228 54.75 55.98
H 23.885 54.065 55.297
H 23.368 52.664 55.021
H 23.905 57.597 58.004
H 23.36 57.915 54.839
H 23.173 59.422 54.823
H 24.81 56.391 57.828
H 23.914 55.345 52.413
H 22.539 54.888 52.867
H 24.413 54.434 58.878
H 23.836 54.274 60.274
H 27.677 58.605 51.812
H 26.583 60.985 54.341
H 27.286 59.936 55.186
H 25.971 52.427 59.696
H 27.259 53.169 55.504
H 26.016 52.488 56.049
H 27.235 57.712 57.73
H 27.773 59.119 57.922
H 27.701 56.614 54.3
H 27.911 56.781 55.795
H 28.046 59.464 60.44
H 25.833 54.781 54.566
H 25.67 53.69 53.522
H 28.95 54.123 54.305
H 25.663 59.242 52.432
H 24.149 59.13 52.494
H 25.873 57.821 54.103
H 24.913 56.67 53.858
H 26.523 55.882 61.806
H 27.827 55.499 62.483
H 24.111 61.628 53.395
H 23.808 52.42 57.479
H 25.018 60.163 57.638
H 23.876 51.915 58.909
H 26.257 60.824 57.061
