47
xyz format
O 63.784 46.708 48.397
O 61.473 44.715 48.2
O 61.746 48.45 48.04
O 62.426 43.614 45.743
O 57.069 50.944 47.434
O 59.399 49.094 44.669
O 56.906 48.665 42.027
O 59.223 46.933 46.829
O 58.55 44.819 46.721
O 56.784 47.336 45.397
O 59.949 43.914 44.681
O 59.438 46.785 42.027
O 58.58 48.821 49.111
O 59.887 50.759 47.083
O 60.832 46.359 45.268
H 61.772 46.577 45.259
H 60.514 46.676 44.414
H 59.73 44.599 44.038
H 60.765 50.376 47.203
H 59.906 51.096 46.178
H 57.513 46.716 45.269
H 57.151 48.004 45.988
H 56.865 49.026 42.921
H 57.456 47.877 42.123
H 59.269 47.868 46.593
H 59.423 46.925 47.773
H 60.208 48.851 44.202
H 58.804 48.354 44.498
H 56.66 50.152 47.804
H 57.307 51.463 48.213
H 61.894 44.407 45.599
H 59.614 45.235 49.385
H 61.371 48.078 47.232
H 61.621 47.75 48.693
H 59.497 44.631 46.733
H 58.293 44.766 47.65
H 61.528 45.592 47.8
H 61.845 44.842 49.082
H 63.274 48.61 46.244
H 62.142 48.826 45.255
H 59.0 46.478 42.83
H 61.974 44.967 43.432
H 59.516 48.606 49.204
H 58.583 49.756 48.871
H 58.973 49.494 42.499
H 63.766 45.75 48.52
H 63.349 46.838 47.545
