23
xyz format
O 67.345 48.817 50.344
O 72.837 46.478 52.5
O 66.814 46.949 52.976
O 68.608 48.549 53.638
O 70.023 49.895 51.219
O 70.24 45.853 51.53
O 72.47 48.32 50.95
O 71.166 47.902 54.0
H 68.939 48.313 52.763
H 72.377 48.871 50.162
H 72.949 48.885 51.568
H 70.676 47.072 54.053
H 71.105 48.146 53.068
H 70.285 48.967 51.162
H 69.229 49.943 50.672
H 69.732 48.338 48.869
H 72.72 46.386 53.454
H 70.63 45.943 49.285
H 68.535 46.485 48.818
H 69.542 46.328 51.998
H 70.928 46.519 51.406
H 67.306 48.652 51.294
H 66.6 49.41 50.183
