30
xyz format
O 41.21 27.671 39.253
O 44.262 25.013 38.412
O 42.632 28.818 37.602
O 45.521 29.325 37.697
O 40.082 27.223 36.893
O 46.199 26.648 37.132
O 42.281 26.555 37.613
O 44.329 29.101 35.832
O 43.763 27.608 39.38
O 44.259 25.477 35.909
H 43.625 28.352 39.98
H 43.927 26.863 39.972
H 46.623 25.807 37.344
H 42.134 25.621 37.417
H 43.22 26.683 37.428
H 46.325 27.176 37.929
H 43.784 25.99 35.244
H 45.168 25.469 35.585
H 44.548 28.282 35.371
H 40.161 28.083 36.461
H 40.292 26.595 36.191
H 46.951 28.519 36.232
H 46.319 29.406 38.233
H 44.813 29.249 38.349
H 42.373 28.589 36.701
H 41.873 29.309 37.941
H 41.426 28.37 39.883
H 41.047 26.901 39.812
H 43.544 24.899 39.046
H 45.033 25.184 38.967
