265
xyz format
Na 48.975 68.159 49.288
O 43.446 66.895 46.21
O 43.506 68.356 54.798
O 46.663 66.699 59.117
O 47.757 62.177 54.129
O 55.237 65.945 49.209
O 44.185 65.414 55.893
O 43.235 65.462 39.177
O 48.091 62.166 39.349
O 49.958 69.481 45.21
O 43.263 64.222 46.716
O 47.601 65.066 41.564
O 48.734 61.187 51.678
O 53.054 65.434 49.159
O 46.3 66.934 39.445
O 43.669 65.302 42.072
O 46.624 59.971 41.169
O 54.225 63.192 48.462
O 50.067 66.008 41.409
O 52.705 67.968 42.491
O 51.715 62.138 47.925
O 54.194 67.435 53.377
O 51.057 59.988 54.169
O 52.951 68.264 51.353
O 42.118 66.791 44.111
O 54.161 65.286 39.883
O 50.568 63.632 46.754
O 50.753 63.371 38.302
O 49.302 66.993 58.485
O 50.246 63.7 41.125
O 53.533 68.491 47.56
O 54.225 69.155 55.369
O 48.758 68.417 56.898
O 45.817 65.168 60.873
O 44.089 68.264 49.773
O 53.832 61.261 50.667
O 47.071 61.295 47.107
O 55.358 66.545 45.928
O 52.448 59.746 45.008
O 46.121 66.47 43.367
O 44.002 62.785 44.306
O 47.157 66.243 46.088
O 55.234 68.281 44.089
O 52.194 65.175 44.089
O 48.767 64.791 54.479
O 46.686 68.67 43.678
O 49.752 61.001 56.662
O 48.447 67.983 40.305
O 51.384 65.905 46.534
O 50.282 63.021 43.639
O 44.797 67.402 57.67
O 50.842 65.591 50.41
O 54.091 63.572 42.554
O 55.208 66.305 43.115
O 41.744 67.989 47.641
O 51.575 60.853 41.984
O 43.132 65.754 58.639
O 48.726 62.739 49.232
O 51.049 66.632 52.327
O 45.391 66.611 47.344
O 49.07 65.975 48.178
O 51.733 68.105 40.521
O 51.241 68.028 58.383
O 53.933 64.557 51.097
O 52.211 66.337 54.469
O 45.599 69.227 53.604
O 52.478 58.49 52.256
O 52.574 68.808 44.657
O 51.306 68.996 53.875
O 49.045 58.845 54.698
O 48.538 64.776 51.042
O 46.157 67.02 54.495
O 46.581 64.699 56.404
O 49.197 67.084 44.141
O 55.888 69.28 49.439
O 47.81 62.611 41.64
O 54.476 64.974 47.2
O 50.306 65.29 55.968
O 45.712 60.726 43.639
O 46.503 65.648 51.363
O 50.523 65.137 58.612
O 50.882 62.885 52.609
O 51.344 68.651 48.692
O 43.161 65.48 50.217
O 57.32 65.178 46.323
O 45.279 62.692 49.255
O 47.135 64.545 47.548
H 44.947 69.645 53.028
H 46.333 69.854 53.612
H 52.021 67.028 55.116
H 52.5 65.591 55.01
H 51.987 67.193 40.333
H 50.873 68.02 40.951
H 43.753 65.311 58.048
H 48.981 66.353 47.294
H 49.368 65.072 48.013
H 51.903 61.625 42.462
H 51.333 61.205 41.118
H 49.777 66.776 44.848
H 48.695 67.798 44.551
H 50.104 63.937 43.887
H 50.58 62.614 44.462
H 45.71 62.107 49.89
H 44.167 67.849 58.249
H 55.34 64.562 47.078
H 53.974 64.689 46.426
H 51.167 66.475 47.282
H 42.394 68.356 48.253
H 50.691 66.47 50.042
H 45.3 62.191 48.43
H 50.845 65.015 49.635
H 54.322 65.319 51.545
H 48.371 58.342 55.171
H 49.358 58.23 54.023
H 51.632 67.213 58.044
H 51.916 68.695 58.211
H 45.078 62.837 39.383
H 45.949 64.069 39.553
H 53.171 58.909 51.73
H 51.71 58.497 51.671
H 55.842 64.437 44.642
H 51.715 66.519 45.867
H 53.235 64.269 51.698
H 44.997 68.062 56.994
H 54.705 69.085 44.154
H 56.127 68.606 43.917
H 48.892 61.416 56.525
H 47.102 67.196 45.943
H 47.812 65.951 45.442
H 43.114 62.836 43.931
H 44.358 63.672 44.174
H 48.831 67.579 59.091
H 48.669 66.284 58.313
H 53.642 61.099 51.599
H 53.477 60.482 50.222
H 56.008 66.554 45.214
H 55.245 67.478 46.147
H 46.197 65.712 43.96
H 45.331 66.929 43.682
H 52.74 59.07 44.384
H 52.242 60.503 44.445
H 52.055 66.017 43.637
H 53.065 65.272 44.493
H 47.963 64.649 53.964
H 46.301 68.71 44.563
H 47.378 69.343 43.699
H 49.365 65.224 53.857
H 47.437 62.129 47.426
H 47.631 61.073 46.352
H 49.729 64.822 56.584
H 50.91 65.776 56.543
H 51.398 69.166 49.508
H 43.834 68.153 50.697
H 44.875 67.711 49.685
H 50.697 69.131 48.161
H 53.635 68.718 48.493
H 52.907 69.148 47.232
H 50.605 67.074 53.062
H 51.157 65.725 52.637
H 48.257 63.581 49.184
H 48.116 62.164 49.71
H 45.921 59.792 43.762
H 45.23 60.961 44.441
H 44.94 66.132 48.05
H 45.949 67.242 47.814
H 48.491 67.725 41.234
H 48.814 67.223 39.838
H 53.146 63.441 42.401
H 49.56 63.923 41.767
H 51.053 63.671 41.654
H 42.535 63.112 41.442
H 53.449 68.705 55.012
H 54.118 69.071 56.325
H 44.934 65.531 60.736
H 46.328 65.922 61.192
H 48.803 69.355 56.678
H 49.435 68.017 56.339
H 51.302 63.181 39.073
H 54.165 63.609 43.516
H 56.626 65.745 52.286
H 56.753 67.221 51.95
H 54.842 65.539 40.518
H 53.46 64.916 40.434
H 49.935 64.044 46.152
H 51.387 63.608 46.244
H 47.652 62.034 42.397
H 43.279 65.966 51.042
H 54.762 60.743 48.305
H 55.239 59.405 47.765
H 43.315 66.145 49.535
H 46.03 66.019 58.856
H 46.113 67.38 59.524
H 42.025 65.964 44.6
H 52.252 68.772 51.782
H 53.276 68.855 50.663
H 41.61 67.424 44.634
H 43.567 60.915 48.89
H 46.932 62.736 41.259
H 54.177 66.476 53.487
H 54.663 67.562 52.543
H 51.48 62.782 48.604
H 50.884 61.681 47.745
H 46.984 65.313 48.114
H 46.334 64.018 47.658
H 52.464 68.901 42.439
H 53.67 67.98 42.5
H 49.518 66.049 42.202
H 50.957 65.864 41.753
H 51.544 60.819 54.233
H 51.727 59.315 54.343
H 53.649 62.548 48.893
H 55.114 62.883 48.675
H 46.27 67.132 53.543
H 46.868 67.551 54.874
H 44.482 66.321 55.742
H 44.185 65.024 55.01
H 44.464 65.216 42.613
H 42.951 65.305 42.717
H 56.432 69.474 50.213
H 48.937 61.908 52.288
H 49.201 60.431 52.054
H 55.519 68.409 49.631
H 47.386 61.638 54.839
H 46.998 62.676 53.801
H 55.203 64.985 49.309
H 55.631 66.248 50.036
H 48.809 63.902 51.349
H 49.021 65.382 51.618
H 46.196 60.576 40.552
H 55.838 66.235 42.387
H 54.495 65.706 42.86
H 43.424 66.35 39.507
H 43.452 64.889 39.922
H 54.0 61.397 43.085
H 46.632 63.993 55.748
H 47.087 65.418 56.006
H 56.264 64.015 50.977
H 49.333 69.843 45.85
H 50.61 69.027 45.759
H 42.478 63.706 46.935
H 48.164 61.365 39.883
H 48.972 62.557 39.403
H 55.418 62.809 51.348
H 43.962 63.559 46.649
H 47.913 64.868 40.672
H 46.925 65.741 41.426
H 50.256 64.82 59.484
H 43.639 67.618 45.599
H 43.872 66.131 45.802
H 51.358 64.682 58.448
H 42.811 68.729 54.241
H 44.022 67.814 54.188
H 46.993 66.444 51.123
H 46.821 65.442 52.251
H 53.062 66.399 49.164
H 52.595 65.213 48.338
H 53.021 68.183 45.241
H 52.675 69.656 45.108
H 45.423 65.346 37.188
H 46.939 66.238 39.252
H 45.52 66.677 38.936
H 51.945 69.711 53.762
H 50.467 69.395 53.615
H 50.897 63.633 51.999
H 51.292 62.171 52.106
