33
xyz format
O 30.334 32.689 40.859
O 27.335 33.78 43.537
O 32.193 34.817 40.454
O 29.547 31.1 45.338
O 32.414 33.011 39.22
O 25.869 36.788 45.838
O 27.874 33.464 47.384
O 30.186 34.974 43.173
O 33.21 36.684 39.705
O 28.732 36.286 46.575
O 30.572 34.36 46.412
H 28.587 33.421 46.735
H 27.315 34.184 47.064
H 30.324 34.029 45.54
H 30.743 35.298 46.261
H 29.441 34.386 43.349
H 30.111 35.65 43.858
H 33.834 36.426 39.016
H 26.811 36.844 45.636
H 25.802 36.01 46.406
H 32.967 33.562 38.652
H 32.293 32.203 38.707
H 28.91 35.815 47.398
H 28.59 35.579 45.933
H 29.26 31.97 45.036
H 29.399 30.531 44.572
H 31.803 34.434 41.25
H 33.138 34.657 40.562
H 27.121 33.783 44.479
H 27.787 32.937 43.407
H 28.564 34.961 41.374
H 29.893 33.153 41.581
H 30.855 32.011 41.307
