46
xyz format
O 40.835 39.486 66.723
O 47.782 37.364 66.119
O 37.573 38.782 63.676
O 39.899 36.73 64.839
O 40.034 33.806 65.611
O 43.497 40.364 66.479
O 42.353 36.063 66.932
O 42.267 41.582 63.243
O 38.109 40.259 65.886
O 37.642 35.601 63.734
O 42.649 37.545 64.368
O 42.12 39.148 62.0
O 44.969 37.1 62.414
O 44.737 35.929 65.741
O 45.196 38.262 66.439
O 44.481 39.194 63.317
H 38.768 36.685 61.552
H 42.595 39.779 61.443
H 41.235 39.526 62.069
H 37.736 35.523 64.691
H 38.526 35.402 63.4
H 38.678 40.603 65.187
H 38.12 39.305 65.742
H 42.492 38.443 64.05
H 42.161 36.992 63.745
H 45.413 35.775 66.413
H 45.173 36.512 65.107
H 43.0 39.74 67.023
H 42.204 36.869 66.423
H 41.973 35.369 66.38
H 36.276 36.184 67.089
H 39.739 34.537 65.054
H 39.367 33.124 65.468
H 45.832 38.767 66.961
H 44.469 38.102 67.054
H 39.128 37.218 64.526
H 40.504 37.421 65.136
H 38.164 39.002 62.945
H 36.8 38.402 63.241
H 44.052 39.967 63.705
H 44.709 38.651 64.082
H 47.207 37.603 65.381
H 48.108 38.213 66.44
H 40.106 38.855 66.757
H 40.878 39.737 65.792
H 45.156 39.746 61.255
