23
xyz format
O 63.193 49.181 57.119
O 62.882 52.385 57.515
O 61.51 56.232 56.192
O 61.336 54.159 55.474
O 63.765 54.904 56.18
O 61.832 51.639 54.799
H 61.655 49.386 54.216
H 63.46 54.649 57.06
H 62.305 56.506 56.666
H 60.831 56.208 56.878
H 60.432 54.382 55.729
H 61.574 53.443 56.077
H 63.693 51.531 53.172
H 62.037 52.042 57.831
H 63.447 52.36 58.298
H 64.164 50.056 54.737
H 62.294 51.415 55.616
H 60.914 51.401 54.981
H 64.734 50.88 57.294
H 62.75 49.369 56.283
H 62.834 49.843 57.724
H 64.289 52.521 55.802
H 63.397 47.541 55.252
