53
xyz format
O 24.901 52.29 51.995
O 26.166 52.854 46.693
O 29.172 50.2 48.425
O 22.495 54.614 46.407
O 25.847 57.847 47.837
O 21.453 51.186 50.793
O 22.778 56.337 48.497
O 26.647 49.718 47.157
O 22.32 55.094 50.577
O 24.665 52.096 48.669
O 23.585 49.717 51.698
O 26.554 55.236 47.178
O 26.397 50.49 49.722
O 23.247 49.824 48.776
O 22.403 48.381 46.593
O 26.254 53.848 50.583
O 24.315 54.869 47.922
H 28.948 51.757 46.686
H 23.568 47.685 49.177
H 23.156 50.624 49.31
H 24.198 49.751 48.633
H 26.395 49.146 47.893
H 26.965 50.52 47.59
H 25.826 55.143 44.412
H 24.803 55.486 48.482
H 23.831 54.321 48.553
H 26.803 51.363 49.655
H 26.06 55.935 46.731
H 27.379 55.666 47.433
H 26.291 50.359 50.672
H 21.531 54.561 50.421
H 23.033 54.444 50.609
H 25.364 52.757 48.74
H 24.286 52.255 47.796
H 23.579 50.526 52.225
H 23.297 49.037 52.32
H 22.539 54.888 52.867
H 22.882 57.164 48.983
H 21.838 56.136 48.586
H 21.2 50.771 51.627
H 22.194 51.755 51.036
H 22.928 53.79 46.15
H 22.535 55.153 45.607
H 27.116 52.963 46.831
H 25.996 53.341 45.877
H 29.367 52.925 48.506
H 28.597 50.209 49.2
H 21.784 48.325 45.854
H 23.262 48.216 46.186
H 25.983 54.666 50.147
H 26.977 53.523 50.032
H 25.625 51.777 52.376
H 24.828 51.949 51.095
