22
xyz format
O 53.706 55.812 28.714
O 52.399 54.986 31.057
O 51.229 50.341 30.39
O 50.591 53.675 28.484
O 52.876 52.59 28.746
O 52.559 49.22 28.088
O 52.591 52.933 32.31
H 52.456 48.412 28.606
H 52.64 49.912 28.756
H 51.686 52.916 31.975
H 53.099 52.483 31.624
H 51.625 51.195 30.602
H 50.491 53.277 29.358
H 50.785 54.601 28.675
H 54.106 55.098 29.226
H 53.015 56.152 29.295
H 53.219 54.905 31.561
H 52.452 54.267 30.415
H 49.718 52.325 31.185
H 48.591 54.439 29.524
H 53.483 51.922 29.088
H 52.107 52.079 28.464
