29
xyz format
O 34.669 53.535 32.647
O 34.394 51.205 31.691
O 33.687 53.546 30.518
O 32.397 53.663 28.188
O 35.44 54.642 28.067
O 34.707 55.884 33.208
O 33.038 56.375 30.754
O 35.275 54.96 31.084
O 31.907 51.609 30.454
O 30.718 55.772 29.42
O 36.132 57.776 33.006
H 32.141 54.501 27.784
H 33.219 53.433 27.738
H 34.966 54.698 27.228
H 35.317 53.725 28.34
H 36.002 52.304 29.88
H 31.733 52.445 30.905
H 31.696 50.942 31.118
H 31.852 55.524 33.196
H 33.616 52.858 29.845
H 33.117 54.251 30.186
H 33.628 51.778 31.826
H 35.414 57.95 32.385
H 31.045 54.893 29.65
H 31.481 56.202 29.015
H 35.772 54.471 30.416
H 35.877 55.667 31.346
H 33.504 56.707 31.532
H 32.178 56.106 31.099
