24
xyz format
O 28.13 60.544 48.062
O 29.263 57.353 47.75
O 25.847 57.847 47.837
O 27.409 57.141 42.66
O 24.083 55.899 43.304
O 26.362 55.899 44.144
O 28.277 58.144 45.471
H 27.922 57.249 45.543
H 27.568 58.7 45.819
H 25.991 56.634 44.649
H 25.826 55.143 44.412
H 26.06 55.935 46.731
H 27.379 55.666 47.433
H 29.344 59.592 43.052
H 24.471 56.499 42.655
H 23.4 55.433 42.805
H 27.545 57.991 42.225
H 27.007 56.593 41.974
H 25.565 58.412 47.108
H 26.809 57.834 47.758
H 25.447 58.09 41.458
H 29.119 58.291 47.926
H 28.941 60.445 47.547
H 27.523 59.914 47.655
