42
xyz format
Na 35.918 45.033 51.34
O 38.806 41.967 52.515
O 40.166 45.084 54.475
O 38.784 44.157 50.705
O 36.399 47.621 52.922
O 39.372 47.593 53.489
O 39.239 49.041 51.133
O 40.517 45.963 51.754
O 35.709 42.973 52.475
O 37.175 44.512 56.397
O 41.005 43.105 47.516
O 38.171 43.125 54.991
O 36.632 47.66 50.624
O 37.526 45.597 52.84
O 38.747 46.415 48.462
O 42.752 44.261 52.878
H 37.544 45.37 56.153
H 40.055 48.731 51.544
H 39.253 48.632 50.259
H 37.329 43.305 54.555
H 38.829 43.35 54.322
H 39.944 48.344 53.693
H 39.282 47.136 54.334
H 37.237 47.66 53.401
H 40.306 43.731 47.29
H 40.539 42.266 47.618
H 39.557 44.299 50.144
H 38.215 44.911 50.507
H 38.193 44.325 47.108
H 35.235 46.559 54.763
H 39.613 46.269 51.606
H 41.014 46.779 51.895
H 38.511 46.777 49.325
H 39.547 45.904 48.638
H 42.502 43.745 52.101
H 38.049 42.557 52.412
H 38.264 45.43 53.439
H 35.773 47.343 50.316
H 36.749 45.525 53.409
H 37.057 46.867 50.973
H 41.017 45.015 54.024
H 40.383 44.911 55.4
