23
xyz format
O 55.378 40.424 69.073
O 55.757 39.152 67.204
O 55.207 36.551 65.795
O 56.145 35.469 68.343
O 57.834 39.373 65.035
O 53.773 38.205 67.29
O 58.55 37.607 67.065
O 56.777 34.943 65.455
H 53.591 39.031 67.757
H 53.964 37.579 67.999
H 57.957 37.187 67.701
H 59.057 38.229 67.601
H 56.033 36.416 68.494
H 56.957 35.255 68.819
H 55.885 37.096 66.214
H 54.988 35.897 66.47
H 53.013 36.68 65.899
H 57.332 35.717 65.296
H 56.898 34.764 66.396
H 59.073 34.445 65.871
H 55.803 39.296 66.25
H 56.669 38.954 67.45
H 55.417 41.02 68.315
