22
xyz format
O 48.09 32.523 34.072
O 49.76 32.907 36.399
O 45.344 31.758 35.142
O 50.329 31.882 38.276
O 43.138 32.651 34.92
O 47.795 28.967 36.092
O 47.799 36.232 36.156
O 46.121 34.438 36.228
H 46.728 33.729 35.982
H 45.992 34.926 35.406
H 43.318 32.305 35.803
H 44.017 34.078 37.3
H 49.215 30.79 36.038
H 48.117 29.135 36.987
H 48.407 36.911 36.473
H 48.01 35.464 36.701
H 45.827 30.939 35.308
H 45.467 31.91 34.197
H 48.533 33.204 34.594
H 47.766 31.9 34.735
H 49.562 33.672 36.953
H 50.649 33.087 36.068
