22
xyz format
O 48.66 49.362 33.595
O 50.579 51.258 36.654
O 48.924 50.386 40.746
O 51.207 52.913 38.078
O 46.113 50.098 34.367
O 47.91 51.668 39.049
O 48.047 50.59 35.994
O 47.215 54.53 39.914
H 45.915 49.214 34.7
H 50.743 52.927 38.925
H 47.494 51.871 39.896
H 48.536 52.391 38.921
H 49.862 50.579 40.627
H 48.836 50.254 41.698
H 49.016 53.993 37.491
H 47.368 49.932 36.188
H 47.853 51.308 36.61
H 46.869 54.091 40.701
H 48.17 54.41 39.984
H 50.252 50.801 37.439
H 49.947 51.977 36.528
H 48.244 48.985 34.38
