102
xyz format
O 71.236 40.427 49.196
O 69.456 35.353 54.513
O 75.05 43.422 56.897
O 72.978 36.736 54.334
O 73.65 44.463 53.985
O 74.787 41.464 51.604
O 69.742 33.516 53.337
O 72.837 46.478 52.5
O 74.228 38.59 56.528
O 76.699 39.838 51.279
O 68.683 34.041 48.925
O 73.4 37.316 49.901
O 69.784 35.492 51.381
O 71.021 36.693 56.206
O 76.15 42.245 55.385
O 72.258 39.458 51.406
O 71.505 31.613 53.708
O 74.46 36.18 52.49
O 75.801 45.695 54.783
O 68.2 38.386 55.036
O 71.148 30.531 50.699
O 73.341 33.543 50.234
O 72.893 43.61 51.991
O 72.584 34.022 52.243
O 70.68 38.392 52.51
O 71.313 39.745 56.801
O 69.778 41.124 54.197
O 74.956 38.05 53.538
O 69.57 38.454 49.617
O 72.581 34.149 46.699
O 72.055 41.22 54.258
O 74.722 40.866 57.304
O 70.797 34.651 48.911
H 71.217 30.759 53.364
H 71.663 32.139 52.914
H 68.212 36.816 49.014
H 72.0 43.571 52.357
H 73.363 42.907 52.456
H 76.742 45.818 54.607
H 75.623 46.3 55.513
H 75.093 40.57 58.145
H 73.935 41.361 57.563
H 72.002 40.262 54.152
H 71.885 41.559 53.37
H 73.793 36.627 51.954
H 72.472 33.197 49.994
H 73.78 33.669 49.383
H 75.022 35.743 51.838
H 71.809 33.791 47.156
H 72.72 40.018 52.041
H 72.652 38.587 51.539
H 73.326 33.724 47.14
H 70.826 37.429 58.729
H 68.049 38.49 54.088
H 69.145 38.198 55.098
H 69.377 38.704 50.529
H 70.269 37.794 49.704
H 76.605 41.853 56.142
H 69.81 40.183 53.986
H 69.685 41.55 53.336
H 76.659 41.935 54.626
H 72.26 34.859 51.888
H 72.709 34.204 53.183
H 70.606 38.201 53.454
H 70.428 37.562 52.087
H 69.237 34.867 50.889
H 70.388 35.842 50.715
H 72.67 36.702 50.046
H 73.045 37.948 49.262
H 70.246 37.075 56.637
H 71.07 37.164 55.364
H 67.286 36.436 53.204
H 70.21 42.326 49.622
H 72.177 39.464 57.124
H 71.219 39.28 55.96
H 77.212 40.653 51.211
H 76.119 39.866 50.508
H 75.165 38.59 56.759
H 73.847 37.926 57.115
H 73.572 45.885 52.301
H 72.72 46.386 53.454
H 70.406 35.225 48.241
H 71.683 35.013 49.035
H 75.57 41.95 51.891
H 74.828 40.644 52.111
H 75.694 37.52 53.865
H 74.587 38.447 54.337
H 74.552 44.165 53.814
H 73.506 44.242 54.913
H 69.085 33.53 52.63
H 70.49 34.0 52.964
H 74.146 43.549 57.211
H 75.506 44.225 57.18
H 72.733 35.864 54.668
H 72.363 36.884 53.605
H 70.375 30.71 51.249
H 71.745 31.263 50.898
H 67.131 35.059 51.495
H 68.888 35.479 55.284
H 69.507 36.233 54.119
H 72.075 40.901 49.254
H 71.501 39.506 49.079
