27
xyz format
O 64.212 71.388 37.674
O 62.353 69.968 37.194
O 65.254 67.849 39.795
O 62.671 68.238 35.244
O 66.681 69.218 37.259
O 64.38 67.73 37.299
O 65.461 65.494 37.627
O 65.235 70.63 41.03
O 65.072 65.336 34.765
H 65.037 65.601 33.837
H 64.338 65.815 35.168
H 65.544 69.932 40.439
H 65.816 65.74 38.49
H 64.528 65.318 37.804
H 63.332 67.905 34.624
H 66.483 69.902 37.911
H 66.988 68.474 37.792
H 60.785 67.186 37.284
H 64.562 67.26 39.469
H 64.027 65.173 39.991
H 65.917 67.247 40.155
H 63.758 67.144 36.849
H 65.219 67.557 36.855
H 64.306 70.975 36.806
H 62.696 64.292 35.316
H 63.334 67.733 41.708
H 61.63 69.355 37.015
