26
xyz format
O 38.146 26.099 47.255
O 35.157 26.844 52.851
O 39.501 27.725 48.116
O 36.524 26.872 49.286
O 38.22 29.507 49.033
O 38.576 28.029 51.764
O 37.425 24.538 49.781
O 37.609 25.714 51.631
H 40.409 29.397 46.522
H 38.995 28.324 52.582
H 37.747 28.522 51.74
H 37.709 24.184 48.929
H 36.461 24.514 49.73
H 38.105 30.629 46.896
H 37.946 25.026 52.217
H 37.219 26.359 52.234
H 37.896 29.777 49.901
H 37.677 28.74 48.813
H 36.039 27.362 49.962
H 37.394 26.737 49.681
H 40.126 27.17 47.635
H 39.978 27.966 48.92
H 35.134 25.913 53.103
H 34.429 26.929 52.222
H 37.181 26.119 47.277
H 38.347 25.488 46.535
