28
xyz format
O 29.194 43.419 62.652
O 30.252 41.001 61.495
O 26.565 39.48 61.241
O 25.907 42.907 64.135
O 29.915 38.172 61.749
O 25.713 41.786 60.598
O 28.158 36.581 61.319
O 28.559 39.59 60.319
O 26.32 37.055 60.013
H 26.181 37.735 59.341
H 26.786 36.356 59.539
H 26.06 44.817 65.246
H 28.421 39.351 59.394
H 28.292 40.517 60.358
H 30.079 40.773 59.101
H 27.713 37.177 61.934
H 26.446 41.846 59.973
H 26.148 41.757 61.459
H 28.913 44.214 62.181
H 28.363 42.995 62.902
H 29.837 38.983 62.267
H 30.344 38.461 60.934
H 25.478 43.514 63.519
H 25.986 42.087 63.633
H 26.042 38.697 61.452
H 26.88 39.784 62.101
H 31.055 41.279 61.954
H 29.541 41.323 62.064
