24
xyz format
O 50.096 62.503 52.401
O 55.779 60.703 52.103
O 54.5 64.222 51.801
O 55.221 57.942 52.735
O 56.798 62.435 53.25
O 52.588 64.842 52.716
O 53.609 61.002 51.89
H 57.103 61.787 53.898
H 56.321 63.084 53.782
H 54.384 58.423 52.746
H 55.575 58.119 51.855
H 54.723 63.373 51.399
H 54.654 64.078 52.743
H 52.488 63.967 53.113
H 52.763 65.417 53.471
H 55.739 61.186 51.269
H 56.524 60.1 51.984
H 52.079 60.238 53.273
H 50.432 63.388 52.587
H 50.477 62.289 51.54
H 50.3 65.569 51.686
H 53.106 61.386 51.161
H 53.736 61.742 52.497
H 55.298 60.112 49.32
