29
xyz format
O 69.971 57.602 40.999
O 72.199 57.22 40.709
O 66.635 59.354 41.847
O 70.138 59.345 47.123
O 70.22 59.972 41.714
O 69.646 59.53 39.567
O 68.644 62.422 42.981
O 71.345 58.403 44.585
O 70.291 61.075 43.64
O 68.579 61.247 46.523
O 66.343 60.743 45.142
H 68.832 59.428 40.075
H 69.572 60.416 39.19
H 71.143 60.633 43.739
H 69.648 60.383 43.839
H 69.447 58.775 46.765
H 70.7 59.532 46.36
H 70.104 60.829 41.284
H 71.103 59.695 41.44
H 67.252 59.645 42.53
H 65.818 59.183 42.333
H 68.324 61.743 42.373
H 69.181 62.996 42.421
H 70.627 58.359 43.942
H 72.109 58.669 44.058
H 68.655 60.6 45.811
H 72.515 60.759 45.455
H 70.383 57.661 41.87
H 69.028 57.54 41.195
