53
xyz format
Cl 31.247 50.946 48.398
O 30.128 53.045 49.088
O 29.555 46.662 46.322
O 29.172 50.2 48.425
O 33.267 49.089 41.3
O 33.548 46.777 43.633
O 31.749 47.537 40.849
O 32.252 49.193 47.517
O 30.816 47.124 43.877
O 27.725 46.583 48.447
O 35.034 50.578 40.027
O 29.309 49.506 45.239
O 29.399 52.358 46.08
O 34.463 48.203 38.824
O 29.516 50.703 41.081
O 30.83 45.234 41.651
O 30.721 49.255 42.815
O 32.8 48.774 45.137
O 32.19 51.182 42.566
O 33.689 45.502 38.67
H 33.815 47.679 38.335
H 30.335 52.209 46.263
H 28.948 51.757 46.686
H 30.213 50.563 40.428
H 29.982 51.086 41.835
H 30.041 49.453 45.866
H 29.304 50.434 44.971
H 31.205 46.474 44.475
H 30.426 47.777 44.472
H 31.548 48.788 42.642
H 30.901 49.748 43.625
H 35.973 50.796 39.986
H 34.759 50.573 39.101
H 28.47 47.187 48.338
H 30.495 45.408 42.54
H 31.776 45.095 41.786
H 36.273 47.394 39.895
H 31.497 48.593 47.463
H 30.814 47.356 41.009
H 32.056 46.755 40.374
H 33.205 45.976 43.217
H 30.47 46.917 46.494
H 29.091 47.506 46.25
H 29.367 52.925 48.506
H 33.873 45.615 39.611
H 32.736 45.639 38.605
H 32.606 49.713 45.027
H 32.481 51.351 43.471
H 32.977 51.359 42.036
H 28.468 46.382 44.439
H 29.206 49.268 48.175
H 33.096 49.687 40.562
H 33.879 48.44 40.931
