35
xyz format
O 62.6 75.297 45.88
O 63.709 72.529 40.911
O 59.556 70.163 37.566
O 59.257 71.748 44.168
O 57.402 73.198 40.103
O 61.12 72.239 45.505
O 61.496 69.725 39.274
O 59.356 75.058 43.986
O 60.835 74.397 40.674
O 57.965 71.691 37.41
O 58.357 70.806 46.011
O 60.253 71.74 39.196
O 61.195 72.648 42.534
H 61.363 71.667 46.244
H 61.584 73.065 45.693
H 60.173 75.099 40.662
H 61.494 74.713 41.304
H 59.121 75.27 44.899
H 60.205 74.606 44.067
H 61.913 70.167 40.024
H 61.827 72.163 41.989
H 60.396 72.672 41.993
H 59.195 72.653 43.837
H 59.474 71.231 43.383
H 58.284 73.087 39.728
H 56.92 73.677 39.417
H 60.052 72.41 38.531
H 60.957 72.143 39.721
H 58.61 70.048 45.47
H 57.662 70.458 46.584
H 59.072 70.06 38.395
H 62.021 75.811 45.303
H 63.383 75.14 45.338
H 63.522 71.803 40.303
H 64.069 73.219 40.34
