96
xyz format
Na 47.489 37.29 62.212
O 40.835 39.486 66.723
O 41.417 32.357 57.638
O 39.204 41.383 60.672
O 41.967 35.9 58.181
O 40.595 39.112 59.971
O 37.573 38.782 63.676
O 39.899 36.73 64.839
O 39.486 34.653 58.813
O 36.91 40.031 58.631
O 40.034 33.806 65.611
O 38.841 33.212 60.586
O 39.839 44.713 60.639
O 44.171 35.509 60.377
O 43.991 33.441 61.356
O 43.497 40.364 66.479
O 42.353 36.063 66.932
O 42.267 41.582 63.243
O 38.109 40.259 65.886
O 37.642 35.601 63.734
O 42.649 37.545 64.368
O 37.958 37.179 61.732
O 42.12 39.148 62.0
O 44.969 37.1 62.414
O 45.207 35.375 56.94
O 45.865 40.33 61.551
O 41.801 34.548 56.395
O 45.196 38.262 66.439
O 44.481 39.194 63.317
O 37.524 35.336 60.016
O 47.348 39.235 63.286
O 47.192 36.49 59.657
O 50.201 38.684 61.455
O 42.502 38.243 59.304
H 37.955 37.869 61.058
H 38.768 36.685 61.552
H 41.532 41.635 62.619
H 43.049 41.635 62.68
H 42.595 39.779 61.443
H 41.235 39.526 62.069
H 45.245 36.179 62.327
H 44.616 37.317 61.542
H 37.202 36.222 59.808
H 37.339 34.831 59.214
H 37.083 32.537 65.554
H 39.358 43.904 60.851
H 37.736 35.523 64.691
H 38.526 35.402 63.4
H 38.678 40.603 65.187
H 38.12 39.305 65.742
H 45.05 35.113 60.411
H 44.592 32.997 60.745
H 44.571 33.751 62.063
H 44.181 36.018 59.556
H 42.492 38.443 64.05
H 42.161 36.992 63.745
H 45.173 36.512 65.107
H 45.662 36.1 57.386
H 43.0 39.74 67.023
H 42.204 36.869 66.423
H 41.973 35.369 66.38
H 38.748 33.656 61.438
H 39.739 34.537 65.054
H 39.367 33.124 65.468
H 41.913 33.131 60.682
H 40.907 34.263 60.791
H 37.257 40.697 59.238
H 36.107 39.719 59.069
H 42.618 39.181 59.111
H 43.044 38.102 60.091
H 42.65 34.306 56.004
H 41.201 34.581 55.639
H 49.526 38.172 60.992
H 49.77 39.531 61.624
H 47.035 37.138 58.959
H 39.128 37.218 64.526
H 40.504 37.421 65.136
H 41.21 36.493 58.099
H 42.723 36.461 57.965
H 39.213 35.029 57.967
H 39.746 35.424 59.333
H 38.164 39.002 62.945
H 36.8 38.402 63.241
H 44.052 39.967 63.705
H 44.709 38.651 64.082
H 39.731 41.798 61.366
H 36.408 40.913 62.88
H 38.385 41.137 61.122
H 40.106 38.855 66.757
H 40.878 39.737 65.792
H 45.156 39.746 61.255
H 40.341 39.909 59.488
H 39.814 38.905 60.499
H 47.713 39.466 62.423
H 48.074 38.776 63.727
H 40.868 32.842 58.267
