32
xyz format
O 30.135 65.473 56.644
O 29.75 66.513 51.072
O 27.82 67.286 56.005
O 28.553 66.023 53.282
O 27.203 64.702 56.516
O 30.114 62.254 55.04
O 27.727 63.301 54.51
O 26.172 65.533 53.707
O 30.045 68.417 54.438
O 31.771 65.823 54.513
H 26.745 65.363 55.981
H 27.444 65.183 57.318
H 30.194 67.042 51.746
H 28.836 66.822 51.104
H 28.382 66.109 54.229
H 29.175 65.286 53.228
H 27.438 62.786 55.274
H 28.415 63.876 54.867
H 29.499 64.75 56.577
H 29.791 66.138 56.034
H 29.239 65.564 58.902
H 26.377 65.455 52.767
H 26.008 64.623 53.983
H 30.001 62.64 55.917
H 30.398 63.0 54.496
H 29.492 68.809 53.751
H 30.643 67.838 53.949
H 31.529 65.022 54.994
H 31.281 65.75 53.685
H 28.188 68.061 55.564
H 28.119 67.378 56.918
H 27.929 64.333 51.685
