39
xyz format
O 29.895 70.243 51.165
O 28.74 68.696 48.934
O 30.135 65.473 56.644
O 29.75 66.513 51.072
O 32.416 70.089 49.615
O 27.82 67.286 56.005
O 28.553 66.023 53.282
O 27.203 64.702 56.516
O 31.017 70.342 47.136
O 32.643 70.762 53.145
O 30.045 68.417 54.438
O 31.771 65.823 54.513
O 33.263 70.338 46.724
H 31.104 69.565 47.702
H 30.257 70.135 46.578
H 26.745 65.363 55.981
H 27.444 65.183 57.318
H 30.194 67.042 51.746
H 28.836 66.822 51.104
H 28.382 66.109 54.229
H 29.175 65.286 53.228
H 33.184 69.989 52.94
H 32.208 70.524 53.973
H 28.771 69.482 48.374
H 29.66 68.563 49.193
H 31.576 69.677 49.853
H 32.612 70.661 50.367
H 28.415 63.876 54.867
H 29.499 64.75 56.577
H 29.791 66.138 56.034
H 29.174 69.648 51.405
H 30.047 70.755 51.969
H 29.492 68.809 53.751
H 30.643 67.838 53.949
H 31.281 65.75 53.685
H 28.188 68.061 55.564
H 28.119 67.378 56.918
H 33.502 70.209 47.65
H 26.638 66.933 50.602
