46
xyz format
O 31.745 65.226 35.258
O 37.424 59.543 39.401
O 36.051 66.287 35.211
O 36.922 62.85 34.472
O 39.124 61.219 37.284
O 36.849 64.13 38.33
O 36.772 61.67 37.716
O 35.641 60.734 40.835
O 35.041 64.222 34.011
O 35.254 60.288 36.134
O 33.747 62.702 36.677
O 39.413 66.158 35.805
O 35.423 61.272 34.117
O 38.37 58.492 36.904
O 39.258 63.299 36.579
O 35.321 64.73 36.865
O 33.79 61.374 38.43
H 38.785 66.494 36.458
H 33.749 61.978 41.043
H 36.206 60.265 35.973
H 35.141 59.728 36.912
H 33.055 63.03 36.09
H 39.278 63.573 35.654
H 38.316 63.217 36.773
H 34.397 62.319 36.074
H 36.942 61.558 38.66
H 35.814 61.778 37.667
H 35.579 64.437 33.239
H 34.19 64.637 33.82
H 38.257 58.176 37.809
H 37.982 59.375 36.918
H 35.253 60.753 39.952
H 36.144 61.557 40.883
H 35.601 64.16 36.137
H 34.38 64.865 36.701
H 36.876 63.692 39.19
H 36.763 65.065 38.551
H 32.254 65.654 35.958
H 39.896 60.674 37.088
H 39.137 61.296 38.247
H 36.872 62.404 35.326
H 37.3 63.713 34.686
H 36.349 66.518 34.322
H 36.837 65.907 35.623
H 38.211 59.964 39.769
H 33.955 66.659 34.656
