44
xyz format
O 41.578 68.754 43.816
O 47.572 65.923 41.657
O 41.36 64.47 42.569
O 47.46 69.791 41.186
O 44.215 68.372 39.428
O 44.504 70.149 44.291
O 42.018 63.872 45.28
O 48.328 69.737 43.505
O 47.284 70.715 45.176
O 44.177 64.688 41.352
O 43.051 65.884 44.539
O 46.269 67.635 39.724
O 44.655 67.068 42.12
O 43.115 70.201 40.65
H 43.814 69.959 41.27
H 44.774 66.175 37.315
H 42.302 69.994 41.128
H 46.791 71.289 45.776
H 47.518 69.956 45.725
H 47.589 69.124 43.409
H 44.136 67.75 42.563
H 45.271 66.769 42.8
H 47.114 67.989 39.419
H 46.141 66.848 39.179
H 43.6 64.392 40.637
H 45.06 64.441 41.052
H 42.496 66.034 43.763
H 43.921 65.695 44.165
H 41.12 69.27 46.123
H 42.962 63.672 45.304
H 44.455 69.756 43.411
H 45.255 70.753 44.23
H 46.714 66.132 41.267
H 48.122 66.68 41.421
H 40.945 64.153 41.756
H 42.299 64.294 42.43
H 43.791 67.872 40.137
H 43.476 68.783 38.964
H 44.864 70.622 46.602
H 43.353 70.702 46.479
H 42.08 68.207 43.199
H 41.003 69.276 43.244
H 40.04 67.209 44.108
H 46.852 69.057 41.337
