38
xyz format
O 26.849 60.057 54.334
O 25.545 57.242 53.404
O 24.853 62.174 53.682
O 28.664 61.178 56.943
O 27.349 60.726 52.297
O 23.282 58.677 55.427
O 24.858 59.765 52.328
O 27.727 63.301 54.51
O 26.189 66.308 50.019
O 26.172 65.533 53.707
O 25.51 60.993 57.648
O 25.482 63.546 50.171
O 27.915 63.368 51.704
H 23.917 62.328 49.208
H 23.36 57.915 54.839
H 23.173 59.422 54.823
H 27.438 62.786 55.274
H 28.145 61.271 52.337
H 26.927 60.996 51.471
H 27.677 58.605 51.812
H 26.583 60.985 54.341
H 27.286 59.936 55.186
H 26.377 65.455 52.767
H 26.008 64.623 53.983
H 28.287 62.039 57.164
H 25.663 59.242 52.432
H 24.149 59.13 52.494
H 25.873 57.821 54.103
H 24.913 56.67 53.858
H 25.783 65.677 50.626
H 24.723 63.006 53.209
H 24.111 61.628 53.395
H 25.018 60.163 57.638
H 26.257 60.824 57.061
H 27.048 63.16 52.074
H 25.114 63.424 51.055
H 26.039 62.768 50.046
H 27.929 64.333 51.685
