141
xyz format
O 46.962 28.622 48.728
O 51.588 31.083 47.566
O 50.95 28.337 43.547
O 43.992 24.817 43.626
O 44.202 27.859 45.228
O 51.161 26.738 42.04
O 53.805 22.386 44.661
O 55.185 25.407 42.795
O 46.422 21.704 45.745
O 50.584 26.564 44.804
O 49.805 28.0 47.394
O 50.034 26.616 50.135
O 51.808 28.999 46.82
O 50.619 24.336 39.673
O 51.48 32.473 41.063
O 50.48 34.18 45.073
O 49.573 23.219 44.03
O 51.711 31.118 44.052
O 47.945 32.418 44.203
O 52.252 26.546 47.882
O 47.631 28.186 41.32
O 55.036 26.209 47.893
O 46.899 27.467 43.896
O 51.592 21.91 48.687
O 49.399 30.812 46.976
O 49.364 22.466 47.364
O 49.204 29.958 42.136
O 55.014 28.877 45.193
O 53.489 32.314 44.844
O 45.389 24.214 46.521
O 55.254 30.614 43.803
O 52.97 23.888 49.165
O 45.719 26.103 47.764
O 47.533 29.619 44.772
O 48.361 21.726 49.178
O 56.573 27.325 45.185
O 52.751 26.909 50.263
O 55.573 31.175 47.996
O 55.208 24.706 45.187
O 49.269 31.904 40.95
O 47.02 23.857 43.015
O 42.5 24.114 45.083
O 50.354 29.0 50.421
O 49.208 24.979 48.276
O 48.103 25.227 44.433
O 46.704 23.572 48.165
H 49.946 24.844 47.668
H 48.46 25.156 47.693
H 45.088 24.902 45.916
H 44.671 24.144 47.164
H 53.294 33.171 44.446
H 53.085 32.371 45.719
H 50.785 28.831 49.574
H 50.552 29.928 50.597
H 51.435 32.043 44.034
H 52.404 31.073 43.382
H 49.836 30.31 46.277
H 49.249 31.678 46.577
H 48.783 32.128 43.821
H 47.797 31.798 44.928
H 49.625 29.38 41.488
H 49.937 30.48 42.488
H 54.472 29.544 45.633
H 54.378 28.197 44.938
H 55.982 32.894 42.504
H 55.441 33.255 43.877
H 47.681 27.239 41.141
H 54.667 31.45 48.187
H 56.505 26.442 44.802
H 56.844 27.877 44.441
H 48.708 23.078 47.008
H 49.919 22.256 46.603
H 51.429 26.447 47.387
H 52.933 26.28 47.251
H 48.961 22.267 49.706
H 51.43 34.243 44.913
H 50.133 33.812 44.251
H 48.044 29.348 43.999
H 48.046 29.282 45.516
H 50.397 23.651 44.288
H 49.044 23.235 44.837
H 54.746 31.224 43.254
H 55.881 30.217 43.185
H 52.682 24.639 49.699
H 53.595 24.276 48.54
H 55.001 25.444 49.966
H 52.039 32.992 41.655
H 51.703 31.559 41.281
H 50.049 24.377 40.451
H 55.721 28.518 48.723
H 46.602 26.488 47.83
H 48.352 25.421 45.345
H 48.901 25.431 43.929
H 52.035 28.241 46.267
H 52.585 29.114 47.381
H 49.281 26.998 49.666
H 50.587 26.26 49.429
H 45.171 26.838 47.462
H 51.226 21.373 50.803
H 55.935 24.57 45.808
H 54.446 24.865 45.757
H 52.085 26.787 50.951
H 53.584 26.932 50.751
H 49.317 28.62 47.95
H 49.275 27.194 47.43
H 55.583 26.116 42.276
H 54.574 25.868 43.383
H 53.286 21.74 45.156
H 54.522 22.615 45.265
H 42.27 25.679 47.085
H 50.907 21.291 48.403
H 51.447 22.684 48.129
H 46.66 22.61 48.098
H 46.879 23.728 49.101
H 55.412 25.324 47.808
H 55.101 26.572 47.001
H 46.155 27.987 44.224
H 47.448 27.333 44.679
H 51.929 26.603 42.61
H 50.451 26.269 42.496
H 46.897 23.468 43.89
H 51.169 30.556 48.257
H 52.053 31.773 48.054
H 46.537 23.261 42.429
H 44.5 26.951 45.37
H 43.576 28.009 45.947
H 46.788 22.583 45.902
H 45.627 21.876 45.225
H 51.367 28.795 42.807
H 50.529 29.046 44.049
H 41.919 24.392 44.364
H 41.89 23.833 45.776
H 50.576 25.762 45.341
H 50.147 27.219 45.363
H 53.311 29.605 51.382
H 49.407 31.213 40.29
H 48.355 31.774 41.229
H 47.284 28.164 49.514
H 46.002 28.599 48.826
H 44.221 24.388 42.793
H 44.233 25.741 43.482
