51
xyz format
O 67.066 54.338 55.681
O 64.323 47.801 55.339
O 65.019 50.15 57.858
O 64.804 52.153 55.074
O 63.193 49.181 57.119
O 64.999 55.127 54.17
O 64.897 49.875 54.136
O 67.535 49.778 57.797
O 67.307 52.029 56.754
O 62.882 52.385 57.515
O 61.336 54.159 55.474
O 63.765 54.904 56.18
O 67.75 51.667 53.748
O 69.56 50.759 56.025
O 64.165 52.322 52.887
O 61.832 51.639 54.799
O 67.718 48.593 55.697
H 69.895 50.061 56.601
H 67.029 51.297 54.273
H 68.449 51.82 54.396
H 61.655 49.386 54.216
H 64.667 55.215 56.331
H 63.46 54.649 57.06
H 60.432 54.382 55.729
H 61.574 53.443 56.077
H 67.088 52.116 57.69
H 66.706 51.342 56.441
H 65.026 51.987 52.605
H 63.693 51.531 53.172
H 62.037 52.042 57.831
H 63.447 52.36 58.298
H 68.281 49.169 57.868
H 67.4 50.082 58.703
H 65.63 49.662 54.727
H 64.164 50.056 54.737
H 62.294 51.415 55.616
H 60.914 51.401 54.981
H 64.753 54.345 53.661
H 65.39 55.715 53.511
H 65.37 49.502 57.234
H 64.734 50.88 57.294
H 62.75 49.369 56.283
H 62.834 49.843 57.724
H 66.855 48.367 56.066
H 67.685 49.554 55.608
H 65.551 52.758 54.992
H 64.289 52.521 55.802
H 67.464 53.913 54.911
H 67.695 54.16 56.391
H 63.397 47.541 55.252
H 64.67 47.718 54.442
