65
xyz format
O 54.453 56.755 39.842
O 45.023 54.088 36.793
O 52.703 53.557 40.845
O 52.563 51.837 35.898
O 50.579 51.258 36.654
O 44.851 52.129 39.126
O 53.649 54.883 36.971
O 48.924 50.386 40.746
O 46.576 56.266 38.022
O 50.964 58.471 40.09
O 47.869 57.755 41.356
O 51.207 52.913 38.078
O 52.165 58.072 35.945
O 49.989 55.99 41.873
O 51.132 54.952 35.903
O 51.325 55.259 43.721
O 54.064 53.309 35.06
O 51.332 56.014 38.196
O 47.91 51.668 39.049
O 49.132 54.37 36.61
O 54.216 54.975 43.071
O 47.215 54.53 39.914
H 51.685 56.05 43.3
H 51.284 54.616 43.003
H 50.568 56.014 38.786
H 52.087 56.004 38.798
H 53.645 53.367 34.192
H 50.001 56.851 41.436
H 49.175 55.581 41.552
H 48.35 58.456 40.9
H 47.607 57.156 40.645
H 51.963 54.573 35.591
H 50.985 55.7 35.311
H 50.743 52.927 38.925
H 51.204 53.837 37.8
H 51.911 57.313 36.485
H 53.716 54.235 43.438
H 53.656 55.295 42.352
H 47.494 51.871 39.896
H 48.536 52.391 38.921
H 51.193 58.913 39.263
H 51.533 57.691 40.098
H 47.12 56.892 38.516
H 45.99 55.892 38.693
H 49.862 50.579 40.627
H 48.836 50.254 41.698
H 48.746 55.252 36.686
H 49.016 53.993 37.491
H 47.853 51.308 36.61
H 53.073 53.784 39.983
H 51.796 53.884 40.799
H 53.422 55.817 37.055
H 53.335 54.495 37.797
H 46.869 54.091 40.701
H 48.17 54.41 39.984
H 52.026 52.374 35.303
H 44.456 52.035 38.25
H 44.765 53.072 39.316
H 50.252 50.801 37.439
H 49.947 51.977 36.528
H 45.669 53.765 37.434
H 45.086 55.048 36.869
H 54.799 56.23 40.574
H 54.346 56.113 39.129
H 55.118 54.032 41.3
