25
xyz format
O 60.196 35.981 57.618
O 58.247 35.569 61.606
O 60.895 35.423 60.618
O 59.092 34.199 59.255
O 55.714 36.678 61.742
O 60.293 33.608 56.385
O 56.672 34.39 62.816
H 56.597 35.234 63.278
H 56.227 34.55 61.974
H 58.577 31.504 58.538
H 54.85 36.491 62.13
H 56.153 37.221 62.409
H 58.939 35.152 59.222
H 59.682 34.036 58.508
H 61.142 34.778 61.292
H 60.454 36.12 61.119
H 60.341 33.801 55.441
H 60.048 32.675 56.416
H 61.431 37.246 59.5
H 59.769 35.717 56.793
H 61.07 35.574 57.564
H 58.053 34.34 56.773
H 57.607 35.621 57.455
H 57.665 36.007 60.973
H 58.309 34.666 61.273
