26
xyz format
O 55.282 69.903 61.529
O 49.134 68.801 64.594
O 55.515 65.421 64.893
O 50.124 71.066 62.912
O 52.154 68.613 63.906
O 54.666 67.197 63.153
O 52.356 71.258 64.071
O 50.457 68.681 61.555
O 53.651 66.875 65.295
H 52.734 66.987 65.575
H 54.149 67.425 65.912
H 50.777 67.808 61.295
H 49.644 68.789 61.046
H 54.647 68.0 63.688
H 53.738 66.938 63.097
H 53.04 70.641 64.358
H 51.574 70.98 64.564
H 52.665 68.858 63.124
H 51.627 67.862 63.608
H 54.803 65.234 64.269
H 56.266 65.635 64.325
H 49.326 68.968 63.663
H 49.913 68.325 64.907
H 50.769 70.739 62.272
H 55.43 70.853 61.437
H 55.388 69.745 62.475
