39
xyz format
O 67.744 46.953 58.777
O 67.252 43.596 62.101
O 69.19 46.171 62.472
O 67.303 47.911 62.304
O 70.629 47.112 60.062
O 69.278 44.19 61.184
O 73.282 46.667 61.207
O 72.326 45.152 63.78
O 72.054 48.658 62.695
O 70.004 49.552 62.361
O 75.707 45.669 60.874
O 71.725 44.324 58.455
H 72.683 45.983 63.443
H 72.668 44.49 63.166
H 76.167 46.513 60.963
H 75.59 45.571 59.921
H 68.781 44.707 60.538
H 69.954 43.749 60.654
H 73.689 46.942 60.376
H 74.013 46.688 61.838
H 67.096 47.097 62.78
H 67.63 47.602 61.451
H 69.19 49.035 62.324
H 69.731 47.321 60.346
H 71.158 47.242 60.859
H 70.39 49.436 61.484
H 71.921 48.044 63.428
H 72.69 49.295 63.043
H 68.095 50.243 60.836
H 70.082 45.803 62.448
H 69.276 46.943 63.044
H 69.756 45.122 57.605
H 66.744 44.403 62.254
H 67.903 43.597 62.815
H 70.958 49.858 59.188
H 71.825 44.999 59.138
H 71.303 43.589 58.918
H 67.656 46.175 59.341
H 68.618 46.852 58.38
