26
xyz format
O 67.252 43.596 62.101
O 67.853 48.054 64.624
O 69.19 46.171 62.472
O 69.278 44.19 61.184
O 65.934 43.22 65.333
O 68.165 45.241 64.78
O 67.26 41.036 63.534
O 66.34 45.882 66.399
O 69.443 41.708 62.433
H 68.941 44.92 64.304
H 67.5 45.351 64.088
H 67.032 41.63 64.259
H 69.868 42.483 62.819
H 68.977 42.06 61.665
H 66.208 43.663 66.146
H 65.896 43.935 64.685
H 67.096 47.097 62.78
H 65.474 46.27 66.221
H 66.451 45.995 67.351
H 67.538 47.394 65.254
H 70.082 45.803 62.448
H 69.276 46.943 63.044
H 66.744 44.403 62.254
H 67.903 43.597 62.815
H 65.888 41.873 62.03
H 66.922 41.197 61.147
