46
xyz format
O 39.93 54.031 60.539
O 37.775 60.29 59.145
O 33.878 56.475 59.72
O 36.04 57.475 57.67
O 36.313 55.225 62.82
O 38.772 59.287 62.177
O 39.605 58.243 60.413
O 34.687 59.579 60.557
O 36.959 55.005 57.413
O 40.225 56.434 62.301
O 35.656 53.484 58.677
O 36.171 58.634 61.883
O 35.522 60.678 62.854
O 38.043 57.227 62.013
O 37.492 54.612 60.328
H 33.853 59.043 62.828
H 38.003 54.412 59.534
H 36.734 55.108 59.993
H 33.928 57.313 56.884
H 33.975 61.552 61.382
H 35.825 57.749 61.713
H 36.752 58.801 61.131
H 40.823 57.189 62.371
H 40.362 56.116 61.4
H 38.684 58.209 60.128
H 36.375 55.472 56.802
H 37.454 55.713 57.843
H 34.231 59.196 59.797
H 35.314 60.197 60.16
H 39.379 58.815 62.761
H 38.038 59.528 62.755
H 37.711 56.548 61.413
H 37.732 56.938 62.88
H 38.211 52.492 60.845
H 36.382 58.188 58.224
H 35.6 56.889 58.297
H 36.935 54.568 62.484
H 35.712 55.372 62.079
H 33.149 55.999 60.135
H 34.18 57.08 60.409
H 37.657 60.541 60.07
H 35.99 53.102 59.499
H 35.028 54.154 58.974
H 39.677 54.028 61.471
H 40.867 53.801 60.555
H 40.083 55.86 59.234
