22
xyz format
O 57.548 52.303 44.476
O 59.547 53.745 45.963
O 57.216 55.613 46.616
O 57.528 54.975 41.331
O 58.316 54.111 48.936
O 56.998 55.032 44.209
O 59.429 55.082 42.667
H 58.999 56.547 45.275
H 59.686 56.347 46.614
H 59.944 53.127 45.335
H 58.711 53.988 45.547
H 59.303 55.934 43.102
H 60.184 54.698 43.131
H 58.232 51.655 44.266
H 56.945 52.252 43.725
H 57.204 55.861 43.757
H 57.525 54.376 43.735
H 56.737 56.448 46.539
H 56.55 54.996 46.943
H 58.83 53.645 48.265
H 57.561 53.53 49.091
H 60.194 52.508 42.924
