24
xyz format
O 21.954 43.689 52.203
O 21.944 47.008 50.765
O 21.453 51.186 50.793
O 24.395 45.467 51.435
O 23.585 49.717 51.698
O 23.287 46.834 48.818
O 23.247 49.824 48.776
O 22.403 48.381 46.593
H 23.568 47.685 49.177
H 22.476 47.044 48.339
H 23.156 50.624 49.31
H 24.198 49.751 48.633
H 23.635 45.215 50.895
H 24.21 45.066 52.293
H 23.579 50.526 52.225
H 23.297 49.037 52.32
H 21.2 50.771 51.627
H 22.194 51.755 51.036
H 22.787 47.225 51.182
H 21.352 46.852 51.512
H 21.784 48.325 45.854
H 23.262 48.216 46.186
H 21.774 44.142 51.37
H 22.138 44.408 52.82
