23
xyz format
O 36.137 54.707 47.034
O 36.801 54.519 43.989
O 39.834 55.328 46.991
O 39.422 54.221 45.107
O 42.049 57.107 45.768
O 38.803 56.633 44.769
O 37.87 56.507 47.514
H 42.573 56.542 46.35
H 41.572 57.683 46.378
H 39.763 53.414 44.703
H 38.743 53.903 45.716
H 38.918 57.525 44.417
H 38.751 56.08 43.98
H 36.172 56.566 45.245
H 36.558 57.881 44.591
H 35.472 55.266 47.455
H 36.415 54.11 47.739
H 40.419 55.745 46.347
H 40.021 55.801 47.811
H 36.667 54.355 44.931
H 37.657 54.112 43.805
H 37.796 56.088 46.647
H 37.837 55.765 48.13
