26
xyz format
O 48.479 61.247 49.622
O 48.185 65.582 49.733
O 46.791 61.459 46.866
O 49.436 65.964 51.511
O 43.316 64.901 49.42
O 45.601 66.564 49.948
O 44.951 63.541 49.997
O 47.703 59.154 48.739
O 47.396 65.304 52.568
O 49.277 63.91 50.661
H 46.544 65.642 52.266
H 46.924 59.319 49.285
H 45.103 66.193 50.687
H 44.485 62.926 47.161
H 43.836 65.591 48.991
H 43.006 64.358 48.685
H 46.695 62.278 51.138
H 49.258 66.485 52.304
H 46.187 61.091 47.524
H 46.813 62.401 47.075
H 47.473 65.04 50.095
H 47.767 66.44 49.586
H 48.002 61.901 49.096
H 49.093 60.849 48.992
H 48.572 63.425 51.108
H 49.2 63.63 49.741
