24
xyz format
O 58.796 59.374 64.961
O 56.551 62.57 64.886
O 61.481 62.579 66.845
O 54.925 60.006 67.785
O 63.496 63.416 65.077
O 60.544 60.771 65.385
O 56.957 60.557 66.723
H 64.232 62.862 64.789
H 62.767 63.143 64.506
H 60.06 61.316 64.752
H 61.469 60.991 65.217
H 57.709 60.843 66.19
H 56.236 60.492 66.085
H 55.61 59.365 68.012
H 58.645 57.378 63.401
H 59.541 61.528 67.198
H 62.402 62.354 66.66
H 61.187 63.022 66.039
H 57.38 62.238 64.52
H 58.999 58.527 65.378
H 59.295 59.347 64.135
H 61.184 57.37 63.276
H 61.728 59.697 63.43
H 62.875 60.589 62.99
