25
xyz format
O 39.199 39.015 43.964
O 40.838 40.131 41.614
O 38.78 36.562 42.502
O 39.52 41.949 40.861
O 38.189 41.608 43.127
O 40.346 41.032 38.222
O 41.915 43.483 39.942
H 38.939 44.363 39.461
H 40.529 41.777 38.809
H 40.191 40.296 38.827
H 38.719 41.813 40.338
H 39.548 42.905 40.992
H 42.361 41.65 37.594
H 39.239 36.318 43.315
H 37.887 36.777 42.798
H 38.163 42.44 42.638
H 37.725 40.989 42.55
H 41.197 40.45 40.777
H 39.943 39.851 41.387
H 37.912 38.41 40.776
H 39.211 38.641 43.074
H 38.346 39.465 44.013
H 41.733 42.664 40.42
H 41.048 43.756 39.617
H 41.459 45.215 41.249
