56
xyz format
O 48.262 50.179 24.401
O 51.415 41.073 23.372
O 48.59 41.912 23.242
O 55.212 42.13 23.332
O 51.83 45.651 25.741
O 53.178 41.818 24.845
O 51.574 51.153 22.552
O 54.553 45.898 25.157
O 54.32 47.556 22.265
O 49.291 43.846 24.583
O 49.978 42.608 26.311
O 50.68 48.841 22.118
O 53.624 44.997 22.491
O 46.917 49.355 21.679
O 49.387 46.449 23.492
O 55.535 41.724 27.054
O 51.482 44.896 22.983
O 47.9 47.945 25.418
H 53.636 44.038 22.602
H 54.356 45.301 23.042
H 54.832 39.785 25.648
H 51.454 45.86 22.929
H 51.209 44.608 22.103
H 50.037 43.601 24.022
H 48.572 43.996 23.956
H 49.639 51.245 25.946
H 50.448 43.264 26.84
H 50.682 42.154 25.831
H 56.059 41.682 26.245
H 54.623 41.719 26.737
H 48.498 46.796 23.639
H 49.258 45.76 22.829
H 53.401 47.477 22.549
H 54.822 47.455 23.083
H 53.101 42.325 24.028
H 53.299 40.91 24.542
H 47.569 48.648 21.594
H 47.347 50.113 21.263
H 54.283 45.711 26.065
H 55.354 45.373 25.043
H 52.381 50.801 22.156
H 47.173 47.468 25.837
H 48.688 47.476 25.723
H 51.692 44.702 25.628
H 51.078 46.048 25.283
H 50.608 48.626 21.179
H 50.069 49.58 22.231
H 49.095 41.464 23.931
H 48.529 41.255 22.537
H 47.921 45.427 25.495
H 49.037 49.627 24.564
H 55.332 41.664 24.169
H 55.355 43.056 23.563
H 51.061 41.912 23.053
H 52.08 40.839 22.712
H 47.851 49.776 23.626
