24
xyz format
O 50.445 29.022 39.465
O 50.95 28.337 43.547
O 51.161 26.738 42.04
O 50.619 24.336 39.673
O 52.194 29.312 37.925
O 52.681 27.03 38.275
O 48.488 26.398 38.366
O 50.182 27.31 36.279
H 49.625 29.38 41.488
H 47.681 27.239 41.141
H 53.633 27.164 38.352
H 52.413 26.766 39.164
H 51.487 28.777 37.543
H 52.441 29.91 37.208
H 50.845 25.259 39.505
H 50.049 24.377 40.451
H 49.217 26.637 38.952
H 48.665 25.475 38.144
H 51.929 26.603 42.61
H 50.451 26.269 42.496
H 51.059 29.7 39.774
H 50.827 28.2 39.796
H 51.367 28.795 42.807
H 50.529 29.046 44.049
