51
xyz format
O 60.311 48.424 64.719
O 65.515 50.061 67.201
O 63.682 51.245 66.618
O 60.87 45.858 66.347
O 62.268 49.56 69.406
O 59.521 47.544 70.035
O 59.769 50.395 70.355
O 61.378 51.59 68.789
O 60.328 50.152 63.318
O 63.746 48.714 65.983
O 59.971 48.903 67.52
O 63.215 53.304 68.294
O 62.226 47.078 67.782
O 58.655 46.414 64.366
O 62.204 51.375 64.503
H 60.702 48.127 62.55
H 57.466 45.708 62.655
H 61.883 50.667 65.076
H 61.806 47.099 62.734
H 58.016 52.131 65.226
H 58.423 50.668 65.243
H 64.584 48.281 66.189
H 63.113 47.986 65.953
H 60.182 51.021 63.711
H 60.029 51.764 66.305
H 61.303 47.177 68.048
H 58.384 51.293 68.87
H 60.141 49.668 66.957
H 59.196 49.164 68.033
H 59.201 49.747 70.789
H 60.287 50.768 71.079
H 60.548 51.215 68.469
H 61.099 52.35 69.315
H 60.399 47.926 69.909
H 59.263 47.268 69.147
H 62.141 49.246 68.502
H 57.998 47.118 64.293
H 63.393 52.078 66.226
H 62.902 50.931 67.092
H 59.352 46.686 63.756
H 63.808 53.811 67.725
H 62.391 53.27 67.792
H 60.844 52.588 62.139
H 61.044 48.466 65.346
H 59.531 48.346 65.283
H 58.705 47.176 67.014
H 65.069 50.278 68.029
H 60.43 46.378 65.664
H 60.142 45.517 66.881
H 64.326 46.492 63.972
H 62.421 49.014 63.717
