52
xyz format
O 64.17 33.117 48.956
O 63.509 35.883 46.965
O 60.264 31.615 47.188
O 60.551 33.734 49.626
O 64.024 32.977 44.916
O 60.473 36.334 47.206
O 56.685 35.957 49.083
O 58.4 34.241 47.166
O 59.234 28.691 48.974
O 61.435 34.115 47.557
O 59.266 36.379 51.227
O 63.587 31.934 46.821
O 58.732 32.014 45.041
O 56.932 33.895 50.321
O 59.477 32.586 51.539
O 55.573 31.175 47.996
O 59.597 30.668 50.29
O 61.724 31.721 45.545
H 58.527 32.469 45.868
H 59.141 31.189 45.329
H 60.12 35.978 51.432
H 63.232 31.423 47.56
H 62.05 33.523 47.106
H 61.99 34.581 48.194
H 56.093 31.973 48.154
H 58.743 28.365 49.739
H 57.448 34.359 47.28
H 58.66 33.719 47.934
H 60.158 28.594 49.237
H 55.955 35.762 48.482
H 57.412 36.192 48.493
H 60.032 35.849 47.915
H 61.322 36.583 47.591
H 57.73 34.436 50.28
H 56.703 33.753 49.394
H 58.905 33.112 52.112
H 59.791 31.879 52.116
H 61.949 34.61 51.105
H 63.469 32.911 44.129
H 63.587 33.653 45.449
H 60.062 32.924 49.433
H 59.86 34.4 49.73
H 63.709 30.727 44.405
H 60.959 31.65 47.857
H 59.449 31.678 47.702
H 61.581 31.117 44.805
H 61.554 32.592 45.166
H 60.412 30.714 49.774
H 58.901 30.765 49.628
H 61.052 28.933 44.868
H 62.848 35.635 46.306
H 63.928 35.044 47.195
