102
xyz format
O 67.054 61.767 48.895
O 71.41 61.627 54.881
O 66.038 60.789 52.061
O 70.146 65.692 44.416
O 73.877 61.721 48.033
O 70.392 65.806 48.912
O 70.928 59.159 53.705
O 67.277 61.685 54.283
O 71.719 61.327 50.7
O 74.32 57.188 47.452
O 71.274 63.123 47.551
O 72.804 63.531 50.301
O 72.953 61.649 53.31
O 69.016 64.218 45.603
O 72.188 65.307 47.107
O 75.061 62.007 52.346
O 68.991 57.036 50.856
O 70.138 59.345 47.123
O 69.005 60.911 52.108
O 70.268 63.435 54.333
O 68.875 57.428 53.018
O 71.703 56.515 48.601
O 68.644 62.422 42.981
O 73.033 63.716 42.985
O 67.033 59.107 48.538
O 71.345 58.403 44.585
O 69.717 60.399 49.481
O 70.291 61.075 43.64
O 71.196 62.744 44.895
O 68.579 61.247 46.523
O 69.139 63.701 50.781
O 72.926 61.412 46.035
O 72.488 59.353 48.668
O 69.593 60.828 55.83
H 68.974 64.485 50.242
H 69.256 62.997 50.131
H 70.684 63.405 53.463
H 69.338 63.25 54.149
H 67.838 62.736 56.502
H 72.851 65.312 46.405
H 72.686 65.553 47.896
H 71.143 60.633 43.739
H 69.648 60.383 43.839
H 69.447 58.775 46.765
H 70.7 59.532 46.36
H 72.156 63.24 56.181
H 68.362 56.811 50.159
H 69.655 57.57 50.402
H 72.579 62.128 52.56
H 73.174 60.784 52.943
H 74.999 62.662 53.052
H 75.33 61.201 52.804
H 72.117 58.902 56.476
H 72.596 64.339 50.788
H 73.502 63.121 50.827
H 66.606 59.638 49.222
H 66.576 59.367 47.728
H 69.62 64.473 46.311
H 68.141 64.332 45.996
H 72.345 56.221 47.943
H 72.248 56.917 49.289
H 70.384 62.885 47.838
H 71.657 63.553 48.326
H 69.222 57.308 53.91
H 68.832 58.387 52.916
H 72.74 63.944 43.876
H 73.685 57.913 47.514
H 75.176 57.634 47.441
H 71.761 60.374 50.845
H 70.826 61.563 50.983
H 66.955 62.571 54.494
H 66.958 61.145 55.017
H 71.718 58.864 54.175
H 70.251 59.192 54.392
H 70.627 58.359 43.942
H 72.109 58.669 44.058
H 70.159 60.835 48.742
H 69.162 59.734 49.055
H 66.73 61.463 52.055
H 66.475 60.009 51.696
H 70.715 65.757 43.638
H 68.655 60.6 45.811
H 74.309 60.915 48.341
H 74.09 62.371 48.715
H 68.37 62.07 46.063
H 69.178 60.112 51.594
H 68.608 60.579 52.922
H 70.896 61.318 54.125
H 71.913 60.848 55.151
H 66.831 63.862 51.26
H 67.81 61.494 49.43
H 66.478 62.218 49.525
H 72.515 60.759 45.455
H 73.363 62.018 45.424
H 70.531 66.252 49.757
H 70.599 66.484 48.257
H 68.955 60.123 56.0
H 70.176 60.799 56.598
H 72.327 60.021 47.99
H 71.608 59.162 49.015
H 70.539 62.455 45.54
H 70.674 63.202 44.225
