40
xyz format
O 59.583 55.722 38.457
O 56.718 50.371 36.194
O 60.603 53.293 37.665
O 57.768 51.798 33.928
O 59.065 53.587 33.812
O 59.951 56.297 35.449
O 61.668 51.737 35.816
O 57.302 55.255 38.117
O 57.225 52.662 37.699
O 57.528 54.975 41.331
O 59.194 50.643 35.513
O 59.652 52.897 39.842
O 62.582 54.613 34.904
O 60.246 52.807 42.008
H 56.502 49.988 33.544
H 57.268 56.08 38.617
H 57.233 54.572 38.796
H 57.569 52.964 36.849
H 57.492 51.735 37.739
H 62.065 55.11 35.55
H 62.317 53.697 35.054
H 61.25 51.289 35.07
H 61.375 51.229 36.583
H 58.306 55.107 40.775
H 58.859 51.368 36.055
H 58.991 49.856 36.034
H 59.941 55.413 35.061
H 58.844 53.532 34.75
H 59.828 53.002 33.722
H 57.057 52.109 33.354
H 58.388 51.38 33.318
H 56.05 50.338 39.582
H 59.713 53.832 39.609
H 58.821 52.836 40.33
H 60.536 55.62 38.575
H 59.426 55.398 37.562
H 59.695 53.099 37.401
H 60.972 53.748 36.898
H 56.473 51.032 35.534
H 62.071 51.917 38.553
