23
xyz format
O 39.239 72.091 57.694
O 37.736 73.589 59.468
O 39.659 72.374 53.94
O 40.217 74.827 57.991
O 39.046 75.707 55.203
O 37.313 73.439 56.155
O 41.049 76.021 56.058
O 41.966 73.232 56.525
H 41.434 76.781 55.604
H 41.775 75.684 56.597
H 38.644 75.024 54.652
H 39.303 76.39 54.571
H 40.659 73.98 58.129
H 39.705 74.69 57.184
H 40.153 76.046 52.572
H 40.362 72.142 54.559
H 39.028 72.864 54.482
H 39.444 72.275 56.769
H 38.579 73.954 59.171
H 37.079 74.11 58.99
H 42.115 73.644 54.043
H 41.193 73.543 56.038
H 42.145 72.365 56.14
