51
xyz format
O 58.247 35.569 61.606
O 53.19 36.105 58.391
O 57.624 35.185 56.593
O 57.282 42.24 61.23
O 56.747 40.431 57.061
O 53.981 39.841 56.11
O 58.309 42.437 58.624
O 58.739 38.574 54.443
O 56.197 39.221 61.485
O 56.768 37.691 59.228
O 55.738 41.345 62.921
O 53.958 38.329 59.97
O 55.714 36.678 61.742
O 58.669 39.086 60.436
O 59.013 39.325 57.048
O 56.672 34.39 62.816
O 55.178 36.925 57.186
O 56.712 36.168 54.569
H 56.1 38.345 59.467
H 57.025 37.942 58.332
H 56.529 41.663 63.375
H 59.432 39.224 54.615
H 59.463 38.471 57.069
H 58.623 39.4 57.928
H 56.597 35.234 63.278
H 56.227 34.55 61.974
H 55.492 39.304 62.139
H 57.003 39.215 62.015
H 58.09 38.741 55.137
H 56.976 40.622 54.864
H 54.85 36.491 62.13
H 56.153 37.221 62.409
H 53.652 38.812 59.192
H 53.903 39.054 56.662
H 56.359 40.384 57.943
H 56.737 39.515 56.757
H 54.594 40.404 56.598
H 58.193 41.501 58.42
H 57.904 39.49 60.008
H 59.422 39.526 60.023
H 57.052 42.978 60.651
H 57.661 41.587 60.63
H 57.607 35.621 57.455
H 55.254 34.72 56.423
H 52.653 36.269 59.176
H 54.405 36.738 56.639
H 54.83 37.484 57.891
H 57.665 36.007 60.973
H 58.309 34.666 61.273
H 57.53 36.641 54.768
H 56.09 36.498 55.229
