69
xyz format
O 34.03 51.908 48.431
O 33.547 55.93 43.381
O 30.128 53.045 49.088
O 32.254 53.515 45.469
O 29.255 55.539 42.532
O 31.879 55.375 48.019
O 29.931 55.761 44.616
O 33.204 55.026 41.103
O 31.815 57.263 45.075
O 31.392 56.378 39.587
O 29.503 53.396 43.912
O 29.309 49.506 45.239
O 34.394 52.84 46.177
O 27.037 51.918 43.553
O 29.399 52.358 46.08
O 27.318 50.233 41.013
O 34.023 53.09 43.91
O 29.516 50.703 41.081
O 30.927 53.199 40.867
O 30.721 49.255 42.815
O 34.483 52.707 40.128
O 32.19 51.182 42.566
O 31.411 56.074 42.243
H 34.931 53.129 43.585
H 33.49 53.268 43.125
H 27.783 51.795 44.153
H 26.281 52.019 44.145
H 30.335 52.209 46.263
H 28.948 51.757 46.686
H 30.213 50.563 40.428
H 29.982 51.086 41.835
H 35.332 52.755 46.392
H 34.124 53.641 46.644
H 29.304 50.434 44.971
H 29.392 52.872 43.109
H 28.642 53.816 44.032
H 32.07 58.101 45.48
H 31.605 56.699 45.83
H 32.927 54.104 41.17
H 34.158 54.99 41.243
H 31.548 48.788 42.642
H 30.901 49.748 43.625
H 31.149 52.95 41.773
H 31.364 52.526 40.33
H 27.49 50.506 41.923
H 26.363 50.095 40.992
H 30.799 55.829 40.115
H 32.05 56.682 40.224
H 29.601 55.605 45.509
H 29.763 56.7 44.469
H 32.155 54.341 45.958
H 31.484 53.501 44.886
H 31.129 55.958 47.847
H 31.733 55.074 48.924
H 31.428 56.697 42.98
H 31.557 55.217 42.664
H 29.004 54.751 42.033
H 29.248 56.241 41.869
H 33.774 55.872 46.184
H 30.875 53.096 48.479
H 29.367 52.925 48.506
H 32.606 49.713 45.027
H 34.705 52.812 41.061
H 33.615 52.284 40.144
H 32.481 51.351 43.471
H 32.977 51.359 42.036
H 33.457 51.141 48.554
H 34.102 55.289 43.842
H 33.614 56.725 43.924
