138
xyz format
Na 35.533 36.977 44.303
O 30.334 32.689 40.859
O 32.884 35.448 43.982
O 28.288 44.115 42.157
O 27.779 46.239 43.778
O 34.909 40.162 40.192
O 27.335 33.78 43.537
O 30.409 37.825 43.689
O 32.099 40.922 43.526
O 27.21 44.915 40.162
O 31.358 39.252 36.585
O 29.147 42.049 40.598
O 32.193 34.817 40.454
O 34.114 35.713 46.515
O 29.547 31.1 45.338
O 26.055 42.137 41.776
O 32.414 33.011 39.22
O 31.602 42.544 45.783
O 33.308 41.152 41.522
O 32.668 41.843 39.067
O 31.158 37.572 45.994
O 29.347 42.171 45.413
O 27.074 40.563 39.312
O 25.869 36.788 45.838
O 27.874 33.464 47.384
O 31.234 43.464 43.251
O 29.216 37.649 35.109
O 29.853 39.773 46.989
O 30.169 36.239 49.156
O 33.268 38.49 45.026
O 32.701 38.598 42.214
O 30.186 34.974 43.173
O 28.841 40.928 42.861
O 30.19 38.593 40.584
O 30.272 42.39 37.595
O 25.801 44.315 43.516
O 30.83 45.234 41.651
O 33.21 36.684 39.705
O 31.657 38.845 38.964
O 32.41 38.728 47.709
O 28.732 36.286 46.575
O 27.513 37.816 39.604
O 29.34 39.66 37.989
O 26.41 39.619 43.42
O 30.572 34.36 46.412
O 28.021 35.143 40.596
O 34.641 36.168 42.457
O 27.986 38.049 41.74
H 29.725 41.82 38.149
H 30.127 39.408 41.097
H 30.529 37.949 41.217
H 28.587 33.421 46.735
H 33.859 36.734 42.482
H 35.137 36.496 41.696
H 27.315 34.184 47.064
H 28.923 40.134 43.405
H 28.492 41.589 43.472
H 35.808 37.235 37.86
H 30.324 34.029 45.54
H 30.743 35.298 46.261
H 30.21 39.364 47.787
H 33.569 38.245 37.226
H 33.569 38.85 41.876
H 32.138 39.348 41.985
H 29.441 34.386 43.349
H 30.111 35.65 43.858
H 33.747 38.3 44.21
H 32.669 39.206 44.78
H 31.132 36.311 49.144
H 29.877 37.113 49.444
H 31.439 41.185 47.569
H 27.498 43.643 37.328
H 30.585 42.954 43.75
H 31.742 43.92 43.934
H 29.306 37.085 35.888
H 28.987 38.512 35.477
H 32.229 38.867 39.741
H 32.851 40.944 39.365
H 34.088 33.638 44.35
H 31.8 37.964 38.598
H 33.705 37.318 40.238
H 33.834 36.426 39.016
H 26.89 40.045 40.105
H 29.565 41.233 45.361
H 27.108 41.472 39.634
H 30.495 45.408 42.54
H 31.995 37.15 46.223
H 30.613 37.442 46.781
H 26.188 44.541 42.661
H 26.428 43.685 43.892
H 26.811 36.844 45.636
H 25.802 36.01 46.406
H 32.425 41.532 41.439
H 33.798 41.816 42.023
H 32.967 33.562 38.652
H 28.91 35.815 47.398
H 28.59 35.579 45.933
H 33.37 38.796 47.629
H 32.285 38.076 48.409
H 32.528 42.808 45.852
H 31.118 43.359 45.965
H 26.933 42.382 42.092
H 25.508 42.166 42.571
H 29.26 31.97 45.036
H 29.399 30.531 44.572
H 28.443 44.289 45.422
H 33.22 35.352 46.548
H 34.378 35.59 45.595
H 31.803 34.434 41.25
H 33.138 34.657 40.562
H 30.813 38.465 36.704
H 29.5 42.44 41.407
H 29.843 41.444 40.313
H 26.747 44.193 39.719
H 28.04 39.011 41.67
H 27.622 37.904 42.622
H 35.021 39.206 40.262
H 27.026 37.047 39.284
H 28.438 37.558 39.509
H 28.498 39.89 37.578
H 29.122 39.57 38.925
H 32.488 41.693 43.956
H 31.222 40.855 43.924
H 26.842 39.803 44.263
H 26.723 40.325 42.842
H 27.003 46.003 44.302
H 27.121 33.783 44.479
H 27.787 32.937 43.407
H 29.455 37.845 43.838
H 30.648 38.756 43.607
H 32.172 35.584 44.62
H 32.473 34.916 43.29
H 28.564 34.961 41.374
H 28.664 35.393 39.921
H 29.893 33.153 41.581
H 30.855 32.011 41.307
H 28.386 45.065 42.017
H 28.785 43.95 42.968
