64
xyz format
O 40.501 62.894 63.585
O 41.834 69.645 59.551
O 37.82 65.132 59.359
O 37.013 71.187 63.435
O 39.582 63.43 60.735
O 35.527 64.484 62.437
O 39.841 71.263 61.205
O 42.154 71.945 60.486
O 38.35 61.942 61.796
O 38.248 67.756 61.842
O 35.314 65.152 59.461
O 39.761 69.231 57.438
O 37.459 63.726 63.168
O 40.951 70.726 63.494
O 38.789 62.81 65.645
O 36.382 62.745 59.865
O 35.882 67.647 66.446
O 39.358 65.408 61.99
O 37.406 67.172 63.96
O 40.902 70.103 67.319
O 39.716 67.168 59.899
H 38.742 65.061 57.14
H 38.816 65.598 66.027
H 39.67 66.484 66.917
H 35.636 68.397 65.891
H 36.744 67.381 66.102
H 37.165 63.032 59.378
H 39.072 67.617 59.338
H 40.221 66.626 59.28
H 40.094 60.579 64.014
H 36.85 63.194 63.695
H 37.963 64.218 63.828
H 37.701 68.07 61.112
H 39.072 68.248 61.74
H 37.394 62.019 61.679
H 38.447 61.684 62.721
H 43.713 68.945 58.079
H 38.426 65.586 62.168
H 39.807 66.203 62.302
H 35.32 66.01 59.018
H 34.861 64.574 58.835
H 37.308 66.269 64.288
H 36.59 67.327 63.469
H 40.289 68.447 57.632
H 40.694 70.853 66.749
H 41.151 69.406 66.699
H 42.766 71.387 60.982
H 41.695 72.447 61.171
H 39.47 71.074 60.334
H 40.444 70.525 61.362
H 37.664 70.582 63.059
H 37.489 72.024 63.501
H 39.647 64.193 60.148
H 39.591 62.676 60.132
H 41.185 69.8 63.634
H 39.986 70.723 63.505
H 38.614 62.358 64.81
H 35.698 65.117 63.146
H 35.637 65.007 61.633
H 37.423 65.225 60.234
H 37.65 65.984 58.938
H 40.879 69.573 59.427
H 42.129 68.727 59.59
H 40.104 63.708 63.919
