53
xyz format
O 66.925 61.162 65.676
O 64.268 53.989 62.977
O 67.82 55.291 60.46
O 67.848 60.506 61.688
O 64.113 56.623 64.676
O 66.957 52.591 60.533
O 63.967 57.638 61.957
O 67.241 56.179 63.668
O 68.523 55.167 58.358
O 66.43 57.417 59.538
O 68.558 59.38 65.557
O 65.642 54.338 58.112
O 71.309 60.192 64.349
O 65.142 57.127 57.36
O 65.126 53.966 60.897
O 65.587 59.325 64.57
O 67.231 58.478 62.253
H 64.856 54.715 60.35
H 64.689 53.211 60.483
H 64.857 56.53 58.063
H 65.97 53.7 58.758
H 66.384 54.943 57.991
H 71.065 59.259 64.346
H 70.827 60.553 65.103
H 62.162 55.282 60.11
H 69.26 57.764 61.452
H 67.335 55.252 63.415
H 68.152 56.489 63.742
H 64.537 56.985 62.382
H 64.323 58.483 62.257
H 68.396 55.824 57.662
H 69.213 54.591 58.007
H 69.929 59.803 61.954
H 67.706 53.109 60.213
H 64.117 54.942 63.002
H 64.743 53.811 63.799
H 66.497 57.947 62.587
H 67.664 58.799 63.054
H 67.911 61.044 62.487
H 66.915 60.56 61.448
H 67.216 55.298 61.214
H 67.643 61.229 66.318
H 67.381 61.124 64.826
H 68.119 56.207 60.398
H 63.613 57.432 64.843
H 65.017 56.934 64.543
H 66.043 58.754 65.201
H 65.026 59.88 65.126
H 66.895 58.016 60.135
H 65.997 56.791 60.132
H 68.912 59.551 64.675
H 68.209 58.483 65.494
H 62.101 56.541 62.394
