35
xyz format
O 66.925 61.162 65.676
O 67.848 60.506 61.688
O 67.241 56.179 63.668
O 67.749 62.38 60.54
O 68.558 59.38 65.557
O 71.309 60.192 64.349
O 65.587 59.325 64.57
O 70.188 60.699 61.702
O 67.231 58.478 62.253
O 69.996 63.107 63.519
H 68.182 63.056 60.003
H 66.93 62.804 60.823
H 71.065 59.259 64.346
H 70.827 60.553 65.103
H 69.26 57.764 61.452
H 68.152 56.489 63.742
H 68.411 63.014 65.286
H 69.649 59.045 67.441
H 70.264 63.766 62.868
H 69.532 62.442 62.995
H 70.929 60.897 62.288
H 69.929 59.803 61.954
H 66.497 57.947 62.587
H 67.664 58.799 63.054
H 67.911 61.044 62.487
H 66.915 60.56 61.448
H 67.643 61.229 66.318
H 67.381 61.124 64.826
H 65.017 56.934 64.543
H 66.043 58.754 65.201
H 65.026 59.88 65.126
H 73.202 60.248 61.898
H 72.868 61.705 61.628
H 68.912 59.551 64.675
H 68.209 58.483 65.494
