23
xyz format
O 49.25 73.189 64.786
O 50.124 71.066 62.912
O 51.441 73.722 65.643
O 52.154 68.613 63.906
O 54.666 67.197 63.153
O 52.356 71.258 64.071
O 50.457 68.681 61.555
O 53.651 66.875 65.295
H 52.734 66.987 65.575
H 50.777 67.808 61.295
H 54.647 68.0 63.688
H 53.738 66.938 63.097
H 53.04 70.641 64.358
H 51.574 70.98 64.564
H 52.665 68.858 63.124
H 51.627 67.862 63.608
H 52.177 73.706 65.018
H 51.226 72.789 65.767
H 49.326 68.968 63.663
H 49.913 68.325 64.907
H 49.272 73.961 65.365
H 50.769 70.739 62.272
H 55.388 69.745 62.475
