41
xyz format
O 65.584 36.578 46.605
O 63.943 37.252 50.03
O 64.435 39.502 50.039
O 69.046 35.921 46.022
O 67.153 39.17 51.721
O 66.43 35.696 51.309
O 64.654 39.384 52.712
O 66.476 35.428 49.127
O 67.555 37.264 48.467
O 69.57 38.454 49.617
O 67.077 39.77 48.91
O 62.634 36.921 52.631
H 62.73 38.946 53.759
H 68.212 36.816 49.014
H 64.5 42.452 49.293
H 62.717 40.61 50.855
H 66.715 38.682 51.012
H 67.491 39.96 51.281
H 69.377 38.704 50.529
H 66.476 34.467 49.042
H 65.565 35.676 48.926
H 66.907 37.586 49.106
H 64.42 40.158 52.185
H 64.777 38.688 52.055
H 64.854 40.371 50.009
H 64.485 39.191 49.126
H 68.719 36.264 46.863
H 65.786 36.671 53.174
H 67.407 41.695 49.926
H 63.204 35.464 51.085
H 64.721 36.984 50.534
H 63.379 37.679 50.688
H 66.305 35.962 46.785
H 65.641 37.216 47.328
H 67.686 39.449 48.234
H 66.339 40.13 48.402
H 62.986 36.758 53.515
H 61.678 36.943 52.766
H 65.137 39.448 46.611
H 66.908 36.49 51.038
H 67.131 35.059 51.495
