37
xyz format
O 57.005 69.809 55.479
O 55.71 72.65 54.97
O 54.567 68.535 53.18
O 59.743 73.301 51.058
O 54.254 72.37 50.268
O 57.823 72.214 52.872
O 56.574 72.226 51.034
O 55.027 69.354 50.173
O 58.978 69.657 53.142
O 58.988 70.621 48.589
O 56.94 69.882 51.128
O 53.207 72.816 52.667
O 58.497 76.398 53.348
H 58.082 70.935 48.7
H 58.881 69.698 48.33
H 54.08 72.405 52.63
H 54.176 69.699 49.875
H 55.593 69.437 49.395
H 56.004 72.764 51.597
H 56.973 72.866 50.432
H 58.469 72.125 53.583
H 57.28 71.42 52.955
H 54.836 71.794 49.756
H 56.792 68.977 51.429
H 57.886 70.018 51.266
H 59.317 73.988 56.611
H 55.532 68.494 53.166
H 54.377 69.479 53.121
H 59.545 73.052 50.147
H 55.59 72.083 54.198
H 56.029 73.481 54.597
H 57.814 70.315 55.336
H 56.935 69.259 54.69
H 58.498 75.126 51.096
H 57.826 75.752 53.095
H 58.537 76.321 54.31
H 54.654 70.267 56.248
