22
xyz format
O 26.166 52.854 46.693
O 22.495 54.614 46.407
O 22.778 56.337 48.497
O 23.41 55.128 53.207
O 22.32 55.094 50.577
O 24.665 52.096 48.669
O 26.554 55.236 47.178
O 24.315 54.869 47.922
H 24.803 55.486 48.482
H 23.831 54.321 48.553
H 21.531 54.561 50.421
H 23.033 54.444 50.609
H 25.364 52.757 48.74
H 24.286 52.255 47.796
H 23.914 55.345 52.413
H 22.539 54.888 52.867
H 22.882 57.164 48.983
H 21.838 56.136 48.586
H 22.928 53.79 46.15
H 22.535 55.153 45.607
H 25.996 53.341 45.877
H 25.983 54.666 50.147
