78
xyz format
Cl 61.242 67.541 41.063
O 64.212 71.388 37.674
O 61.382 64.936 39.073
O 63.709 72.529 40.911
O 63.74 64.362 40.428
O 65.254 67.849 39.795
O 65.951 61.95 43.321
O 67.719 68.723 45.768
O 69.275 66.517 41.447
O 66.681 69.218 37.259
O 65.593 68.66 46.358
O 64.38 67.73 37.299
O 67.714 67.655 42.698
O 65.461 65.494 37.627
O 65.235 70.63 41.03
O 64.667 68.385 43.334
O 67.362 65.095 43.669
O 64.806 66.687 44.858
O 67.687 70.179 41.156
O 62.618 64.824 43.263
O 63.598 66.9 42.117
O 62.414 65.692 45.616
O 68.592 70.168 44.357
O 65.837 64.717 46.944
O 63.435 67.588 46.967
O 64.951 64.335 43.018
H 66.117 65.556 46.557
H 65.798 64.117 46.189
H 64.137 69.148 43.599
H 66.774 64.647 44.29
H 67.602 64.402 43.041
H 65.576 68.695 43.425
H 62.082 65.622 43.184
H 63.284 65.606 46.025
H 61.875 66.096 46.307
H 67.562 70.805 40.432
H 67.777 70.744 41.934
H 61.913 70.167 40.024
H 64.365 66.198 44.152
H 65.728 66.722 44.572
H 67.656 68.619 42.709
H 67.621 67.41 43.627
H 65.031 70.162 41.849
H 65.544 69.932 40.439
H 65.816 65.74 38.49
H 64.528 65.318 37.804
H 65.18 69.258 46.993
H 65.06 68.767 45.561
H 69.817 67.1 41.993
H 68.918 65.879 42.078
H 64.283 66.428 48.634
H 65.763 66.09 48.661
H 66.763 68.485 48.31
H 63.114 67.902 46.112
H 63.182 68.29 47.579
H 65.473 64.901 42.436
H 64.478 63.754 42.41
H 67.782 67.857 46.191
H 67.774 69.343 46.506
H 66.483 69.902 37.911
H 66.988 68.474 37.792
H 66.326 62.6 42.714
H 69.46 66.352 44.254
H 69.139 69.404 44.134
H 68.942 70.872 43.796
H 64.562 67.26 39.469
H 64.027 65.173 39.991
H 65.917 67.247 40.155
H 63.758 67.144 36.849
H 65.219 67.557 36.855
H 63.648 72.153 37.503
H 64.306 70.975 36.806
H 64.421 66.674 41.668
H 63.334 67.733 41.708
H 63.522 71.803 40.303
H 64.069 73.219 40.34
H 61.236 65.419 39.896
H 62.208 65.305 38.734
