25
xyz format
O 59.902 61.888 26.734
O 62.045 61.952 28.079
O 59.207 60.993 29.047
O 61.694 59.243 29.052
O 58.535 63.213 32.341
O 60.548 62.869 33.163
O 60.752 60.641 31.628
O 59.683 64.357 29.463
O 61.683 63.469 29.945
H 60.815 61.489 31.17
H 59.913 60.699 32.102
H 57.88 63.109 33.043
H 58.241 62.595 31.66
H 59.334 60.505 29.87
H 59.874 61.69 29.088
H 60.985 59.058 29.68
H 61.288 59.848 28.419
H 59.216 63.971 30.214
H 59.205 64.018 28.696
H 62.293 61.467 27.282
H 62.065 62.876 27.801
H 62.377 64.061 29.631
H 61.388 63.877 30.769
H 59.439 62.71 26.94
H 60.491 62.133 26.009
