36
xyz format
O 41.412 59.904 45.339
O 43.898 59.337 44.775
O 43.014 57.352 50.28
O 47.823 59.757 44.75
O 42.018 63.872 45.28
O 45.512 56.47 48.907
O 42.049 57.107 45.768
O 46.846 56.204 46.256
O 45.625 57.874 45.407
O 42.028 61.824 43.179
H 44.348 60.781 43.151
H 45.619 60.375 43.877
H 47.347 59.094 47.843
H 42.573 56.542 46.35
H 41.572 57.683 46.378
H 41.431 62.378 46.784
H 40.582 62.226 45.535
H 45.417 57.425 49.012
H 44.606 56.163 48.773
H 42.603 61.857 43.954
H 41.232 61.384 43.503
H 45.461 57.822 44.457
H 46.027 58.744 45.522
H 46.034 56.171 46.776
H 47.543 56.256 46.922
H 42.962 63.672 45.304
H 44.416 59.227 48.119
H 48.217 58.876 44.774
H 48.025 60.122 45.621
H 46.56 62.143 44.787
H 45.618 62.604 43.689
H 43.953 59.514 45.723
H 43.284 58.593 44.717
H 43.334 57.919 49.567
H 42.022 60.569 45.68
H 40.637 59.988 45.909
