33
xyz format
O 48.932 74.673 45.769
O 49.082 73.724 49.746
O 45.392 75.422 45.818
O 49.004 75.83 43.481
O 51.26 74.535 48.122
O 51.514 77.722 47.032
O 46.99 75.288 48.146
O 44.074 77.278 46.493
O 48.296 77.728 46.186
O 48.954 76.999 48.202
H 46.283 73.282 46.563
H 47.287 75.485 47.249
H 47.197 74.352 48.255
H 46.812 77.374 42.921
H 50.702 78.027 46.608
H 51.876 77.085 46.402
H 48.519 72.564 45.297
H 51.25 75.321 47.561
H 51.05 73.816 47.514
H 51.854 74.186 45.385
H 51.592 78.51 49.131
H 48.139 75.691 43.886
H 48.869 76.594 42.907
H 45.874 76.255 45.748
H 45.782 74.873 45.126
H 49.606 76.547 48.752
H 48.318 77.346 48.84
H 47.504 77.953 45.683
H 49.18 73.57 48.798
H 49.252 74.669 49.843
H 48.494 76.825 45.909
H 49.303 74.846 46.644
H 49.707 74.641 45.194
