27
xyz format
O 37.064 69.457 33.299
O 33.676 67.464 34.202
O 36.997 71.202 36.213
O 31.745 65.226 35.258
O 36.051 66.287 35.211
O 35.681 68.425 39.15
O 34.821 68.652 36.56
O 34.096 66.866 37.684
O 36.981 68.8 36.949
O 35.321 64.73 36.865
H 37.473 69.055 36.158
H 37.154 67.854 37.031
H 35.003 66.697 37.969
H 33.611 66.974 38.512
H 34.19 64.637 33.82
H 34.38 64.865 36.701
H 35.052 68.897 35.655
H 34.041 69.188 36.75
H 32.254 65.654 35.958
H 36.349 66.518 34.322
H 36.837 65.907 35.623
H 33.955 66.659 34.656
H 33.214 67.964 34.886
H 37.652 71.602 35.628
H 36.291 70.928 35.613
H 36.717 68.844 32.64
H 36.406 69.431 34.005
