43
xyz format
O 61.531 64.618 56.662
O 65.032 58.193 53.772
O 61.128 58.983 57.055
O 61.631 61.417 54.456
O 61.826 62.956 59.73
O 65.671 61.294 58.902
O 60.537 63.447 55.094
O 58.991 62.781 56.522
O 59.661 62.547 61.16
O 64.807 59.715 55.941
O 61.59 60.384 58.908
O 59.691 61.441 58.761
O 67.389 62.821 57.353
O 62.963 61.964 56.456
O 63.848 61.673 60.101
H 67.838 62.736 56.502
H 67.122 63.748 57.38
H 61.213 59.53 59.155
H 61.853 60.771 59.753
H 59.275 60.602 58.994
H 59.94 61.325 57.836
H 64.888 60.489 55.369
H 64.124 59.185 55.512
H 63.394 61.494 57.181
H 63.614 62.626 56.193
H 58.307 62.937 55.86
H 59.947 63.094 54.416
H 61.356 63.625 54.615
H 64.26 62.545 60.131
H 63.907 61.36 61.012
H 66.955 62.571 54.494
H 66.958 61.145 55.017
H 66.06 60.469 59.218
H 65.9 61.312 57.965
H 60.983 63.291 59.402
H 62.324 62.76 58.927
H 62.583 61.272 54.402
H 61.363 61.528 53.535
H 62.094 64.337 57.394
H 60.849 65.152 57.089
H 64.102 58.194 53.514
H 61.074 59.732 56.449
H 60.219 58.865 57.356
