29
xyz format
O 44.78 72.802 57.887
O 46.719 72.536 55.898
O 46.985 74.753 59.777
O 47.555 76.079 57.71
O 46.061 73.681 54.138
O 43.588 75.185 57.835
O 44.778 74.834 55.99
O 45.886 73.601 62.148
O 43.308 73.884 60.755
O 48.96 76.541 60.738
O 44.167 77.187 57.112
H 45.508 74.345 62.633
H 43.285 75.768 58.543
H 43.135 74.352 58.015
H 45.375 75.335 55.421
H 44.189 74.387 55.368
H 42.713 74.57 60.428
H 43.828 73.641 59.979
H 48.204 76.604 60.141
H 46.184 74.781 60.315
H 47.352 73.878 59.957
H 47.056 76.759 58.18
H 46.874 75.569 57.253
H 46.731 72.001 56.702
H 46.711 73.444 56.227
H 43.388 77.179 56.542
H 45.34 73.587 57.941
H 44.458 72.812 56.977
H 44.905 77.227 56.491
