38
xyz format
O 42.228 51.872 52.946
O 38.685 57.888 54.719
O 42.458 57.269 53.963
O 42.547 54.312 57.931
O 46.216 56.588 52.637
O 40.293 57.193 52.427
O 42.88 56.545 56.125
O 41.558 54.762 51.557
O 41.164 55.004 53.881
O 40.52 56.216 56.62
O 41.481 52.655 56.237
H 42.386 54.555 52.01
H 41.371 53.965 51.047
H 44.404 57.97 53.163
H 40.145 58.063 52.036
H 40.361 56.607 51.663
H 41.165 51.824 55.86
H 42.43 52.639 56.063
H 38.015 57.433 52.167
H 38.375 56.936 50.778
H 42.498 57.431 56.156
H 43.628 56.596 56.734
H 41.656 52.63 52.774
H 42.731 52.136 53.726
H 40.33 55.489 53.83
H 40.058 55.421 56.914
H 40.095 56.43 55.779
H 41.209 54.723 54.803
H 46.527 57.494 52.517
H 41.707 54.201 58.393
H 42.289 54.643 57.062
H 42.181 57.907 53.293
H 42.713 56.493 53.448
H 39.561 53.435 55.449
H 44.534 58.638 56.496
H 38.956 58.362 53.923
H 38.244 57.1 54.377
H 38.881 54.256 52.7
