52
xyz format
O 43.409 31.841 44.157
O 44.611 31.972 38.288
O 36.8 31.274 41.013
O 38.696 30.883 43.229
O 40.657 31.601 38.058
O 41.199 31.681 43.378
O 43.704 34.017 44.311
O 41.94 30.858 40.636
O 40.3 36.05 40.7
O 44.366 32.637 42.188
O 40.349 33.304 41.177
O 39.064 29.864 40.771
O 37.781 33.021 39.052
O 46.553 31.436 39.232
O 45.493 29.707 41.248
O 45.917 34.532 40.466
O 41.964 33.859 39.435
O 42.477 34.855 41.362
H 44.962 30.145 40.572
H 45.849 30.437 41.769
H 38.043 33.896 38.739
H 36.831 33.105 39.198
H 39.438 33.066 40.963
H 40.27 33.791 42.007
H 41.836 30.616 41.564
H 41.885 31.822 40.643
H 39.468 30.725 40.939
H 45.676 34.913 39.613
H 45.081 34.5 40.948
H 45.219 32.518 42.623
H 44.512 32.294 41.298
H 46.326 31.804 40.095
H 40.984 35.817 40.059
H 39.633 35.362 40.583
H 42.414 33.146 38.966
H 43.373 34.339 45.159
H 44.657 33.948 44.448
H 41.065 33.833 39.083
H 40.855 31.383 44.23
H 41.444 32.601 43.54
H 40.292 30.898 38.609
H 38.727 31.722 42.753
H 38.17 31.083 44.013
H 37.492 31.944 40.948
H 37.149 30.647 41.659
H 44.739 32.725 38.878
H 44.187 31.311 38.848
H 42.989 35.331 42.027
H 42.727 33.932 41.497
H 39.546 33.326 44.373
H 44.304 31.563 44.388
H 42.913 31.718 44.976
