81
xyz format
O 33.994 67.104 54.839
O 30.798 55.98 50.701
O 30.685 62.111 51.835
O 32.848 56.56 52.79
O 31.491 59.184 57.652
O 31.547 56.696 55.17
O 31.427 60.912 59.062
O 35.803 57.681 53.654
O 32.843 62.11 56.765
O 28.001 55.325 50.766
O 37.42 62.98 54.343
O 37.86 65.411 53.471
O 33.56 58.405 51.13
O 30.982 59.397 51.281
O 34.127 65.404 56.244
O 32.798 64.958 50.387
O 37.019 62.904 56.579
O 30.955 54.379 56.495
O 34.107 60.949 58.473
O 34.831 63.241 53.989
O 38.105 64.816 56.457
O 32.056 63.298 53.082
O 34.279 58.0 56.305
O 30.114 62.254 55.04
O 34.128 64.994 52.731
O 31.733 59.795 54.694
O 33.372 60.588 52.768
O 29.809 57.686 52.617
O 28.119 58.058 51.151
O 36.74 60.665 55.989
H 32.406 63.661 52.259
H 32.675 63.613 53.753
H 37.724 65.66 56.185
H 34.804 62.462 54.558
H 34.685 63.975 54.599
H 34.222 58.802 56.839
H 33.928 57.313 56.884
H 31.593 59.294 52.022
H 31.561 59.566 50.528
H 36.339 63.389 57.065
H 37.611 62.584 57.271
H 34.971 65.48 56.706
H 33.478 65.672 56.907
H 30.68 57.406 52.927
H 29.313 57.834 53.432
H 36.893 63.76 54.557
H 36.89 62.52 53.68
H 37.481 66.12 54.005
H 38.796 65.421 53.708
H 30.772 59.786 54.785
H 31.921 59.004 54.174
H 32.827 57.794 50.982
H 34.231 59.196 59.797
H 33.281 61.758 55.981
H 32.153 62.682 56.405
H 33.305 60.795 51.827
H 33.345 61.452 53.196
H 27.664 55.654 51.609
H 28.608 56.018 50.476
H 27.677 58.605 51.812
H 27.996 58.549 50.329
H 30.601 56.925 50.707
H 30.488 55.676 51.563
H 35.786 58.569 54.032
H 31.911 56.412 56.018
H 30.613 56.848 55.361
H 38.888 61.13 56.094
H 29.052 55.22 53.26
H 33.723 61.786 58.762
H 34.669 61.199 57.728
H 35.764 59.128 51.899
H 32.666 55.886 53.458
H 33.076 57.341 53.309
H 31.043 61.398 52.38
H 30.901 58.516 57.281
H 31.708 59.743 56.896
H 33.612 65.555 53.324
H 34.242 65.539 51.942
H 36.591 59.928 56.595
H 35.864 61.058 55.887
H 29.228 60.523 50.574
