22
xyz format
O 69.707 53.004 35.096
O 72.199 57.22 40.709
O 75.095 56.844 38.069
O 70.973 55.472 36.151
O 70.575 57.224 38.166
O 71.728 55.394 33.185
O 72.557 53.274 33.777
O 73.177 56.067 37.247
H 72.848 56.634 37.956
H 73.308 55.213 37.678
H 71.416 56.249 32.863
H 72.142 54.995 32.409
H 71.432 56.273 35.869
H 71.667 54.801 36.155
H 70.997 57.73 37.461
H 70.809 57.708 38.967
H 72.227 56.435 40.147
H 72.867 52.895 34.609
H 71.621 53.04 33.753
H 69.993 53.913 34.947
H 75.213 56.004 38.529
H 74.741 57.431 38.749
