47
xyz format
O 64.275 48.624 42.465
O 63.103 48.738 45.302
O 63.678 51.852 40.364
O 61.097 47.285 39.771
O 65.525 52.671 44.585
O 65.778 46.918 42.973
O 64.222 45.19 42.549
O 68.556 48.274 43.101
O 61.369 48.486 42.344
O 62.31 52.908 43.54
O 60.701 48.478 37.688
O 65.993 48.457 40.905
O 63.68 50.758 43.388
O 66.182 51.454 42.628
O 65.226 47.043 46.374
O 67.213 49.441 44.803
O 61.838 51.324 39.278
O 63.232 47.84 39.281
H 63.975 50.553 44.284
H 64.068 51.625 43.212
H 61.811 47.628 42.321
H 61.969 49.066 41.859
H 67.075 48.516 45.041
H 66.596 49.919 45.37
H 68.549 49.239 43.066
H 65.636 47.891 46.584
H 65.12 47.07 45.415
H 62.068 52.136 44.067
H 66.29 50.784 43.315
H 66.857 51.225 41.977
H 61.651 46.72 40.324
H 60.583 47.797 40.408
H 63.119 52.069 41.12
H 64.24 51.139 40.691
H 63.962 45.689 41.765
H 66.066 46.248 43.605
H 66.372 47.661 43.139
H 65.426 48.856 40.233
H 66.176 49.185 41.511
H 61.282 48.21 36.965
H 60.556 49.419 37.527
H 66.269 52.248 45.031
H 63.749 47.196 39.78
H 62.991 48.502 39.941
H 63.637 48.505 43.18
H 64.095 47.884 41.872
H 62.361 50.531 39.103
