46
xyz format
O 39.204 41.383 60.672
O 35.84 42.538 57.24
O 40.595 39.112 59.971
O 34.737 41.613 60.558
O 36.91 40.031 58.631
O 35.825 45.508 61.706
O 41.643 43.515 61.298
O 33.708 43.194 58.924
O 33.341 39.729 62.026
O 39.839 44.713 60.639
O 36.973 43.195 62.621
O 36.277 45.16 58.973
O 32.819 40.019 59.355
O 35.986 40.743 63.731
H 37.584 44.321 57.251
H 37.955 37.869 61.058
H 32.695 40.39 58.473
H 41.532 41.635 62.619
H 35.604 45.583 59.521
H 36.952 44.888 59.608
H 39.358 43.904 60.851
H 40.098 44.59 59.717
H 33.431 39.131 61.274
H 33.114 40.575 61.62
H 32.07 42.126 57.214
H 36.135 43.381 62.18
H 37.597 43.09 61.892
H 41.386 42.999 60.524
H 42.007 44.326 60.922
H 32.995 43.844 58.953
H 34.51 43.731 58.954
H 36.655 45.713 62.155
H 37.257 40.697 59.238
H 36.107 39.719 59.069
H 35.355 41.646 59.817
H 34.633 42.539 60.811
H 36.395 42.325 58.001
H 36.4 42.328 56.482
H 33.515 43.922 56.783
H 34.194 43.554 54.589
H 39.731 41.798 61.366
H 36.408 40.913 62.88
H 38.385 41.137 61.122
H 36.634 41.052 64.375
H 40.341 39.909 59.488
H 39.814 38.905 60.499
