49
xyz format
O 60.252 42.998 62.523
O 58.929 40.688 62.381
O 64.232 40.062 62.331
O 64.688 38.506 65.185
O 60.249 38.508 63.968
O 58.777 43.403 65.603
O 63.218 39.463 67.738
O 65.797 38.013 67.021
O 62.695 41.199 68.982
O 62.853 44.146 62.449
O 60.783 41.805 66.739
O 62.059 41.298 64.773
O 57.834 39.373 65.035
O 62.493 38.106 65.071
O 61.593 43.859 64.625
O 61.245 42.632 60.381
H 61.964 41.694 68.59
H 62.258 40.472 69.442
H 58.095 39.04 64.167
H 58.331 40.196 65.124
H 59.707 41.146 68.539
H 62.655 41.812 65.332
H 62.491 41.306 63.91
H 66.036 38.947 67.084
H 65.612 37.761 67.934
H 60.235 41.193 66.23
H 60.737 42.627 66.235
H 62.733 43.484 61.756
H 60.557 39.313 63.532
H 60.415 37.817 63.315
H 63.603 38.591 67.585
H 63.649 40.022 67.079
H 58.604 44.125 64.987
H 58.898 42.636 65.029
H 64.415 40.618 63.098
H 63.268 40.013 62.308
H 64.305 39.34 64.884
H 64.798 37.997 64.373
H 63.566 41.816 60.591
H 62.327 38.719 65.798
H 62.598 37.411 62.985
H 58.649 41.508 62.806
H 59.503 40.987 61.664
H 61.446 44.633 64.068
H 62.011 44.221 65.416
H 59.754 43.491 63.187
H 60.771 42.372 63.044
H 60.365 42.471 60.02
H 61.384 41.892 60.986
