56
xyz format
O 51.909 51.365 55.163
O 53.93 51.905 51.539
O 50.19 53.992 53.244
N 52.353 53.934 53.978
N 51.761 52.453 51.079
N 52.84 50.036 49.228
N 54.45 50.646 53.996
C 52.791 51.562 51.129
C 51.406 53.938 52.972
C 50.386 53.922 48.435
C 56.677 51.811 56.155
C 51.942 53.806 55.355
C 51.302 56.212 48.639
C 54.053 49.22 53.886
C 55.642 51.408 57.001
C 54.453 52.135 57.049
C 55.33 53.677 55.408
C 52.916 48.985 52.897
C 51.361 54.801 49.194
C 53.052 54.098 56.375
C 53.356 49.113 51.453
C 52.523 50.115 50.631
C 51.894 53.827 51.502
C 51.055 54.819 50.684
C 54.285 53.274 56.25
C 56.517 52.946 55.359
H 57.346 53.289 54.718
H 55.216 50.759 54.669
H 52.985 54.119 51.425
H 49.343 54.303 48.555
H 50.641 53.926 47.347
H 51.127 54.581 55.525
H 52.605 53.958 57.397
H 50.294 56.66 48.817
H 53.648 51.217 54.314
H 51.278 55.837 51.105
H 55.236 54.601 54.815
H 49.964 54.621 50.859
H 51.494 56.201 47.539
H 57.63 51.259 56.147
H 50.852 52.155 50.786
H 53.315 53.824 53.762
H 53.652 51.827 57.739
H 53.728 48.878 54.911
H 55.778 50.537 57.663
H 54.748 50.997 53.073
H 51.419 49.877 50.77
H 52.402 54.402 49.034
H 54.965 48.635 53.574
H 52.07 56.86 49.126
H 50.418 52.866 48.792
H 53.331 55.185 56.28
H 54.439 49.401 51.389
H 53.259 48.104 50.963
H 52.561 47.933 53.083
H 52.051 49.664 53.13
