67
xyz format
O 45.343 58.568 57.018
O 49.235 60.47 57.866
O 51.694 59.22 57.721
O 47.926 61.005 61.121
O 55.729 60.392 59.571
O 49.581 59.632 54.869
O 52.149 60.996 55.772
O 47.052 57.775 61.629
O 44.16 58.405 59.33
O 53.335 59.822 59.477
O 52.648 62.02 61.581
O 47.15 59.032 58.231
O 47.78 58.377 55.011
O 54.39 58.038 61.041
O 49.094 57.43 60.789
O 47.129 60.991 55.846
O 53.778 58.748 63.227
O 50.522 60.756 60.53
O 51.743 56.608 61.237
O 49.576 58.58 52.507
O 50.585 56.881 63.867
O 51.17 59.369 62.253
O 56.131 58.195 58.527
H 50.53 63.626 57.038
H 49.166 57.257 59.842
H 48.836 56.576 61.159
H 52.996 58.483 63.727
H 53.729 59.712 63.219
H 51.996 59.137 61.81
H 50.743 58.516 62.403
H 53.866 57.27 60.781
H 55.021 57.679 61.677
H 50.306 57.651 64.378
H 49.086 59.214 51.969
H 48.918 58.254 53.133
H 51.934 55.783 60.774
H 50.949 56.406 61.748
H 52.824 59.013 59.601
H 53.859 59.644 58.686
H 44.771 57.746 58.977
H 52.619 61.279 60.963
H 52.599 62.796 61.009
H 46.957 59.579 59.002
H 47.376 58.173 58.611
H 47.452 60.45 56.577
H 46.262 61.291 56.148
H 47.132 58.827 54.454
H 47.611 57.441 54.849
H 46.846 57.686 60.69
H 46.996 58.725 61.787
H 50.258 58.952 54.765
H 49.447 59.678 55.824
H 55.109 61.054 59.9
H 48.487 60.222 61.173
H 47.885 61.196 60.175
H 52.033 60.087 55.468
H 52.764 60.913 56.512
H 45.068 60.35 59.826
H 46.038 58.488 56.352
H 50.836 58.953 57.369
H 51.519 60.08 58.123
H 48.838 61.286 58.194
H 49.155 59.86 58.61
H 50.577 61.345 59.767
H 50.717 59.885 60.162
H 55.929 58.108 59.467
H 55.971 59.639 62.028
