103
xyz format
Cl 41.259 60.751 72.504
O 37.741 56.897 68.277
O 37.602 63.398 67.675
O 39.899 60.189 68.296
O 36.647 56.414 65.243
O 34.328 58.476 71.525
O 34.465 56.317 67.248
O 43.318 58.978 68.133
O 41.727 60.218 65.82
O 38.772 59.287 62.177
O 38.35 61.942 61.796
O 40.328 58.319 65.298
O 31.792 59.233 68.141
O 39.651 55.792 66.746
O 33.071 56.098 65.026
O 37.459 63.726 63.168
O 39.539 65.561 66.666
O 29.765 56.726 68.14
O 40.68 60.52 63.249
O 37.689 60.247 64.995
O 38.789 62.81 65.645
O 35.661 60.035 66.811
O 36.171 58.634 61.883
O 38.217 62.174 71.924
O 33.973 58.652 63.702
O 35.522 60.678 62.854
O 37.19 54.806 67.572
O 34.723 62.614 67.073
O 41.134 62.894 68.441
O 38.043 57.227 62.013
O 37.411 64.431 70.788
O 39.961 61.539 70.61
O 38.013 59.058 66.887
O 39.021 60.055 74.726
H 38.816 65.598 66.027
H 32.976 55.365 71.736
H 33.482 54.76 70.439
H 39.67 66.484 66.917
H 34.915 58.446 63.734
H 33.853 59.043 62.828
H 37.307 62.338 72.202
H 38.358 61.244 72.142
H 38.817 58.546 67.044
H 37.822 59.454 67.747
H 35.825 57.749 61.713
H 36.752 58.801 61.131
H 35.113 59.276 66.571
H 35.69 60.0 67.775
H 40.094 60.579 64.014
H 36.85 63.194 63.695
H 39.694 61.844 69.734
H 40.245 60.629 70.459
H 30.03 56.033 68.758
H 30.538 56.837 67.573
H 37.963 64.218 63.828
H 37.99 64.956 70.221
H 36.892 63.909 70.165
H 42.428 58.065 66.163
H 37.394 62.019 61.679
H 38.447 61.684 62.721
H 36.376 60.877 63.258
H 34.899 61.215 63.359
H 39.486 58.643 64.953
H 40.875 58.217 64.51
H 34.292 61.837 67.452
H 35.631 62.322 66.924
H 40.041 56.314 67.458
H 39.349 54.989 67.188
H 33.726 56.785 64.851
H 32.723 56.329 65.897
H 31.197 59.608 68.801
H 31.227 59.103 67.369
H 39.379 58.815 62.761
H 38.038 59.528 62.755
H 37.732 56.938 62.88
H 41.348 61.094 65.967
H 42.594 60.27 66.241
H 43.323 58.597 69.02
H 35.391 56.511 67.055
H 34.458 56.156 68.2
H 27.543 57.174 66.615
H 34.284 57.518 71.636
H 35.183 58.618 71.1
H 36.98 57.28 64.976
H 35.864 56.289 64.692
H 35.22 54.285 65.329
H 40.859 60.162 68.399
H 39.775 60.497 67.389
H 39.834 60.312 74.273
H 38.325 60.474 74.204
H 32.505 60.778 66.724
H 38.614 62.358 64.81
H 38.738 62.105 66.303
H 37.063 60.892 65.348
H 37.144 59.468 64.825
H 38.372 57.355 68.846
H 36.971 57.479 68.273
H 36.923 64.019 67.967
H 37.183 54.771 66.607
H 36.274 54.626 67.815
H 40.457 62.746 67.769
H 37.738 62.83 68.443
H 40.104 63.708 63.919
