29
xyz format
O 40.247 67.595 32.417
O 43.167 63.664 30.895
O 40.343 65.535 28.373
O 39.563 62.225 31.07
O 40.224 65.104 34.051
O 38.547 65.3 29.963
O 42.012 67.128 29.474
O 38.266 65.462 32.948
O 41.026 65.701 31.399
O 42.048 69.033 31.63
H 42.629 68.264 31.667
H 42.439 69.583 30.94
H 38.32 64.363 29.929
H 37.755 65.74 29.629
H 38.57 65.019 32.146
H 37.695 66.167 32.617
H 40.114 62.96 30.772
H 41.638 67.651 28.754
H 42.69 66.594 29.041
H 41.006 65.443 30.469
H 41.894 66.11 31.505
H 41.03 65.325 33.568
H 39.956 64.256 33.675
H 39.483 65.381 27.961
H 40.729 64.652 28.435
H 40.538 67.456 33.327
H 39.458 68.143 32.51
H 42.364 63.905 31.373
H 42.919 63.762 29.967
