35
xyz format
O 42.098 48.166 37.965
O 39.528 47.063 40.557
O 44.581 47.833 40.163
O 38.04 44.595 39.198
O 42.39 45.371 38.656
O 45.069 46.488 38.492
O 38.559 49.318 40.297
O 41.915 43.483 39.942
O 41.935 47.489 35.878
O 40.71 45.32 41.849
O 42.779 49.169 40.93
H 38.939 44.363 39.461
H 39.907 46.938 39.678
H 40.031 47.803 40.92
H 44.206 46.609 38.076
H 45.694 46.632 37.771
H 41.758 46.071 38.864
H 42.969 45.348 39.428
H 41.826 49.069 41.047
H 42.932 50.109 41.083
H 45.332 48.37 40.446
H 44.185 48.349 39.45
H 37.751 49.496 39.8
H 39.244 49.774 39.792
H 39.583 48.933 37.734
H 38.565 47.928 38.243
H 40.996 51.149 39.344
H 41.049 47.835 36.039
H 41.792 46.543 35.751
H 37.444 46.469 40.178
H 41.048 43.756 39.617
H 41.849 48.299 38.888
H 42.788 48.825 37.817
H 39.952 45.044 41.319
H 41.459 45.215 41.249
