26
xyz format
O 36.685 59.221 51.626
O 33.429 56.825 48.595
O 35.803 57.681 53.654
O 40.293 57.193 52.427
O 36.032 56.502 49.186
O 38.01 56.638 51.62
O 35.492 58.963 47.841
H 35.941 59.571 48.441
H 35.045 58.346 48.433
H 40.145 58.063 52.036
H 40.361 56.607 51.663
H 33.817 58.675 50.24
H 38.015 57.433 52.167
H 38.375 56.936 50.778
H 36.566 57.216 49.556
H 36.083 55.808 49.856
H 35.786 58.569 54.032
H 32.618 57.281 48.853
H 33.839 56.592 49.437
H 42.181 57.907 53.293
H 34.508 57.097 46.7
H 38.956 58.362 53.923
H 38.244 57.1 54.377
H 35.764 59.128 51.899
H 36.653 59.111 50.668
H 42.094 57.181 50.043
