7000
Supercell generated
Cl  51.965  59.050  63.095
Cl  55.918  41.544  54.986
Cl  62.318  59.715  40.787
Cl  64.903  44.347  36.263
Cl  48.985  45.555  32.427
Cl  59.140  64.634  52.282
Cl  33.436  38.229  47.492
Cl  40.820  57.828  54.023
Na  62.341  54.500  56.153
Na  47.775  33.887  37.212
Na  30.757  46.146  35.215
Na  61.455  61.813  51.551
Na  57.812  42.405  36.811
Na  31.157  65.080  55.589
O  48.032  41.203  57.415
O  43.097  47.738  68.857
O  53.039  46.610  35.904
O  58.766  57.412  47.781
O  61.184  61.527  44.769
O  67.508  42.440  54.206
O  30.191  62.494  55.442
O  63.943  34.264  36.967
O  48.628  49.143  65.928
O  63.983  50.471  68.871
O  40.291  59.413  43.191
O  31.657  46.012  39.765
O  46.421  54.741  35.177
O  54.898  41.986  29.235
O  54.277  33.812  35.066
O  65.694  58.660  48.570
O  52.768  26.135  50.212
O  63.085  36.307  50.854
O  68.326  59.318  38.938
O  35.311  38.641  41.602
O  39.977  44.715  34.704
O  54.281  32.643  38.920
O  36.486  60.905  65.826
O  48.774  37.583  38.950
O  61.112  44.972  29.030
O  47.753  64.807  34.455
O  38.733  40.738  29.934
O  40.792  31.867  61.357
O  67.798  59.068  60.778
O  54.896  67.703  51.191
O  42.215  50.014  61.849
O  39.156  58.284  40.281
O  68.968  55.981  49.814
O  45.944  46.504  70.355
O  54.881  33.117  44.865
O  60.370  34.135  66.573
O  38.561  49.723  60.230
O  69.027  41.951  62.033
O  40.281  49.348  66.166
O  32.614  46.590  64.790
O  39.496  39.406  39.650
O  34.271  44.792  45.305
O  59.762  61.148  33.865
O  57.133  58.884  47.859
O  57.411  27.226  53.083
O  47.135  36.708  41.020
O  43.354  52.267  63.354
O  45.575  51.274  70.220
O  42.007  67.303  64.749
O  32.186  35.579  56.330
O  33.187  52.131  42.144
O  38.369  31.604  40.747
O  64.692  46.645  65.509
O  49.812  62.754  40.326
O  56.550  29.456  41.491
O  60.841  54.638  66.891
O  44.287  68.319  41.585
O  32.643  60.964  41.458
O  35.787  33.548  42.247
O  38.666  55.212  58.320
O  51.360  48.419  31.424
O  56.368  74.604  47.924
O  45.492  58.469  42.490
O  47.668  50.351  30.633
O  46.016  36.625  38.088
O  69.003  49.737  42.723
O  68.408  60.041  43.761
O  34.619  46.264  60.325
O  48.445  34.371  60.922
O  71.531  56.656  58.881
O  52.929  72.091  47.344
O  55.094  49.136  64.885
O  34.107  36.887  45.877
O  59.630  47.537  29.680
O  41.170  39.095  33.612
O  53.200  70.035  53.231
O  58.494  49.410  47.778
O  73.253  47.954  42.012
O  61.300  65.972  34.732
O  52.926  53.257  35.619
O  47.006  57.340  45.574
O  51.767  40.628  57.886
O  45.473  38.473  64.078
O  37.791  48.621  37.495
O  29.672  45.266  43.965
O  55.179  59.683  44.178
O  48.053  64.884  47.974
O  54.480  39.417  60.614
O  46.541  66.855  51.912
O  33.926  58.171  53.643
O  46.264  72.078  53.222
O  39.708  44.214  54.454
O  69.176  51.021  40.513
O  73.377  47.420  57.433
O  63.981  63.845  51.447
O  58.229  63.006  43.896
O  43.317  47.111  31.349
O  43.027  29.745  42.413
O  59.820  65.331  59.495
O  46.749  39.988  28.609
O  44.486  63.214  70.144
O  55.276  68.100  58.319
O  44.290  50.979  34.102
O  58.480  39.984  43.040
O  52.438  58.316  41.493
O  30.335  42.043  55.920
O  45.102  53.749  62.503
O  34.029  45.248  43.152
O  63.998  41.767  58.437
O  40.634  60.651  37.580
O  69.902  63.061  56.203
O  57.777  56.319  73.339
O  43.300  42.850  64.168
O  31.530  46.068  52.748
O  53.226  34.798  36.733
O  32.488  64.210  60.080
O  34.730  51.041  32.501
O  33.501  39.163  52.618
O  64.651  61.231  63.941
O  70.844  55.556  39.420
O  50.322  71.820  54.101
O  68.237  41.951  48.125
O  59.207  47.130  27.186
O  71.472  40.200  42.896
O  42.894  62.241  36.238
O  33.851  40.202  40.819
O  52.927  39.190  49.967
O  49.306  50.933  27.532
O  49.285  33.028  57.674
O  29.273  54.083  40.813
O  32.927  48.924  43.981
O  27.333  56.017  57.130
O  48.523  45.197  73.790
O  70.305  49.333  38.026
O  67.818  49.711  60.511
O  38.657  53.712  61.799
O  35.516  48.967  63.804
O  42.728  49.091  34.849
O  33.734  52.945  60.322
O  59.896  30.561  49.222
O  27.489  54.759  48.508
O  62.178  31.319  48.409
O  60.930  52.597  28.662
O  67.773  61.640  60.812
O  52.504  72.513  41.132
O  54.373  43.284  63.230
O  57.666  59.585  65.705
O  34.363  67.217  60.455
O  63.985  60.256  45.756
O  32.643  48.133  35.745
O  56.189  44.302  62.240
O  49.534  65.165  32.392
O  40.872  47.902  36.987
O  55.780  59.188  54.450
O  65.956  39.210  50.038
O  58.962  34.808  61.664
O  46.772  61.523  69.329
O  36.406  69.906  55.177
O  33.292  43.223  57.142
O  48.091  51.460  73.703
O  39.966  35.034  53.412
O  32.401  38.586  63.087
O  41.099  55.582  45.500
O  45.995  43.675  35.055
O  47.872  65.292  41.395
O  33.401  56.547  51.494
O  32.568  60.734  61.576
O  52.764  50.241  68.458
O  53.238  32.633  63.603
O  43.631  42.917  73.654
O  42.164  52.422  54.413
O  41.529  30.400  62.822
O  50.004  67.407  46.234
O  42.534  34.121  51.495
O  54.714  27.626  59.373
O  34.363  68.035  53.189
O  50.864  29.933  56.981
O  51.738  43.633  59.534
O  52.422  27.971  61.630
O  58.847  35.739  33.088
O  53.398  34.967  39.474
O  66.776  42.691  61.511
O  61.902  47.108  67.591
O  44.373  63.889  44.111
O  50.192  46.641  26.092
O  60.286  38.309  30.496
O  32.346  48.745  60.946
O  52.804  37.621  38.102
O  70.074  50.897  52.989
O  57.093  55.512  43.668
O  60.786  46.825  65.251
O  68.636  39.094  50.313
O  49.450  32.058  45.493
O  39.717  67.561  54.474
O  29.556  50.449  36.324
O  62.928  37.030  35.986
O  63.382  47.536  47.326
O  50.758  74.792  54.200
O  56.211  38.059  66.711
O  50.664  53.531  71.354
O  45.814  35.438  56.178
O  43.026  60.147  45.287
O  51.608  45.185  25.007
O  63.518  32.761  61.541
O  57.719  64.369  50.597
O  67.349  34.305  57.410
O  43.554  41.732  36.352
O  56.139  56.644  69.324
O  49.219  59.924  28.127
O  42.379  55.121  62.769
O  73.294  48.881  50.611
O  42.051  39.242  36.187
O  48.159  40.647  54.176
O  53.463  66.597  33.930
O  60.469  63.575  45.340
O  49.243  28.846  47.719
O  62.043  51.680  71.256
O  44.281  37.078  52.391
O  42.076  69.865  40.642
O  62.528  46.874  50.047
O  50.378  38.628  43.276
O  68.863  40.017  59.970
O  45.623  64.224  66.061
O  53.794  48.672  73.744
O  34.388  52.677  38.933
O  64.290  51.845  63.980
O  46.500  71.226  50.987
O  41.089  45.421  70.455
O  49.447  46.211  71.943
O  35.778  36.028  49.096
O  58.224  46.115  32.420
O  42.513  45.569  52.951
O  66.225  52.655  47.208
O  57.323  48.603  70.946
O  58.984  54.995  65.090
O  60.358  44.578  62.595
O  34.414  50.914  43.545
O  33.956  30.834  53.736
O  37.478  53.081  41.090
O  57.826  64.599  61.857
O  56.408  37.437  63.422
O  48.524  43.265  55.858
O  30.073  59.936  40.800
O  30.002  41.754  44.173
O  59.146  73.486  46.855
O  46.705  42.915  28.050
O  35.389  60.206  40.481
O  44.227  41.514  52.476
O  61.061  53.842  36.732
O  47.270  26.086  49.292
O  44.090  40.527  63.164
O  29.705  56.346  39.447
O  65.992  46.784  31.257
O  62.773  71.349  45.608
O  58.348  32.187  49.979
O  36.412  49.543  45.565
O  48.963  27.127  56.636
O  54.596  57.253  31.251
O  35.915  30.381  41.818
O  35.502  68.379  47.257
O  69.257  39.511  39.735
O  61.513  31.032  45.577
O  34.652  63.917  55.595
O  40.529  57.978  35.944
O  39.852  54.107  48.338
O  51.712  36.938  66.184
O  50.493  29.982  36.969
O  48.374  37.329  66.189
O  56.632  32.158  58.787
O  51.432  37.013  71.261
O  46.967  61.751  55.655
O  30.182  35.004  53.696
O  47.784  32.120  52.955
O  53.987  28.243  46.620
O  52.631  28.206  50.941
O  58.834  57.385  44.824
O  43.112  63.628  47.111
O  66.386  50.135  55.252
O  54.131  41.813  52.226
O  74.811  51.700  50.024
O  31.506  66.302  53.061
O  41.871  60.190  50.733
O  56.037  68.277  34.377
O  52.621  53.457  62.046
O  35.041  47.279  39.990
O  46.760  50.954  32.982
O  43.930  28.904  48.006
O  49.901  73.450  48.995
O  60.387  32.921  47.123
O  57.238  73.189  53.375
O  67.583  59.199  46.347
O  56.708  41.830  47.985
O  64.803  57.184  33.110
O  66.519  67.855  43.855
O  71.201  53.544  56.164
O  48.363  47.056  30.705
O  68.048  59.382  49.206
O  33.553  58.900  39.273
O  61.231  59.702  47.077
O  37.656  49.620  62.625
O  41.539  46.142  49.930
O  44.601  53.998  39.399
O  58.617  54.291  41.060
O  26.930  40.742  52.724
O  33.217  48.881  30.842
O  60.830  38.109  54.776
O  29.754  38.820  40.930
O  58.369  47.038  63.379
O  64.402  40.810  50.461
O  43.666  32.345  47.202
O  34.611  45.817  55.476
O  62.065  36.736  43.558
O  64.090  40.677  45.836
O  32.092  55.183  39.685
O  32.056  42.624  40.319
O  48.404  61.893  38.324
O  50.465  50.898  32.441
O  41.723  64.085  34.684
O  35.775  32.271  49.514
O  47.008  27.295  51.582
O  45.389  32.455  33.606
O  37.957  37.550  31.745
O  54.355  29.039  63.788
O  37.224  64.155  51.830
O  44.343  72.914  43.978
O  43.901  61.643  68.378
O  58.037  46.610  38.414
O  51.383  37.061  59.317
O  56.176  45.723  31.071
O  55.940  33.969  63.176
O  65.813  61.568  49.819
O  61.039  55.010  28.172
O  41.555  67.374  34.224
O  46.452  74.532  51.514
O  61.395  62.688  61.395
O  65.781  35.987  55.149
O  37.608  51.672  50.560
O  55.724  36.878  60.770
O  53.274  32.286  59.707
O  62.251  70.049  50.946
O  66.044  44.725  32.574
O  39.429  50.710  27.865
O  69.357  39.453  62.816
O  64.804  32.923  48.635
O  58.559  39.506  67.206
O  54.012  34.005  48.073
O  40.180  40.639  66.428
O  36.250  46.716  52.557
O  58.019  59.721  56.561
O  36.530  50.127  39.344
O  68.257  48.352  53.452
O  50.073  32.609  51.092
O  48.343  45.606  61.828
O  40.615  48.437  57.270
O  42.253  52.172  36.660
O  67.799  64.147  54.917
O  42.694  37.202  34.641
O  60.692  40.913  57.900
O  44.331  46.594  61.918
O  44.596  68.736  39.129
O  50.365  74.733  50.944
O  52.714  43.770  68.105
O  60.028  47.255  45.707
O  70.197  43.698  45.507
O  39.954  64.360  40.398
O  39.008  31.920  38.063
O  40.929  48.460  32.452
O  59.624  61.246  67.284
O  64.426  37.482  59.766
O  36.199  52.913  36.502
O  64.559  64.446  45.923
O  51.237  70.665  43.609
O  36.110  40.355  43.786
O  38.348  47.467  34.911
O  60.058  52.069  70.320
O  46.860  63.740  52.241
O  54.861  34.055  57.312
O  44.604  69.315  51.636
O  51.353  61.941  48.532
O  48.371  27.535  60.292
O  46.932  54.628  30.235
O  64.599  66.238  53.329
O  62.966  28.349  46.607
O  69.884  41.757  52.036
O  55.176  47.255  61.114
O  71.708  42.436  57.423
O  38.161  37.933  60.377
O  36.501  65.418  47.352
O  51.287  64.373  49.603
O  47.401  47.593  64.822
O  51.298  57.273  60.684
O  60.278  42.496  44.761
O  40.155  63.514  46.867
O  60.760  50.784  62.106
O  72.402  46.254  60.212
O  63.291  60.392  48.593
O  68.934  46.423  39.552
O  56.267  57.943  45.841
O  63.435  49.801  63.318
O  69.869  34.934  48.755
O  40.458  65.231  57.551
O  66.942  37.681  41.394
O  57.151  59.865  63.574
O  55.508  37.840  30.023
O  56.570  54.505  72.266
O  44.585  69.539  44.762
O  38.540  59.611  64.303
O  53.459  72.629  50.945
O  57.682  40.099  56.128
O  36.215  50.068  59.117
O  52.501  51.554  71.645
O  67.222  43.707  64.017
O  32.589  43.652  47.989
O  45.673  65.659  43.982
O  39.077  62.382  67.577
O  60.449  69.828  43.661
O  42.814  33.349  60.161
O  64.926  48.031  45.039
O  40.208  64.022  51.911
O  58.583  52.631  27.427
O  68.245  53.369  52.621
O  38.647  30.744  46.869
O  65.426  32.084  41.160
O  52.185  60.865  40.440
O  54.189  30.578  52.991
O  54.073  30.493  44.173
O  54.501  61.540  70.390
O  57.034  56.204  58.633
O  65.974  53.424  52.143
O  62.997  44.303  41.038
O  59.135  59.085  62.271
O  41.811  60.258  68.895
O  58.599  59.267  72.071
O  46.454  68.249  34.059
O  59.555  61.041  42.369
O  54.903  33.506  66.153
O  32.249  65.368  46.125
O  65.775  50.638  67.600
O  64.421  44.193  48.095
O  44.030  41.840  61.273
O  54.724  58.199  61.992
O  42.830  37.272  65.084
O  30.261  48.557  45.419
O  44.644  61.321  43.395
O  42.257  49.377  65.062
O  74.522  50.739  52.724
O  64.691  65.312  48.342
O  31.786  62.968  41.759
O  43.956  64.968  39.513
O  35.756  50.443  37.297
O  60.892  56.746  63.829
O  48.906  62.073  53.459
O  26.804  50.387  57.282
O  45.249  69.153  64.748
O  58.162  38.347  31.410
O  61.101  66.356  64.534
O  55.973  70.174  51.441
O  30.360  35.404  46.451
O  54.422  54.815  34.096
O  64.188  47.554  29.845
O  46.920  73.955  41.853
O  70.210  47.474  36.313
O  53.160  64.375  46.135
O  56.979  40.029  32.836
O  52.056  43.513  63.012
O  39.193  51.855  34.019
O  47.490  51.559  62.307
O  29.543  40.686  39.706
O  42.445  55.330  57.167
O  37.621  47.865  68.374
O  65.857  61.958  47.101
O  54.908  65.047  38.405
O  57.084  33.545  47.221
O  67.525  57.542  41.775
O  41.543  37.908  56.293
O  56.656  59.694  28.269
O  42.912  57.253  59.797
O  68.683  57.120  46.477
O  30.501  51.523  41.480
O  47.044  38.787  52.584
O  58.223  44.627  40.736
O  64.157  41.552  32.172
O  52.325  71.087  35.890
O  42.334  50.012  55.245
O  34.319  33.102  44.825
O  44.596  40.018  30.551
O  51.497  42.111  35.637
O  59.125  30.546  44.436
O  57.854  45.169  71.274
O  44.964  28.010  42.867
O  45.803  49.361  36.221
O  65.990  60.764  40.958
O  62.770  68.039  62.472
O  36.999  57.365  51.231
O  44.937  48.982  58.938
O  47.326  55.973  28.365
O  40.764  31.193  36.129
O  41.245  63.681  55.738
O  46.330  34.783  35.164
O  45.585  71.427  60.584
O  49.334  29.981  60.611
O  60.741  51.417  59.576
O  68.909  39.794  43.846
O  65.186  43.718  59.598
O  64.021  71.159  52.439
O  62.943  53.237  44.184
O  51.968  68.400  54.545
O  66.141  37.635  52.442
O  49.931  73.814  41.573
O  66.008  59.608  43.752
O  67.429  36.997  58.653
O  40.306  41.455  43.289
O  45.476  36.685  70.810
O  41.212  53.210  68.801
O  54.172  53.902  64.229
O  32.905  57.419  33.937
O  45.679  31.902  56.183
O  30.179  35.200  50.247
O  63.265  43.794  33.349
O  56.116  57.824  42.173
O  54.302  52.165  69.752
O  71.658  46.810  46.335
O  49.013  44.007  53.391
O  68.328  52.446  55.601
O  44.687  66.995  63.358
O  58.523  54.769  37.442
O  44.474  38.897  41.089
O  52.624  67.850  61.637
O  56.623  49.028  62.077
O  51.282  27.027  45.441
O  58.562  35.994  64.939
O  60.586  35.271  35.888
O  51.138  69.437  37.553
O  34.536  43.334  61.485
O  70.264  37.247  46.545
O  40.799  45.903  60.909
O  31.853  41.045  37.030
O  38.648  65.114  36.234
O  56.202  67.939  43.766
O  63.951  42.524  43.199
O  34.337  56.574  67.397
O  38.633  61.108  69.336
O  62.628  33.860  55.634
O  51.118  45.714  30.134
O  57.059  60.140  36.353
O  52.020  33.334  45.978
O  64.979  54.190  64.772
O  46.168  71.475  44.742
O  40.319  53.984  60.347
O  61.075  33.906  39.099
O  43.679  44.224  65.985
O  35.631  47.281  65.230
O  46.352  46.220  63.032
O  33.721  66.437  55.224
O  61.310  45.951  52.052
O  52.323  54.868  69.749
O  62.039  49.719  48.031
O  56.279  50.381  30.380
O  71.507  60.327  55.480
O  46.612  62.629  41.456
O  42.533  47.332  66.021
O  28.906  58.045  61.466
O  47.186  41.792  38.189
O  59.380  62.651  51.371
O  40.479  54.045  63.609
O  59.008  33.689  44.569
O  31.352  58.537  35.351
O  57.142  31.953  62.906
O  46.754  58.656  52.154
O  44.696  36.903  66.192
O  40.072  38.286  37.251
O  60.169  42.732  51.158
O  49.554  52.033  67.704
O  57.405  41.382  63.773
O  40.277  46.361  58.806
O  42.462  59.014  35.630
O  42.256  55.959  64.800
O  57.284  28.971  47.215
O  65.366  69.251  51.262
O  58.884  35.846  41.964
O  30.801  55.159  56.895
O  40.447  43.160  60.244
O  41.154  36.555  44.096
O  59.757  58.872  33.646
O  49.830  41.243  29.528
O  40.502  66.985  62.216
O  63.683  57.793  54.282
O  34.501  59.521  55.740
O  32.007  59.732  63.963
O  46.420  48.637  32.720
O  38.157  48.055  58.087
O  46.259  31.834  50.803
O  54.109  55.768  62.341
O  42.985  59.124  32.087
O  42.164  34.497  56.525
O  38.844  43.910  67.287
O  48.703  68.676  61.693
O  63.751  49.875  36.841
O  32.413  59.951  46.557
O  41.240  49.211  59.370
O  63.118  32.165  39.895
O  42.316  35.615  62.157
O  53.554  68.778  33.119
O  34.437  41.663  59.166
O  32.967  50.221  68.805
O  48.352  36.006  35.379
O  61.644  44.116  49.993
O  63.945  70.887  48.241
O  43.579  69.834  46.822
O  62.458  54.597  41.822
O  67.973  40.127  57.213
O  40.858  38.689  59.099
O  39.154  52.398  54.483
O  57.451  66.364  63.560
O  68.805  51.323  50.172
O  38.142  31.549  43.682
O  33.231  62.117  38.624
O  50.329  60.606  37.451
O  30.701  49.263  43.261
O  63.951  57.294  66.714
O  55.086  37.030  54.600
O  67.724  55.478  53.707
O  54.853  40.261  63.761
O  45.482  60.020  62.188
O  57.263  56.971  26.636
O  57.645  51.014  49.336
O  40.221  52.258  39.367
O  57.171  57.840  30.152
O  58.865  56.982  50.625
O  47.220  35.863  46.183
O  50.306  53.099  39.654
O  47.489  49.030  73.228
O  55.897  53.666  69.966
O  59.285  31.999  58.967
O  59.418  29.549  41.690
O  27.683  58.407  43.653
O  46.741  65.614  62.844
O  40.997  63.095  59.635
O  42.194  67.243  56.159
O  55.965  36.834  44.659
O  51.672  44.736  55.496
O  32.613  37.114  51.418
O  49.886  35.655  69.473
O  67.901  63.140  51.771
O  57.384  31.590  38.512
O  30.994  38.423  59.057
O  53.970  62.568  35.516
O  39.474  39.334  62.436
O  50.862  32.645  33.225
O  62.840  57.235  47.265
O  34.253  63.116  52.248
O  33.948  47.102  51.132
O  54.671  63.300  60.538
O  32.135  47.142  67.380
O  42.306  51.976  70.973
O  60.717  51.608  44.324
O  52.860  56.867  32.684
O  67.574  52.651  67.311
O  61.189  46.360  54.826
O  52.338  60.541  33.579
O  61.307  67.836  50.021
O  47.959  63.835  68.112
O  51.420  39.577  52.678
O  64.974  56.956  49.763
O  44.766  71.864  58.354
O  70.464  57.533  50.671
O  67.997  54.925  62.577
O  62.335  41.066  53.740
O  39.784  33.778  33.517
O  31.812  52.685  56.518
O  29.425  59.710  49.669
O  42.830  62.544  29.044
O  45.729  33.895  54.272
O  33.784  66.165  48.701
O  34.648  61.244  64.293
O  51.409  59.624  73.569
O  26.524  48.034  54.548
O  57.102  61.133  39.196
O  36.266  65.534  37.543
O  66.320  41.943  34.854
O  37.124  41.192  47.849
O  65.370  61.576  34.194
O  31.412  54.062  65.018
O  63.612  52.157  41.451
O  52.049  30.452  59.753
O  62.832  59.630  69.515
O  50.838  48.504  24.986
O  56.768  47.414  67.253
O  36.673  43.620  67.082
O  47.971  31.669  37.872
O  43.052  63.962  50.549
O  48.334  47.829  34.708
O  63.937  39.077  52.452
O  54.128  59.362  29.077
O  46.224  35.490  33.076
O  73.865  53.274  52.787
O  45.879  36.770  54.419
O  59.359  69.841  49.304
O  51.012  38.814  68.372
O  38.897  55.961  44.052
O  54.046  39.819  55.511
O  42.458  56.619  71.352
O  43.176  58.588  53.028
O  50.560  70.741  59.063
O  53.136  65.933  63.599
O  33.634  40.079  44.327
O  41.091  43.272  30.063
O  28.730  48.964  52.982
O  67.148  62.539  63.257
O  65.202  52.906  49.879
O  59.185  53.283  43.822
O  40.633  56.575  33.540
O  45.446  34.470  41.930
O  42.024  67.189  39.065
O  39.200  55.136  55.850
O  47.032  43.660  39.483
O  65.749  35.089  42.809
O  40.809  55.916  40.227
O  56.208  68.952  46.027
O  38.526  36.553  38.219
O  39.374  67.652  41.530
O  36.191  45.219  34.888
O  48.053  31.790  47.405
O  35.375  51.547  62.703
O  41.329  62.505  62.459
O  47.246  48.259  28.789
O  43.375  58.655  48.304
O  62.916  45.344  43.812
O  60.510  37.367  40.377
O  42.441  52.936  66.568
O  34.487  42.297  35.825
O  46.385  72.497  55.378
O  36.961  64.596  64.782
O  66.235  39.805  52.834
O  42.762  60.235  42.513
O  49.060  36.434  59.218
O  72.234  46.715  53.641
O  42.683  43.363  69.904
O  43.749  67.346  46.041
O  47.714  54.037  70.071
O  39.086  34.324  63.702
O  52.071  73.018  58.553
O  57.461  56.919  62.936
O  74.320  44.790  46.086
O  53.930  37.607  64.491
O  58.470  56.238  34.206
O  69.997  57.592  54.092
O  55.678  36.509  47.876
O  44.159  42.847  28.323
O  45.990  66.989  49.656
O  53.811  55.865  39.883
O  63.916  40.209  60.961
O  33.744  50.389  56.942
O  40.649  56.790  47.456
O  64.959  36.405  49.101
O  41.805  42.080  67.145
O  48.563  48.027  26.950
O  61.489  32.129  54.125
O  33.131  33.018  41.750
O  53.967  51.837  25.821
O  68.424  64.261  41.606
O  42.992  29.603  50.405
O  38.628  32.955  56.727
O  63.836  50.931  45.911
O  40.315  70.599  43.969
O  48.308  68.846  47.665
O  47.498  70.612  64.663
O  45.510  68.542  36.546
O  50.854  69.562  51.526
O  44.648  44.493  61.348
O  49.581  50.765  69.555
O  36.423  52.301  52.958
O  37.614  60.433  50.820
O  62.290  57.892  58.044
O  48.587  43.054  71.700
O  64.134  29.760  48.581
O  62.566  42.463  46.001
O  47.800  70.151  45.637
O  54.062  51.977  65.666
O  60.779  56.070  61.486
O  49.150  33.985  47.915
O  47.472  58.421  36.883
O  35.195  43.605  50.192
O  52.620  31.975  41.230
O  50.447  29.917  40.366
O  39.834  61.014  45.345
O  39.277  70.849  41.619
O  67.216  50.476  51.746
O  58.488  46.893  56.387
O  61.548  30.874  39.054
O  40.839  37.137  67.127
O  32.662  36.081  40.841
O  37.844  67.935  61.519
O  45.574  55.961  65.708
O  44.327  69.265  54.293
O  58.904  65.381  40.925
O  41.936  58.144  41.781
O  53.721  59.161  39.485
O  34.594  55.996  34.017
O  65.296  39.263  35.744
O  71.874  49.565  46.869
O  61.805  38.251  48.353
O  34.849  54.811  56.998
O  50.005  44.008  63.888
O  61.097  55.517  71.287
O  44.946  49.421  65.365
O  61.823  61.509  64.871
O  45.652  29.986  39.632
O  35.713  39.836  56.782
O  55.886  40.496  68.483
O  48.580  71.815  55.851
O  68.058  37.327  46.393
O  57.175  45.076  67.736
O  65.617  43.708  55.708
O  38.650  51.014  29.900
O  69.275  52.096  66.024
O  58.681  52.833  46.453
O  34.065  38.144  38.361
O  58.183  61.381  58.514
O  59.096  43.397  30.177
O  68.559  34.078  46.406
O  56.896  26.005  46.449
O  67.040  58.991  51.687
O  40.545  56.781  68.951
O  42.212  61.783  71.231
O  49.532  61.901  31.245
O  32.667  34.256  50.675
O  60.191  70.882  41.116
O  59.404  58.638  59.126
O  31.216  51.381  32.855
O  44.608  39.224  71.288
O  55.641  49.506  40.403
O  57.902  68.226  50.995
O  30.522  63.018  45.616
O  39.095  62.365  64.298
O  57.508  37.941  59.459
O  55.828  51.483  63.428
O  47.935  68.959  38.788
O  60.345  42.168  41.411
O  36.614  34.864  60.883
O  36.057  50.808  54.576
O  65.949  38.725  46.828
O  39.039  37.772  56.374
O  42.944  50.759  27.538
O  49.486  40.896  39.691
O  61.441  43.371  34.693
O  52.899  47.244  71.705
O  31.222  63.858  53.760
O  65.871  52.231  44.633
O  49.475  63.806  58.345
O  69.090  37.840  55.536
O  37.969  41.485  45.306
O  40.371  32.263  50.682
O  40.706  57.807  50.540
O  38.945  50.913  47.425
O  29.011  44.542  53.140
O  53.910  66.404  68.225
O  63.730  58.066  51.465
O  32.575  57.872  43.286
O  52.388  49.630  26.634
O  60.191  52.857  33.274
O  63.914  49.559  50.695
O  54.659  72.883  56.354
O  57.805  44.775  59.108
O  39.605  43.650  42.303
O  52.772  46.174  38.825
O  37.900  64.966  54.597
O  38.626  42.712  69.138
O  32.558  45.902  58.212
O  29.114  45.872  48.522
O  39.522  36.886  47.938
O  49.393  40.894  26.755
O  51.081  30.890  49.730
O  37.403  29.465  57.256
O  65.329  38.447  65.698
O  74.526  45.589  49.034
O  62.758  49.102  70.214
O  47.330  55.396  63.378
O  53.594  31.170  55.600
O  57.515  42.375  61.130
O  44.834  63.832  55.888
O  35.767  56.070  48.695
O  28.589  57.521  47.375
O  59.449  53.578  72.617
O  59.546  47.008  67.295
O  69.630  55.887  60.547
O  40.734  56.068  42.681
O  34.130  40.343  37.998
O  53.530  44.099  49.635
O  72.261  42.464  52.621
O  45.097  64.766  50.668
O  58.460  49.926  28.516
O  54.082  34.023  54.776
O  61.890  49.499  27.761
O  40.711  61.501  47.819
O  40.637  51.668  31.696
O  37.179  69.623  57.580
O  62.151  68.559  53.691
O  59.992  45.131  60.192
O  31.654  52.361  62.792
O  64.620  36.774  39.982
O  45.732  59.441  59.152
O  33.859  51.033  53.183
O  68.265  34.663  53.567
O  63.580  61.909  43.971
O  55.870  62.884  55.235
O  41.011  35.586  48.953
O  46.094  60.971  45.086
O  58.221  67.349  58.823
O  55.088  55.823  29.176
O  58.314  58.453  68.510
O  56.841  61.474  70.837
O  43.367  60.669  38.758
O  34.427  65.301  46.429
O  39.851  33.621  41.472
O  44.038  45.693  34.158
O  66.430  67.033  45.894
O  56.043  32.185  53.990
O  55.830  64.112  67.874
O  58.396  52.011  30.933
O  51.395  53.094  68.751
O  54.347  33.433  51.936
O  68.071  47.944  32.652
O  59.929  46.472  48.484
O  34.948  47.517  42.175
O  43.939  62.953  60.352
O  48.072  74.287  57.528
O  66.374  45.693  61.901
O  64.584  34.011  39.332
O  64.547  67.037  39.314
O  46.368  49.198  61.640
O  52.250  56.409  25.421
O  41.460  72.556  50.447
O  45.222  59.472  34.922
O  40.521  39.226  45.700
O  36.536  54.137  63.315
O  43.163  34.452  54.516
O  55.887  43.166  42.215
O  53.490  36.335  68.852
O  64.998  58.496  41.481
O  63.981  60.880  52.520
O  40.658  60.158  32.327
O  35.333  37.539  52.046
O  57.814  66.178  65.775
O  73.615  41.649  48.634
O  38.416  48.822  53.478
O  42.582  59.479  63.570
O  54.454  45.668  66.279
O  59.979  35.812  45.417
O  63.573  37.390  64.897
O  45.623  62.853  63.791
O  51.073  59.154  55.304
O  38.027  66.598  51.659
O  33.913  55.851  47.537
O  67.127  42.609  57.943
O  35.538  59.141  32.046
O  37.126  43.255  58.431
O  68.388  59.926  53.348
O  54.492  66.440  44.193
O  38.845  64.921  48.179
O  31.337  43.685  42.112
O  50.992  67.855  43.590
O  42.790  70.424  49.844
O  41.653  37.902  29.483
O  55.699  69.662  56.047
O  51.184  38.936  30.954
O  41.518  59.937  65.468
O  37.651  41.572  50.614
O  66.736  46.084  56.377
O  46.634  62.969  32.936
O  44.859  59.992  47.369
O  69.145  52.279  62.403
O  55.898  40.126  44.639
O  57.928  70.999  59.769
O  48.161  52.750  33.141
O  46.679  51.969  64.326
O  58.047  71.796  50.385
O  33.697  45.783  31.656
O  27.367  42.950  51.268
O  35.520  59.662  34.530
O  58.755  64.406  54.550
O  32.536  40.759  61.206
O  37.546  62.318  42.854
O  33.559  44.398  63.879
O  55.986  39.365  38.878
O  29.651  48.314  59.640
O  58.862  28.712  59.455
O  46.699  56.556  33.064
O  62.110  59.897  67.181
O  32.618  48.072  56.955
O  46.660  30.086  54.595
O  56.291  33.326  35.831
O  35.595  60.742  48.692
O  37.912  52.402  71.668
O  34.912  53.161  46.362
O  28.682  43.350  61.994
O  60.657  64.996  62.107
O  42.757  50.396  32.117
O  62.666  34.181  42.140
O  59.745  35.639  48.901
O  59.858  57.552  31.888
O  54.527  42.792  39.023
O  51.829  51.871  25.274
O  70.971  44.523  53.764
O  51.093  34.301  54.848
O  28.713  52.835  61.400
O  53.912  46.154  64.164
O  43.925  49.209  74.201
O  46.699  40.458  69.212
O  33.654  41.384  54.218
O  61.526  66.967  37.917
O  31.638  34.070  44.617
O  60.414  55.260  51.043
O  70.227  46.338  52.365
O  35.373  61.916  35.122
O  48.955  43.478  58.698
O  54.715  48.155  68.646
O  64.040  38.423  43.159
O  38.860  61.412  36.519
O  64.499  64.887  63.601
O  35.820  57.611  58.588
O  61.433  65.196  52.725
O  71.009  52.544  43.349
O  62.721  49.932  54.268
O  48.676  64.396  55.497
O  34.294  46.613  34.733
O  52.262  40.510  66.130
O  54.628  70.346  64.253
O  39.591  34.362  43.842
O  50.087  56.111  72.775
O  34.765  54.655  54.254
O  46.314  45.515  32.972
O  36.497  48.828  34.705
O  41.311  30.932  48.521
O  40.395  40.698  54.277
O  60.624  37.120  67.942
O  25.308  53.887  47.037
O  56.062  67.751  66.924
O  67.910  48.512  64.076
O  43.732  39.284  53.915
O  39.070  39.211  68.482
O  60.166  64.098  66.717
O  50.336  46.810  61.266
O  47.806  63.924  50.024
O  38.786  35.327  50.281
O  58.314  55.981  29.048
O  49.467  25.992  52.358
O  49.983  59.087  42.720
O  52.351  52.857  27.335
O  53.433  63.213  37.783
O  38.369  49.102  32.819
O  46.372  69.504  55.105
O  44.350  49.120  63.264
O  32.462  43.712  53.950
O  53.318  62.875  49.011
O  37.119  44.796  29.333
O  56.248  53.963  26.476
O  50.620  39.525  33.904
O  59.235  65.978  38.417
O  35.903  46.433  44.900
O  41.055  69.370  54.086
O  58.645  59.706  31.470
O  57.260  52.093  35.116
O  71.740  42.857  50.040
O  32.208  54.278  42.813
O  64.449  45.721  57.975
O  37.041  34.248  38.430
O  51.528  65.299  37.855
O  60.490  62.440  58.309
O  47.837  37.289  55.284
O  50.902  40.898  37.732
O  50.673  59.567  35.542
O  60.968  49.102  65.859
O  48.677  61.078  42.616
O  31.887  44.414  33.516
O  65.707  41.676  37.486
O  34.489  63.440  43.144
O  63.906  43.049  53.135
O  44.709  32.432  40.887
O  51.343  26.246  43.367
O  43.229  27.857  52.916
O  29.521  39.969  59.584
O  32.002  51.079  36.441
O  53.310  60.184  31.024
O  29.313  45.274  41.393
O  37.963  47.229  45.497
O  63.380  53.542  54.154
O  62.827  35.428  47.294
O  67.310  51.445  59.257
O  55.591  43.249  34.443
O  55.264  68.046  63.183
O  54.063  35.771  32.496
O  66.659  65.897  59.188
O  65.496  54.138  45.711
O  45.271  28.297  49.761
O  72.159  54.868  51.886
O  31.857  55.280  45.345
O  44.367  60.491  52.008
O  29.073  43.731  47.970
O  66.233  66.811  55.638
O  60.774  39.084  42.191
O  34.470  66.245  42.788
O  61.300  35.794  57.898
O  67.078  43.861  39.574
O  67.376  64.865  61.051
O  58.302  43.386  45.663
O  35.125  46.014  49.363
O  52.922  39.720  44.478
O  45.312  50.448  26.515
O  38.813  57.257  57.523
O  59.068  63.736  69.337
O  64.570  55.209  51.852
O  35.548  42.647  52.964
O  59.674  59.201  48.778
O  40.606  71.529  56.899
O  43.839  50.914  58.709
O  38.210  36.470  42.232
O  29.392  47.110  61.482
O  64.921  52.753  59.689
O  54.026  55.075  71.766
O  37.289  67.304  38.581
O  59.272  32.042  62.111
O  38.906  45.286  71.680
O  63.028  67.476  45.864
O  27.306  53.742  57.873
O  40.061  50.355  64.222
O  37.742  47.422  28.924
O  40.703  55.687  31.515
O  43.471  46.039  64.224
O  39.115  47.827  62.633
O  37.537  45.498  61.570
O  49.897  31.146  54.045
O  58.782  70.833  56.385
O  62.902  54.746  62.396
O  50.506  51.177  64.056
O  64.938  51.934  55.991
O  52.886  53.996  66.926
O  62.722  45.012  66.198
O  51.021  71.236  45.894
O  49.101  35.109  40.618
O  29.069  40.452  46.711
O  54.288  46.348  27.870
O  56.507  66.876  41.218
O  67.203  56.256  38.821
O  49.281  72.331  62.282
O  61.723  71.014  57.852
O  38.643  31.885  49.374
O  37.187  68.983  52.274
O  54.315  32.651  31.957
O  31.002  60.173  56.232
O  51.924  39.440  41.205
O  33.120  59.400  58.283
O  64.937  38.208  55.382
O  42.532  69.469  60.464
O  53.721  61.121  54.841
O  38.297  57.426  53.860
O  53.786  30.802  34.894
O  43.340  69.536  63.117
O  54.324  29.641  57.807
O  47.309  71.789  58.490
O  39.777  36.638  63.483
O  56.931  44.421  28.689
O  38.573  46.779  38.400
O  35.896  44.929  38.442
O  36.253  48.245  60.684
O  26.939  55.610  43.847
O  50.301  51.937  61.989
O  33.324  34.487  61.467
O  30.275  66.068  48.269
O  32.944  56.526  37.183
O  44.253  64.364  30.790
O  49.665  54.582  62.194
O  35.968  54.760  51.411
O  68.456  53.839  44.024
O  54.418  38.643  45.933
O  42.116  33.331  39.682
O  42.106  64.069  68.653
O  34.551  52.570  34.447
O  61.750  42.838  56.461
O  61.316  33.590  51.815
O  25.386  55.232  48.956
O  61.860  36.316  54.023
O  55.867  58.198  72.991
O  55.318  58.306  58.957
O  30.513  46.293  54.878
O  48.068  71.335  40.797
O  44.207  58.941  68.167
O  60.053  46.619  34.890
O  68.295  53.184  41.036
O  38.909  52.385  59.156
O  28.968  50.935  59.285
O  34.251  39.313  65.150
O  71.693  56.809  48.237
O  37.892  36.432  53.251
O  55.233  29.824  37.176
O  68.660  54.961  37.473
O  69.078  62.058  48.168
O  49.037  56.804  25.445
O  42.859  33.563  32.639
O  60.846  70.209  46.155
O  44.563  35.367  45.687
O  34.540  42.630  45.569
O  67.612  37.642  37.506
O  39.507  34.777  60.709
O  66.756  32.381  51.272
O  46.929  57.099  68.609
O  44.474  51.447  61.455
O  41.809  64.431  48.699
O  65.064  47.444  62.155
O  58.721  63.475  47.673
O  38.024  38.119  65.408
O  33.450  50.274  63.412
O  69.487  39.917  48.316
O  63.755  47.805  59.099
O  48.100  41.665  67.529
O  58.746  57.161  54.340
O  39.689  46.773  68.627
O  40.951  45.649  27.863
O  36.153  31.922  47.374
O  44.678  45.050  40.011
O  42.794  72.076  45.320
O  43.779  38.117  31.298
O  44.772  43.479  37.844
O  61.080  55.294  31.934
O  43.509  44.566  72.202
O  37.747  48.261  42.608
O  57.967  37.884  34.526
O  42.555  49.913  67.813
O  53.201  70.343  50.119
O  30.437  59.429  43.976
O  72.852  51.186  44.677
O  48.806  41.829  33.690
O  36.658  42.949  61.922
O  45.709  56.271  25.966
O  66.179  64.336  43.586
O  59.515  38.851  57.334
O  54.931  61.419  63.746
O  60.003  44.914  43.488
O  53.949  38.870  71.794
O  35.860  63.031  46.819
O  35.523  47.897  55.223
O  44.588  39.302  38.292
O  49.395  54.393  35.839
O  39.985  69.480  46.728
O  64.169  44.360  50.482
O  67.517  39.846  63.956
O  41.577  31.316  64.823
O  34.932  34.742  40.598
O  49.974  27.239  41.956
O  44.736  42.353  56.788
O  37.772  62.986  45.020
O  66.775  34.954  48.721
O  31.020  54.204  51.821
O  26.095  54.766  52.203
O  56.891  29.590  61.204
O  41.483  48.243  52.764
O  54.033  62.011  52.045
O  36.720  40.005  37.393
O  48.011  42.696  41.973
O  62.218  60.894  34.883
O  43.310  56.639  28.170
O  62.323  41.745  61.363
O  42.400  43.858  59.317
O  62.458  38.071  57.204
O  54.694  28.306  48.882
O  37.439  65.824  41.673
O  58.210  42.422  40.929
O  51.408  33.862  43.783
O  32.454  63.473  57.703
O  35.876  39.451  33.336
O  48.906  31.189  33.035
O  48.078  36.267  32.165
O  50.558  42.884  68.920
O  46.763  71.654  37.900
O  34.863  42.123  43.336
O  53.732  47.539  26.103
O  56.996  51.996  61.598
O  36.762  61.312  56.087
O  59.085  62.787  35.652
O  49.529  41.050  61.764
O  48.293  68.381  58.695
O  52.392  39.935  62.137
O  60.491  49.397  58.679
O  40.254  50.327  71.450
O  44.872  62.470  48.937
O  53.320  68.175  39.954
O  45.814  56.199  59.703
O  37.694  61.916  40.691
O  67.011  47.119  43.487
O  43.448  63.306  38.164
O  33.203  62.116  48.547
O  39.712  59.288  59.738
O  54.050  43.592  54.456
O  59.052  40.688  32.446
O  34.478  29.989  47.693
O  29.293  48.743  55.944
O  28.870  51.330  43.244
O  57.437  72.053  46.961
O  66.154  33.235  60.152
O  35.312  45.219  58.044
O  64.246  32.437  58.423
O  62.775  53.194  31.570
O  41.368  50.596  69.539
O  31.822  67.813  51.417
O  62.880  39.370  62.959
O  38.634  40.881  41.799
O  65.226  31.657  46.848
O  65.034  49.480  57.154
O  42.667  54.818  54.028
O  42.387  56.839  55.220
O  28.943  52.238  54.901
O  33.225  61.440  54.443
O  40.959  52.761  28.742
O  55.394  30.413  50.292
O  57.242  69.365  39.499
O  49.701  58.652  66.996
O  62.096  54.743  49.533
O  60.289  40.458  64.790
O  45.884  52.193  30.590
O  49.734  73.058  59.244
O  47.889  32.358  66.552
O  37.404  51.000  56.302
O  38.750  55.855  41.018
O  62.732  51.719  51.595
O  70.253  62.058  43.850
O  47.900  50.209  24.623
O  54.962  30.535  59.738
O  56.434  46.736  57.575
O  45.916  42.830  32.072
O  28.587  62.619  53.162
O  49.588  65.087  39.934
O  31.544  43.701  37.906
O  59.983  69.002  39.976
O  56.607  61.644  45.512
O  66.552  57.541  53.268
O  50.588  46.468  34.918
O  58.133  35.160  50.355
O  71.127  51.793  50.880
O  61.704  40.336  34.934
O  40.474  45.436  47.342
O  61.465  44.139  39.441
O  52.387  29.117  36.255
O  39.138  34.162  36.078
O  60.337  51.500  51.013
O  40.896  42.295  35.311
O  48.496  31.491  64.509
O  64.009  50.319  42.976
O  66.221  61.844  44.851
O  41.576  65.134  31.976
O  67.198  35.013  60.950
O  53.580  35.636  62.903
O  40.938  70.120  48.694
O  51.658  34.944  30.592
O  40.353  46.354  32.719
O  69.390  65.198  43.421
O  69.515  40.898  55.668
O  34.043  34.805  48.515
O  55.970  36.064  51.103
O  42.089  52.237  61.549
O  61.919  52.163  35.595
O  61.841  32.332  36.512
O  39.466  51.023  51.585
O  71.616  55.548  53.952
O  42.403  35.519  39.878
O  61.472  60.471  56.340
O  34.493  42.217  64.967
O  30.240  57.032  50.014
O  50.970  68.778  48.471
O  35.380  39.126  47.982
O  67.337  44.785  49.385
O  63.639  41.653  36.179
O  43.274  73.924  55.711
O  43.087  47.484  37.711
O  60.908  38.086  45.593
O  36.326  45.879  31.795
O  55.324  41.646  32.857
O  71.602  38.116  44.785
O  35.671  46.666  47.332
O  55.900  40.610  49.643
O  58.907  59.562  45.358
O  36.598  32.102  55.659
O  51.058  37.549  64.139
O  72.310  50.644  54.766
O  61.034  43.870  54.638
O  46.203  28.511  47.666
O  47.122  39.435  33.949
O  51.664  50.315  37.364
O  31.546  37.126  48.899
O  64.466  57.704  60.014
O  49.240  43.782  30.713
O  64.876  56.807  45.273
O  46.482  61.677  61.139
O  52.130  63.617  53.093
O  38.398  63.629  39.001
O  34.836  40.043  67.295
O  34.097  50.075  59.827
O  39.128  53.107  56.674
O  35.212  59.738  52.765
O  40.896  56.417  60.829
O  46.115  43.150  54.038
O  58.722  49.931  35.593
O  37.808  49.058  48.085
O  41.650  66.351  45.686
O  35.217  30.359  44.876
O  45.142  52.417  67.318
O  49.600  58.495  38.741
O  59.137  35.190  54.806
O  56.992  40.150  59.371
O  56.059  43.880  49.820
O  46.598  52.155  28.438
O  58.700  49.559  40.802
O  44.761  60.194  28.451
O  38.415  62.224  49.674
O  38.841  63.402  34.029
O  60.492  51.181  55.682
O  32.386  60.384  36.776
O  29.520  64.166  50.144
O  58.771  33.398  40.487
O  59.165  41.341  54.172
O  43.015  26.483  46.177
O  28.299  58.378  54.799
O  33.495  37.575  54.180
O  27.427  61.285  49.528
O  58.342  47.117  53.121
O  68.315  61.269  46.193
O  43.419  66.670  51.259
O  30.214  61.330  51.859
O  63.130  61.093  37.366
O  46.622  53.566  72.359
O  58.084  31.248  46.726
O  55.295  58.815  50.577
O  71.622  53.948  61.973
O  61.335  59.094  62.263
O  42.253  45.039  42.465
O  47.299  40.343  60.659
O  61.152  47.127  61.472
O  49.001  63.605  61.070
O  62.730  55.086  38.961
O  61.473  62.678  32.496
O  48.790  33.393  42.002
O  59.752  43.011  59.654
O  60.797  51.842  39.383
O  54.794  70.514  36.747
O  38.451  44.617  45.469
O  46.604  46.624  67.827
O  54.511  70.432  39.363
O  47.748  43.974  69.016
O  57.376  70.833  43.764
O  44.176  54.550  71.714
O  43.331  36.591  43.371
O  31.597  63.758  49.576
O  39.222  49.763  55.297
O  55.011  65.053  58.523
O  64.539  50.363  33.393
O  71.910  45.065  44.243
O  42.043  29.558  37.771
O  43.495  33.094  66.908
O  57.650  49.135  43.966
O  56.104  39.349  53.425
O  50.013  61.988  50.580
O  51.155  62.745  30.024
O  67.922  60.660  56.619
O  66.242  35.367  45.495
O  70.002  58.193  47.992
O  58.716  51.625  42.150
O  70.777  60.078  45.656
O  36.886  44.632  47.960
O  51.550  58.539  30.312
O  68.114  44.751  58.831
O  70.323  54.102  52.866
O  60.044  60.632  36.992
O  56.710  59.806  60.608
O  34.896  38.189  61.874
O  43.997  40.796  32.682
O  62.559  65.311  42.597
O  58.521  47.328  42.375
O  54.064  67.570  55.835
O  49.514  49.187  71.693
O  34.943  63.834  50.241
O  46.910  42.683  59.745
O  46.176  45.895  29.808
O  64.565  51.362  29.948
O  39.715  48.917  50.904
O  46.362  35.104  67.288
O  39.578  46.016  53.198
O  43.245  31.830  34.856
O  62.494  31.717  51.584
O  51.493  66.190  58.727
O  36.726  37.395  54.850
O  42.748  61.559  66.326
O  46.228  30.905  43.668
O  56.441  45.816  64.493
O  46.496  39.222  41.968
O  69.489  53.948  35.703
O  36.589  55.374  31.535
O  50.714  59.937  59.390
O  52.152  64.636  40.285
O  39.532  41.530  62.311
O  72.903  53.266  41.308
O  48.059  61.069  66.515
O  38.228  59.684  55.918
O  60.589  59.072  43.477
O  44.933  44.837  58.925
O  30.501  36.701  41.856
O  52.125  42.377  70.387
O  48.412  68.108  50.769
O  47.063  26.488  43.950
O  56.799  43.763  38.784
O  45.218  61.601  35.522
O  38.296  50.693  36.762
O  52.928  50.639  74.217
O  53.941  38.192  57.525
O  53.768  36.789  52.252
O  61.045  47.243  41.637
O  45.891  38.430  68.919
O  42.910  70.458  55.529
O  39.960  55.619  66.136
O  47.767  59.323  43.580
O  25.266  48.149  47.086
O  28.011  53.400  50.601
O  44.248  35.569  34.161
O  62.586  53.311  65.309
O  48.299  73.519  46.555
O  49.423  54.637  38.025
O  60.117  55.532  46.642
O  62.655  40.665  41.387
O  39.414  41.183  58.204
O  36.535  35.904  46.005
O  37.041  42.950  36.776
O  61.989  39.913  44.994
O  41.106  37.288  32.355
O  40.978  27.996  59.164
O  43.943  64.895  67.577
O  54.027  64.427  55.466
O  43.381  54.475  34.272
O  30.535  56.553  43.232
O  51.005  31.005  47.035
O  31.692  51.277  53.966
O  37.855  29.330  50.989
O  39.843  48.740  45.889
O  36.406  55.550  43.577
O  60.922  52.016  47.612
O  54.359  43.394  31.606
O  46.167  72.501  48.228
O  66.307  45.184  65.818
O  49.044  40.709  43.006
O  49.559  38.217  41.272
O  59.740  60.423  69.381
O  61.579  57.879  28.964
O  42.596  38.752  67.921
O  39.700  54.042  35.142
O  38.869  44.335  62.997
O  59.861  66.264  55.148
O  52.833  45.538  58.337
O  36.524  59.876  45.096
O  67.308  46.260  46.035
O  49.674  65.588  51.875
O  66.538  61.104  53.514
O  35.847  45.860  70.633
O  59.427  58.634  52.585
O  72.315  43.733  40.714
O  33.746  47.265  46.238
O  63.129  35.437  60.603
O  63.678  37.698  46.852
O  39.615  30.591  59.697
O  50.315  37.612  54.140
O  60.761  37.124  51.015
O  43.743  72.855  53.154
O  57.943  41.997  51.363
O  63.856  67.385  60.017
O  52.555  41.761  32.736
O  38.455  38.808  51.575
O  55.038  55.754  66.929
O  51.722  68.914  63.356
O  37.652  48.874  64.695
O  50.176  37.903  46.500
O  47.241  55.442  73.489
O  56.797  62.643  48.421
O  47.833  58.862  58.841
O  55.832  50.965  67.890
O  60.525  57.655  71.392
O  55.277  37.399  70.836
O  46.404  67.489  45.358
O  68.252  50.774  64.219
O  36.615  55.671  65.198
O  59.340  56.841  40.473
O  50.528  36.896  33.537
O  60.774  51.435  65.955
O  70.038  60.413  50.133
O  59.312  39.258  49.794
O  61.477  47.978  33.684
O  46.600  66.125  39.509
O  49.690  40.703  31.685
O  63.233  44.092  54.952
O  25.075  50.728  51.037
O  62.121  39.731  51.389
O  49.765  57.067  32.450
O  51.216  68.662  40.914
O  58.859  61.278  53.767
O  47.243  55.284  39.782
O  43.334  47.035  59.425
O  36.456  42.007  30.621
O  54.694  39.202  34.715
O  58.828  68.762  64.842
O  50.554  40.477  55.281
O  55.921  39.083  41.952
O  60.548  44.395  45.886
O  37.616  54.601  36.657
O  64.648  60.279  57.401
O  36.415  56.220  61.282
O  61.293  38.831  38.928
O  53.465  68.981  46.084
O  43.840  63.321  41.233
O  69.310  50.311  34.011
O  49.477  72.935  44.776
O  65.179  63.007  59.910
O  65.848  43.578  45.206
O  57.083  63.979  63.975
O  28.432  40.607  50.080
O  35.314  36.470  42.547
O  58.573  31.553  55.951
O  53.670  66.532  53.068
O  37.409  55.048  71.237
O  35.759  58.516  68.360
O  66.694  53.347  61.757
O  59.456  50.179  32.767
O  69.824  60.331  41.057
O  62.327  38.650  32.072
O  71.486  39.432  55.810
O  58.753  49.789  69.124
O  69.046  50.307  36.442
O  42.051  45.074  38.161
O  50.734  60.550  52.081
O  37.498  52.234  65.058
O  49.424  65.183  45.322
O  28.434  57.337  41.196
O  70.397  60.056  60.230
O  51.366  69.021  56.789
O  60.455  33.881  59.858
O  60.412  39.800  69.809
O  46.098  38.142  59.935
O  30.386  60.858  60.256
O  63.499  66.443  56.052
O  61.891  45.161  37.532
O  49.795  41.120  58.728
O  59.752  46.797  70.079
O  39.965  68.297  38.940
O  40.040  58.899  71.559
O  55.071  34.466  60.072
O  43.149  31.555  55.086
O  56.951  32.326  43.163
O  34.463  54.334  44.442
O  61.424  62.074  68.242
O  31.499  40.372  43.328
O  35.990  48.920  32.026
O  63.545  36.661  38.064
O  30.396  51.668  51.085
O  74.725  47.245  46.404
O  44.228  73.315  50.233
O  46.456  41.530  34.919
O  69.218  57.532  43.352
O  37.895  50.575  44.309
O  49.597  39.813  35.843
O  71.408  38.954  52.634
O  68.118  61.860  39.790
O  63.747  40.101  55.501
O  56.701  35.614  54.118
O  57.503  62.176  67.412
O  48.973  50.272  37.672
O  58.503  68.128  47.138
O  49.396  29.055  52.672
O  44.078  53.152  69.144
O  68.090  44.729  36.999
O  63.687  37.708  34.033
O  53.821  62.649  57.945
O  42.912  49.423  29.294
O  46.403  39.676  65.847
O  33.863  54.626  31.655
O  35.814  60.797  61.677
O  37.494  53.765  32.823
O  45.721  33.981  61.671
O  57.937  67.070  34.282
O  40.936  66.453  36.127
O  64.872  46.487  48.646
O  68.098  44.435  66.866
O  58.599  62.421  30.793
O  43.680  36.383  55.747
O  39.275  46.687  42.776
O  38.325  56.987  34.879
O  33.257  61.854  45.063
O  62.288  33.571  44.703
O  42.841  44.558  56.684
O  68.108  36.605  50.001
O  46.455  43.918  73.907
O  62.231  39.349  59.600
O  59.758  56.161  68.867
O  28.364  46.431  50.613
O  43.976  54.646  66.754
O  62.906  46.333  31.265
O  29.252  55.686  55.051
O  55.363  62.281  41.490
O  44.934  41.752  42.078
O  40.927  46.477  63.444
O  44.336  46.121  27.183
O  62.213  65.513  46.458
O  61.761  62.806  41.704
O  30.829  56.943  59.340
O  43.369  39.154  57.663
O  47.287  71.247  42.861
O  57.584  56.871  66.254
O  53.569  49.053  61.788
O  64.279  58.330  63.963
O  45.297  46.378  73.022
O  46.006  25.830  53.629
O  51.056  48.689  34.553
O  69.315  65.678  52.282
O  60.061  47.244  58.823
O  64.801  53.578  38.966
O  30.146  49.542  39.224
O  42.483  57.163  30.145
O  64.251  50.456  60.809
O  51.154  62.644  37.528
O  30.843  41.465  49.167
O  55.615  33.840  40.202
O  38.639  33.537  58.900
O  45.327  57.023  40.757
O  64.044  66.897  50.157
O  33.460  68.632  49.917
O  41.893  68.333  43.765
O  41.030  53.635  71.929
O  47.753  61.492  58.414
O  28.286  57.996  57.258
O  30.100  61.891  58.296
O  62.011  60.937  58.827
O  49.756  28.703  45.555
O  30.427  56.604  37.222
O  45.753  64.782  59.861
O  42.094  35.864  58.977
O  31.381  45.501  46.320
O  66.166  40.874  59.534
O  32.493  43.220  51.804
O  33.605  45.528  37.309
O  35.773  66.614  49.635
O  46.363  47.688  49.017
O  39.665  30.502  54.762
O  45.819  45.277  65.975
O  60.510  53.791  55.103
O  68.710  49.323  46.769
O  36.311  39.501  51.856
O  33.222  54.205  50.780
O  57.751  44.812  55.186
O  49.964  32.353  60.812
O  27.399  48.057  49.036
O  56.447  59.094  32.519
O  34.172  56.490  64.443
O  32.052  40.230  55.991
O  49.876  35.689  62.815
O  44.541  67.484  32.672
O  39.928  40.739  31.781
O  32.783  66.301  57.961
O  58.421  38.614  63.441
O  49.979  34.088  37.132
O  34.898  54.553  37.535
O  64.451  52.246  35.729
O  35.628  50.886  28.965
O  50.254  27.503  50.023
O  53.483  32.857  43.052
O  60.164  44.119  68.524
O  34.489  51.301  50.622
O  50.853  57.942  57.298
O  38.169  41.011  56.409
O  62.684  60.659  61.505
O  50.801  59.946  70.826
O  69.231  58.050  56.122
O  46.769  34.905  51.311
O  55.430  72.313  49.003
O  35.512  64.516  57.706
O  37.845  56.269  68.730
O  73.450  50.070  42.630
O  57.577  32.854  65.400
O  55.618  72.992  44.075
O  67.906  44.885  54.401
O  43.297  54.053  29.572
O  50.624  53.559  29.430
O  44.159  56.982  62.076
O  31.342  48.727  53.816
O  57.358  53.549  63.875
O  48.417  68.896  36.620
O  66.922  42.093  50.520
O  61.161  65.487  49.245
O  55.913  64.650  41.401
O  54.476  58.676  34.639
O  62.950  40.355  48.295
O  41.808  62.513  40.887
O  43.145  59.780  60.700
O  47.920  74.069  53.271
O  37.075  67.482  59.075
O  49.512  46.251  67.020
O  57.377  46.825  60.586
O  42.561  41.662  30.383
O  32.546  32.681  46.770
O  35.457  65.109  61.469
O  47.667  62.457  35.951
O  67.322  41.232  45.748
O  52.702  41.653  55.042
O  67.392  32.773  42.880
O  65.017  59.768  39.112
O  50.158  70.690  63.716
O  48.679  61.427  45.314
O  71.080  50.700  57.728
O  40.293  56.365  72.093
O  67.470  58.751  35.189
O  55.894  36.595  40.399
O  55.023  40.699  57.773
O  72.718  44.328  47.525
O  49.672  55.587  69.194
O  45.155  65.408  35.760
O  52.722  37.206  45.258
O  25.142  44.324  49.713
O  70.271  65.466  49.579
O  40.379  31.455  41.702
O  38.187  34.335  47.755
O  41.145  36.957  51.976
O  32.286  36.946  60.536
O  49.996  54.747  27.690
O  44.544  61.981  53.621
O  41.158  67.137  49.485
O  53.573  66.982  42.254
O  53.919  45.340  69.297
O  53.216  54.679  30.938
O  62.166  56.621  44.156
O  42.675  54.871  36.325
O  55.246  53.649  28.654
O  53.368  55.483  44.336
O  58.313  39.371  38.286
O  60.330  68.621  58.052
O  70.197  37.264  58.736
O  53.062  64.075  66.193
O  37.743  58.775  49.144
O  46.508  63.873  38.369
O  55.613  51.199  37.348
O  67.144  66.573  50.480
O  53.550  70.143  59.502
O  56.943  40.945  30.106
O  31.495  47.759  41.271
O  52.582  49.065  40.532
O  28.067  48.437  37.834
O  43.719  51.562  40.082
O  53.297  45.916  30.939
O  53.661  42.963  26.583
O  51.952  32.352  35.458
O  62.350  48.549  52.575
O  61.236  41.617  38.399
O  64.860  57.140  38.840
O  37.667  53.943  47.746
O  65.405  30.974  44.375
O  46.182  33.255  46.035
O  57.597  65.724  56.017
O  51.978  28.645  47.764
O  65.945  56.160  64.616
O  33.103  52.157  47.917
O  37.668  54.343  39.289
O  66.789  62.156  37.416
O  34.898  48.479  67.983
O  34.801  35.581  59.865
O  44.598  29.276  61.810
O  38.619  40.458  34.503
O  61.951  68.776  41.902
O  38.910  47.736  71.205
O  35.179  50.303  48.466
O  51.042  55.596  30.139
O  45.737  65.159  46.766
O  42.187  71.426  59.084
O  60.745  64.607  39.246
O  64.655  33.571  45.211
O  56.935  63.100  57.868
O  61.943  57.590  67.955
O  48.907  33.275  30.955
O  46.508  42.558  64.951
O  56.163  38.200  36.194
O  42.713  63.550  63.814
O  51.479  35.097  61.093
O  55.527  70.148  61.711
O  47.841  39.895  64.178
O  66.421  49.107  48.305
O  34.786  62.892  61.758
O  54.535  31.320  46.944
O  33.324  34.163  53.146
O  48.325  63.932  30.747
O  66.588  47.982  59.928
O  33.335  61.126  51.862
O  63.605  60.758  55.349
O  57.588  29.949  53.169
O  44.876  69.723  49.152
O  53.188  44.260  34.242
O  67.022  52.683  34.623
O  67.359  48.449  40.018
O  56.956  51.182  71.722
O  37.236  50.505  70.340
O  34.027  34.892  37.089
O  55.740  41.404  36.602
O  36.298  49.347  50.633
O  50.865  51.314  73.859
O  57.249  63.106  32.924
O  64.284  54.824  48.558
O  47.175  50.536  67.212
O  52.030  53.917  74.234
O  53.357  60.938  72.171
O  37.512  54.397  53.469
O  61.631  53.231  68.389
O  73.792  44.558  54.407
O  58.369  35.293  68.494
O  65.214  34.575  52.692
O  51.251  45.353  73.337
O  57.453  44.640  48.266
O  31.747  49.765  50.480
O  47.960  34.002  33.505
O  40.737  28.098  47.602
O  58.794  66.598  45.579
O  38.588  53.421  68.835
O  30.950  38.567  38.718
O  39.158  52.472  45.167
O  61.669  42.623  69.118
O  41.102  40.712  29.034
O  62.005  54.047  46.750
O  38.943  56.105  64.206
O  45.414  70.379  41.171
O  40.883  43.558  45.456
O  53.234  63.186  42.096
O  42.518  40.418  70.794
O  34.737  50.923  66.867
O  41.013  31.662  44.807
O  33.550  32.950  55.594
O  52.363  49.260  65.337
O  66.409  38.641  44.459
O  42.847  41.279  44.306
O  57.158  53.611  51.128
O  58.803  49.164  65.468
O  53.205  66.748  37.352
O  63.241  56.140  69.512
O  42.775  71.122  42.804
O  36.598  56.737  38.637
O  44.718  57.524  32.177
O  40.363  32.463  53.904
O  56.300  51.535  28.343
O  44.750  35.032  49.437
O  66.030  40.097  56.155
O  54.624  52.233  33.381
O  52.535  36.086  57.356
O  48.494  39.506  44.985
O  50.022  24.914  47.931
O  50.782  47.523  63.785
O  54.737  55.860  26.204
O  46.164  36.891  62.584
O  54.742  64.950  50.421
O  51.539  44.358  27.686
O  29.480  53.413  36.199
O  46.105  40.481  58.195
O  43.660  58.041  66.232
O  47.159  48.589  70.332
O  26.507  42.495  47.431
O  62.208  57.943  38.063
O  53.557  48.749  59.491
O  53.040  59.294  70.481
O  65.231  68.976  47.727
O  58.738  42.236  56.161
O  43.851  40.509  66.366
O  46.290  30.044  64.677
O  40.693  41.743  64.595
O  55.425  62.156  37.468
O  52.774  52.541  30.677
O  35.650  53.221  66.957
O  55.398  32.692  49.627
O  57.986  38.441  70.667
O  30.335  48.951  48.234
O  61.092  48.346  55.801
O  48.317  45.258  28.208
O  62.794  30.898  43.546
O  54.295  46.710  33.400
O  64.770  45.755  52.740
O  38.611  71.592  51.803
O  37.097  33.960  44.797
O  56.699  59.166  38.296
O  61.473  59.168  50.751
O  47.046  44.954  37.198
O  57.640  51.838  65.790
O  36.712  37.514  39.118
O  35.649  34.880  56.285
O  49.961  40.299  67.015
O  35.230  43.836  31.894
O  58.011  34.985  59.387
O  29.742  55.649  46.397
O  38.200  28.878  42.963
O  37.650  37.861  44.435
O  65.280  40.272  64.406
O  28.091  52.934  45.693
O  51.882  35.115  47.601
O  30.174  40.373  54.408
O  54.824  25.983  47.292
O  56.645  58.702  69.922
O  27.601  42.192  54.237
O  48.449  29.622  43.205
O  64.573  35.583  57.566
O  38.433  58.001  61.702
O  65.148  47.810  53.848
O  37.464  43.070  65.094
O  53.616  28.357  39.957
O  36.316  61.841  37.573
O  33.279  35.873  43.775
O  33.676  37.955  57.786
O  58.386  68.144  42.477
O  48.694  66.266  37.298
O  41.276  42.447  40.708
O  37.402  58.036  70.663
O  62.994  62.998  46.521
O  39.181  58.204  67.972
O  49.944  72.304  38.379
O  42.188  40.358  38.741
O  49.324  69.627  54.487
O  54.759  45.867  74.708
O  62.345  45.843  63.626
O  44.573  31.735  61.034
O  49.319  34.507  66.615
O  61.422  62.523  48.996
O  31.473  59.386  51.292
O  37.666  40.979  39.821
O  63.303  38.870  67.245
O  55.780  35.537  36.387
O  56.609  38.874  51.240
O  38.098  42.610  34.887
O  34.118  46.959  62.999
O  49.491  25.832  44.983
O  40.900  33.228  46.350
O  38.834  64.561  66.444
O  55.816  34.712  42.845
O  50.948  49.158  28.705
O  71.759  41.586  47.353
O  55.350  46.369  71.975
O  58.365  52.530  68.219
O  30.244  55.116  62.307
O  48.497  66.842  56.915
O  41.345  38.783  64.468
O  32.015  52.868  45.699
O  59.591  65.047  43.259
O  39.273  41.402  70.783
O  65.788  55.540  61.462
O  28.133  38.219  48.130
O  44.397  67.362  60.038
O  40.083  52.006  65.793
O  39.926  61.544  42.757
O  63.711  58.517  44.430
O  55.480  42.970  45.783
O  55.967  67.570  38.346
O  31.640  45.894  50.033
O  47.488  31.203  40.649
O  49.777  37.457  36.924
O  62.599  55.679  34.677
O  35.964  51.194  41.541
O  43.372  66.799  37.370
O  57.047  54.087  34.173
O  41.267  45.017  65.319
O  40.022  27.755  52.983
O  51.019  43.679  33.571
O  52.743  67.961  66.533
O  37.077  40.827  60.249
O  59.547  68.322  53.243
O  67.797  41.258  36.850
O  71.822  52.266  48.298
O  66.636  45.898  41.386
O  46.731  47.139  37.836
O  47.024  51.498  37.631
O  56.999  71.592  41.060
O  40.090  35.515  57.865
O  43.356  38.669  60.517
O  48.798  34.385  53.280
O  52.888  28.381  42.809
O  46.925  28.110  53.664
O  51.105  62.920  55.887
O  59.733  71.880  52.487
O  51.641  32.885  57.180
O  41.565  38.395  42.398
O  66.139  38.528  61.658
O  40.771  62.378  38.941
O  65.241  62.956  39.048
O  57.196  34.533  33.901
O  33.033  50.609  46.349
O  33.662  53.379  58.166
O  34.700  61.397  59.394
O  30.791  50.758  57.783
O  38.151  63.165  58.482
O  59.720  61.655  63.741
O  56.592  66.541  52.506
O  27.744  56.220  52.279
O  52.908  63.576  33.137
O  47.116  64.198  57.703
O  65.874  49.854  30.948
O  47.382  43.659  63.019
O  41.511  30.825  56.363
O  58.510  71.078  38.483
O  53.950  51.459  60.745
O  36.976  38.321  46.537
O  31.985  55.848  54.946
O  48.687  45.374  65.002
O  58.226  57.860  37.383
O  51.607  43.255  40.871
O  56.912  26.954  50.319
O  58.330  33.329  52.699
O  52.014  46.839  67.219
O  38.526  61.748  60.793
O  33.778  42.534  68.202
O  67.051  47.240  38.058
O  42.198  37.514  50.125
O  46.389  58.960  39.320
O  51.897  34.861  65.135
O  30.341  42.054  52.018
O  40.342  42.113  47.708
O  69.699  52.926  59.127
O  48.649  31.463  35.525
O  69.319  66.133  46.077
O  63.389  64.412  39.097
O  57.889  43.826  52.761
O  36.411  35.692  62.968
O  69.973  36.727  51.973
O  67.183  52.834  32.434
O  69.157  34.537  44.224
O  54.248  59.384  57.340
O  56.992  72.118  55.883
O  37.649  53.823  30.113
O  32.435  48.993  38.705
O  58.134  50.584  63.716
O  70.249  49.969  59.735
O  67.984  64.469  46.633
O  61.840  48.110  43.576
O  36.273  53.554  59.514
O  51.596  29.087  52.671
O  44.788  42.926  69.075
O  70.521  44.418  48.465
O  46.547  39.864  39.863
O  56.968  51.560  39.978
O  46.732  60.826  32.361
O  63.070  68.552  57.778
O  37.563  45.373  68.979
O  51.214  68.320  59.700
O  54.582  74.543  45.800
O  69.914  46.606  58.870
O  64.846  65.564  40.927
O  58.961  40.166  46.824
O  30.872  60.317  38.473
O  61.712  43.279  31.123
O  52.508  58.492  26.088
O  53.415  44.771  37.049
O  64.665  55.047  55.832
O  61.212  31.634  57.530
O  38.445  42.396  53.908
O  70.679  40.231  45.077
O  56.977  30.231  44.033
O  40.559  28.759  44.604
O  44.596  51.914  72.964
O  63.732  30.190  53.800
O  50.179  68.067  66.343
O  63.058  63.526  35.668
O  44.514  56.050  69.000
O  61.212  45.199  57.033
O  65.976  40.951  40.644
O  39.794  61.363  54.872
O  48.164  61.971  48.171
O  56.426  52.103  46.418
O  43.553  35.724  37.533
O  53.606  37.960  32.586
O  47.941  34.324  63.708
O  48.656  57.325  34.973
O  50.429  48.879  68.358
O  50.553  57.359  27.951
O  32.234  40.561  47.635
O  33.222  48.170  33.608
O  43.169  29.139  55.378
O  49.821  66.066  34.382
O  67.825  64.374  49.287
O  45.924  33.883  39.691
O  41.747  52.741  57.781
O  33.261  57.379  56.204
O  71.949  46.849  48.871
O  37.659  43.924  52.251
O  47.056  46.615  25.290
O  43.762  53.488  32.342
O  65.946  49.553  41.575
O  49.096  35.875  49.112
O  36.986  62.040  53.351
O  59.697  55.704  42.721
O  37.216  40.612  66.039
O  45.302  27.594  45.482
O  58.375  42.379  67.173
O  47.664  29.791  50.505
O  61.774  34.278  49.538
O  41.143  48.162  39.629
O  58.722  68.270  56.556
O  50.563  62.014  67.457
O  34.478  44.815  53.069
O  50.674  53.448  65.657
O  29.058  54.190  43.873
O  35.047  41.208  50.156
O  61.121  61.695  39.816
O  52.823  40.503  69.469
O  69.275  53.695  48.230
O  55.886  55.471  36.257
O  41.021  57.976  58.544
O  56.504  47.971  30.601
O  66.683  48.830  35.615
O  43.498  47.399  56.914
O  36.197  43.664  55.069
O  72.691  53.813  44.796
O  70.022  50.445  44.584
O  29.981  38.728  45.635
O  43.154  62.621  32.408
O  39.891  41.923  37.984
O  43.450  72.289  40.313
O  60.688  37.878  65.440
O  49.709  59.268  32.582
O  63.417  57.223  42.441
O  63.838  41.366  65.657
O  36.983  56.489  55.898
O  50.158  54.530  32.729
O  38.529  58.718  36.741
O  40.244  37.904  54.328
O  59.494  41.367  35.842
O  62.411  28.774  51.493
O  49.286  50.822  51.315
O  48.183  38.505  57.764
O  60.841  72.006  49.768
O  48.062  49.495  54.971
O  26.924  52.350  53.510
O  51.909  51.365  55.163
O  36.851  40.582  63.350
O  54.078  49.512  32.444
O  63.086  53.691  28.542
O  60.053  42.328  48.435
O  40.161  54.490  38.647
O  50.822  52.667  33.703
O  53.888  49.455  36.436
O  39.526  45.703  40.064
O  57.590  69.888  63.359
O  55.785  47.300  38.135
O  47.501  58.419  32.211
O  38.286  46.284  64.988
O  71.472  51.299  37.402
O  44.742  64.066  33.178
O  55.439  58.141  65.514
O  58.917  43.142  65.074
O  52.144  39.030  35.415
O  61.486  42.990  63.620
O  54.156  38.772  66.354
O  44.929  35.276  30.130
O  31.283  53.570  49.220
O  51.314  67.684  34.642
O  58.717  38.004  52.858
O  42.605  47.272  73.898
O  53.301  46.819  47.257
O  50.686  49.697  48.558
O  59.248  39.383  60.290
O  63.748  48.939  65.643
O  57.247  42.459  71.466
O  33.987  39.006  35.415
O  73.955  45.874  42.294
O  48.851  49.071  45.410
O  69.450  55.023  46.476
O  51.084  40.546  64.249
O  58.014  49.300  38.091
O  55.847  42.895  58.424
O  34.460  57.361  41.583
O  30.814  57.096  52.743
O  50.190  53.992  53.244
O  39.251  59.722  66.382
O  53.930  51.905  51.539
O  49.172  45.680  46.848
O  47.856  58.908  73.329
O  39.949  47.523  48.885
O  56.064  49.568  33.975
O  39.202  53.186  50.823
O  48.838  50.831  35.156
O  38.563  57.355  32.562
N  54.450  50.646  53.996
N  52.353  53.934  53.978
N  51.761  52.453  51.079
N  50.123  52.271  56.216
N  51.782  48.251  46.320
N  47.255  47.449  45.656
N  50.479  46.045  45.037
N  52.840  50.036  49.228
N  47.749  49.355  48.296
N  48.411  51.553  54.037
N  47.582  49.311  51.473
N  47.151  45.013  48.815
C  54.053  49.220  53.886
C  49.254  46.025  45.639
C  48.160  48.371  50.547
C  51.302  56.212  48.639
C  48.154  46.940  51.113
C  52.412  49.441  46.828
C  50.386  53.922  48.435
C  45.260  44.810  45.927
C  47.172  45.301  44.376
C  54.285  53.274  56.250
C  49.413  50.996  56.292
C  51.406  53.938  52.972
C  55.330  53.677  55.408
C  48.957  45.954  50.290
C  53.052  54.098  56.375
C  47.032  52.668  52.302
C  48.427  51.155  57.474
C  50.756  46.292  43.628
C  46.498  42.464  46.792
C  52.571  50.405  44.506
C  46.353  51.272  45.295
C  46.223  53.463  53.307
C  46.527  44.474  45.431
C  56.517  52.946  55.359
C  47.997  46.502  44.861
C  46.467  52.748  44.960
C  52.271  46.074  43.432
C  55.642  51.408  57.001
C  47.799  48.687  45.956
C  46.197  52.397  51.069
C  51.898  49.739  48.263
C  53.356  49.113  51.453
C  44.622  43.983  46.852
C  56.677  51.811  56.155
C  52.791  51.562  51.129
C  47.358  48.430  49.217
C  51.714  45.782  45.770
C  49.365  53.325  56.879
C  47.076  49.542  47.028
C  52.312  46.996  46.517
C  47.085  51.016  46.603
C  52.893  51.882  46.466
C  54.453  52.135  57.049
C  51.055  54.819  50.684
C  48.149  44.729  49.876
C  52.735  45.346  44.690
C  52.523  50.115  50.631
C  44.896  50.866  45.352
C  45.238  42.808  47.286
C  51.331  52.398  55.595
C  48.205  50.485  51.840
C  47.138  43.291  45.869
C  51.894  53.827  51.502
C  52.916  48.985  52.897
C  52.145  50.677  45.935
C  48.124  52.651  57.501
C  47.511  51.339  52.935
C  48.588  50.626  55.037
C  51.942  53.806  55.355
C  51.361  54.801  49.194
H  63.357  50.595  60.473
H  65.417  54.291  39.176
H  61.840  42.739  57.417
H  51.478  62.866  36.646
H  64.456  51.282  61.263
H  64.378  53.874  38.150
H  55.920  55.529  37.220
H  30.911  40.535  49.417
H  29.482  49.560  39.925
H  37.939  32.950  59.212
H  54.938  34.151  40.816
H  55.702  34.565  39.570
H  35.772  41.298  49.525
H  42.795  56.860  31.007
H  42.226  58.080  30.303
H  30.252  48.602  39.033
H  55.780  56.388  35.976
H  31.574  41.883  49.638
H  50.233  62.930  37.513
H  43.397  72.008  39.391
H  62.392  42.211  56.104
H  44.244  72.838  40.340
H  28.743  58.777  56.922
H  34.264  41.439  49.640
H  30.100  57.492  37.413
H  57.659  42.700  67.734
H  46.610  64.711  60.299
H  45.672  63.949  59.380
H  58.987  41.967  67.796
H  41.884  35.878  59.919
H  42.956  36.297  58.928
H  42.698  32.761  39.165
H  31.044  44.774  46.859
H  31.123  46.290  46.813
H  37.125  40.330  66.958
H  66.703  40.517  60.253
H  29.628  56.062  37.221
H  65.673  41.592  59.951
H  32.444  42.275  51.608
H  54.143  39.238  46.642
H  32.086  43.635  51.033
H  54.875  37.930  46.397
H  59.217  47.429  58.392
H  60.655  47.047  58.088
H  44.411  50.968  72.912
H  69.148  65.232  53.122
H  69.184  66.612  52.488
H  43.742  52.303  73.186
H  51.689  49.417  34.526
H  50.883  48.570  35.496
H  38.094  40.299  65.789
H  41.256  33.227  39.257
H  49.223  28.022  45.127
H  50.121  29.206  44.816
H  46.268  57.214  40.653
H  45.005  56.959  39.849
H  34.463  52.038  35.248
H  64.662  66.754  50.884
H  63.576  66.055  50.086
H  51.004  53.948  64.900
H  34.593  53.476  34.777
H  32.982  68.785  49.093
H  34.070  69.378  49.971
H  49.821  53.859  65.849
H  40.303  53.632  72.564
H  40.606  53.404  71.094
H  32.993  45.720  38.031
H  34.309  46.178  37.426
H  41.981  65.001  68.874
H  51.504  61.816  67.378
H  48.621  61.138  58.645
H  47.735  62.355  58.845
H  50.232  61.324  68.045
H  28.993  57.466  57.647
H  31.042  61.831  58.091
H  41.555  63.943  67.871
H  29.812  62.681  57.821
H  41.254  48.037  40.579
H  62.889  60.545  58.745
H  62.101  61.547  59.569
H  40.186  48.212  39.514
H  39.414  32.963  58.852
H  61.710  34.467  51.729
H  32.713  67.697  51.770
H  60.541  33.630  51.240
H  54.500  37.915  32.225
H  37.451  51.174  43.697
H  38.437  50.020  43.735
H  47.675  71.475  39.926
H  68.489  56.994  43.687
H  70.006  57.059  43.647
H  47.407  61.931  47.572
H  45.718  41.507  35.540
H  47.235  41.521  35.488
H  48.924  62.011  47.577
H  45.163  73.346  49.993
H  43.775  73.271  49.382
H  48.776  70.701  40.630
H  58.226  63.122  30.243
H  28.983  57.974  41.669
H  65.634  40.191  40.158
H  70.615  59.250  59.746
H  69.485  60.239  59.972
H  65.452  41.691  40.311
H  51.727  69.780  57.264
H  31.174  46.950  55.131
H  52.054  68.349  56.874
H  60.848  33.037  60.116
H  61.218  34.430  59.635
H  43.559  56.150  69.103
H  59.561  39.528  69.444
H  60.511  39.248  70.595
H  44.869  56.877  69.350
H  27.848  56.987  41.879
H  58.640  61.661  30.198
H  53.115  38.457  31.920
H  67.542  44.449  67.654
H  42.938  50.141  29.938
H  42.187  48.865  29.601
H  33.657  48.953  33.968
H  45.828  40.323  65.419
H  45.960  39.495  66.686
H  32.291  48.421  33.570
H  33.367  54.088  32.285
H  33.753  54.159  30.818
H  59.345  46.081  35.266
H  35.068  60.295  61.324
H  36.441  60.822  60.944
H  66.012  50.505  41.429
H  59.673  47.506  34.854
H  38.297  54.271  32.645
H  37.026  54.301  33.475
H  66.097  49.457  42.524
H  44.976  34.428  61.250
H  46.050  33.388  60.984
H  58.030  67.637  35.058
H  57.717  66.207  34.654
H  49.525  57.503  34.593
H  40.809  65.844  36.865
H  40.431  67.235  36.385
H  48.736  56.426  35.317
H  65.677  46.224  49.109
H  64.532  47.220  49.176
H  44.724  59.055  68.974
H  68.154  43.497  66.642
H  44.496  59.670  67.604
H  29.673  46.736  55.051
H  33.828  61.405  45.700
H  46.661  38.681  59.364
H  30.423  60.479  61.143
H  61.684  62.911  67.837
H  61.970  62.024  69.036
H  31.527  39.438  43.084
H  61.135  35.683  53.946
H  31.439  40.829  42.480
H  70.291  50.033  45.414
H  35.315  49.223  31.406
H  36.710  48.626  31.455
H  70.751  50.248  43.983
H  63.544  37.625  38.023
H  62.608  36.432  38.100
H  25.472  56.154  49.229
H  29.826  52.402  51.345
H  43.906  62.072  32.156
H  30.026  50.911  51.556
H  74.382  46.820  47.200
H  75.204  48.012  46.742
H  42.816  47.030  56.338
H  64.152  37.523  33.207
H  63.844  38.649  34.179
H  24.963  54.807  49.712
H  38.009  56.811  35.774
H  38.004  56.232  34.370
H  57.289  48.017  31.161
H  41.165  68.179  44.380
H  42.613  68.634  44.333
H  55.774  48.111  31.216
H  33.056  62.696  45.490
H  44.039  47.930  56.316
H  34.644  53.967  43.568
H  34.334  55.276  44.273
H  42.507  62.459  31.710
H  31.104  60.414  59.787
H  49.538  67.346  66.332
H  63.055  66.684  55.230
H  63.814  65.545  55.887
H  69.569  54.841  37.775
H  50.276  68.273  67.282
H  61.989  44.305  37.096
H  62.765  45.563  37.449
H  68.158  54.326  37.998
H  49.666  41.488  59.612
H  49.835  40.168  58.880
H  37.467  61.251  53.630
H  59.332  46.815  70.948
H  60.596  47.243  70.222
H  37.042  62.625  54.117
H  39.660  69.070  39.432
H  39.375  67.592  39.233
H  54.953  58.985  59.537
H  40.239  59.811  71.311
H  40.904  58.468  71.559
H  60.424  56.332  42.627
H  55.654  57.639  59.569
H  55.672  33.712  60.020
H  54.416  34.191  60.726
H  59.779  55.393  43.631
H  43.950  31.831  54.624
H  42.592  31.194  54.384
H  56.819  33.015  43.827
H  57.909  32.214  43.136
H  46.140  37.264  59.536
H  62.189  36.400  53.119
H  28.615  56.128  54.477
H  46.160  25.162  54.310
H  38.573  40.878  58.566
H  58.858  40.371  45.887
H  35.862  35.755  46.680
H  36.027  35.984  45.188
H  53.328  39.076  43.884
H  37.332  43.628  37.398
H  36.694  42.252  37.344
H  54.409  74.893  46.683
H  62.494  40.023  44.179
H  61.230  40.498  44.875
H  54.568  73.586  45.926
H  41.503  37.937  31.761
H  52.877  40.525  43.947
H  40.714  36.640  31.757
H  41.044  28.613  59.904
H  40.718  28.555  58.422
H  51.923  68.518  59.074
H  43.549  64.909  66.696
H  44.106  63.958  67.741
H  50.443  68.183  59.136
H  35.643  45.952  50.175
H  53.503  63.634  55.297
H  54.074  64.469  56.430
H  44.211  54.609  34.745
H  43.241  55.313  33.813
H  46.196  60.544  33.112
H  29.571  56.587  43.280
H  30.726  56.775  42.312
H  34.307  45.550  49.577
H  39.508  42.075  58.559
H  45.052  49.868  25.788
H  59.805  40.572  47.057
H  42.682  38.740  66.959
H  63.578  66.835  60.760
H  59.329  63.101  68.658
H  52.612  40.878  33.123
H  52.044  41.625  31.928
H  61.623  32.311  56.978
H  39.279  38.340  51.391
H  38.668  39.730  51.385
H  61.572  31.806  58.409
H  54.440  55.749  67.686
H  55.783  55.213  67.222
H  37.898  57.336  57.819
H  52.022  68.142  63.851
H  52.108  69.658  63.836
H  54.212  44.793  36.505
H  46.120  60.785  31.615
H  37.840  49.764  65.018
H  38.782  57.541  56.601
H  52.753  44.373  36.471
H  49.672  37.730  45.696
H  50.876  37.239  46.480
H  59.199  66.559  54.510
H  60.616  66.021  54.599
H  62.260  42.709  31.678
H  46.612  55.867  72.892
H  47.986  55.220  72.917
H  60.841  43.234  31.538
H  39.107  45.246  63.212
H  39.072  43.848  63.806
H  45.237  51.334  26.139
H  43.135  39.507  68.190
H  38.521  48.455  64.658
H  50.912  31.937  47.268
H  51.292  31.026  46.114
H  31.193  51.234  54.791
H  61.149  57.172  29.462
H  66.749  43.467  40.392
H  68.007  43.603  39.553
H  39.641  53.259  35.704
H  39.621  54.776  35.764
H  36.334  33.798  45.367
H  56.539  63.153  47.643
H  55.978  62.562  48.925
H  37.727  33.278  45.059
H  48.029  59.140  57.937
H  48.368  58.067  58.957
H  60.764  35.813  57.096
H  55.893  50.318  67.176
H  55.846  51.814  67.432
H  60.842  58.382  28.596
H  39.197  72.330  52.011
H  37.035  55.282  37.020
H  38.710  71.483  50.849
H  64.683  59.494  56.841
H  62.182  35.565  57.579
H  64.990  59.971  58.250
H  37.149  56.220  61.909
H  35.667  55.905  61.806
H  53.878  45.701  68.402
H  62.096  38.563  39.391
H  61.041  39.654  39.365
H  54.866  45.258  69.467
H  35.343  66.386  43.175
H  52.764  68.333  46.226
H  53.962  68.966  46.911
H  37.393  54.586  35.718
H  58.155  63.496  69.538
H  67.353  64.918  47.209
H  59.872  60.821  70.250
H  31.679  52.215  53.739
H  46.662  39.735  38.914
H  37.273  29.680  50.302
H  58.702  43.358  46.541
H  38.684  29.163  50.523
H  47.435  40.082  40.174
H  40.769  48.972  46.034
H  39.417  49.590  45.722
H  57.861  42.530  45.586
H  36.305  55.200  42.683
H  36.827  56.408  43.441
H  44.886  43.378  68.227
H  61.187  51.452  46.876
H  60.591  51.393  48.271
H  60.075  59.524  69.487
H  45.083  42.025  68.890
H  54.792  43.625  30.775
H  67.106  63.938  61.061
H  46.881  72.043  48.689
H  46.477  72.547  47.314
H  66.753  65.292  61.652
H  36.457  52.730  59.982
H  66.909  45.560  65.163
H  65.691  44.661  65.290
H  36.243  54.215  60.216
H  49.597  41.236  42.416
H  48.620  40.073  42.416
H  48.655  38.397  40.987
H  50.091  38.430  40.494
H  68.550  63.985  47.247
H  53.448  43.209  31.346
H  64.683  66.979  59.728
H  71.642  40.294  45.098
H  58.163  41.203  50.860
H  55.438  62.612  40.587
H  50.059  54.202  61.399
H  44.565  41.460  41.235
H  45.542  42.460  41.829
H  48.462  30.542  35.745
H  41.561  47.147  63.159
H  41.264  45.662  63.053
H  49.350  31.709  36.141
H  44.821  46.892  27.504
H  44.952  45.701  26.570
H  67.804  55.905  39.490
H  61.862  65.474  45.560
H  61.445  65.330  47.013
H  30.378  42.984  52.277
H  56.266  62.327  41.828
H  62.432  62.122  41.592
H  30.005  42.082  51.114
H  30.997  57.385  60.181
H  30.938  57.644  58.686
H  67.044  57.163  39.110
H  43.595  38.245  57.894
H  43.180  39.567  58.515
H  46.699  59.621  38.689
H  48.010  71.879  42.967
H  46.575  71.775  42.478
H  45.432  59.089  39.335
H  58.488  57.173  66.096
H  55.567  67.019  41.052
H  57.652  56.364  67.072
H  56.923  67.686  40.898
H  61.705  62.918  42.661
H  53.485  48.201  62.234
H  62.977  65.181  39.511
H  29.907  55.332  54.436
H  36.736  45.720  68.621
H  61.862  32.811  44.286
H  62.507  33.254  45.588
H  68.313  53.220  44.751
H  37.815  46.023  69.646
H  42.568  43.893  56.039
H  43.625  44.955  56.286
H  68.312  53.303  43.234
H  69.021  36.920  49.999
H  67.816  36.756  50.909
H  67.250  53.080  31.503
H  46.120  43.669  73.037
H  45.841  44.602  74.202
H  66.470  52.183  32.449
H  67.335  53.184  40.934
H  62.342  38.663  60.270
H  36.812  55.172  51.188
H  59.683  56.218  67.906
H  58.927  55.751  69.138
H  36.504  34.737  63.077
H  35.776  55.095  52.296
H  28.335  45.509  50.897
H  27.765  46.878  51.223
H  35.607  35.902  63.459
H  44.767  54.610  67.306
H  43.263  54.807  67.384
H  62.146  46.630  30.748
H  62.650  46.518  32.177
H  50.371  54.522  62.850
H  63.109  63.674  39.653
H  61.432  39.814  59.880
H  45.065  25.743  53.433
H  53.386  49.696  62.485
H  63.754  59.105  63.728
H  34.725  42.381  52.536
H  47.964  45.599  65.600
H  59.850  58.938  53.398
H  58.483  58.690  52.782
H  49.131  46.218  64.851
H  71.724  44.323  41.199
H  72.731  43.205  41.407
H  36.202  42.036  52.604
H  33.301  46.910  47.017
H  33.584  48.215  46.295
H  37.927  38.488  46.516
H  62.578  36.207  60.417
H  63.319  35.075  59.728
H  36.871  37.682  47.253
H  35.066  45.521  70.178
H  64.337  37.338  46.245
H  63.666  55.548  51.825
H  40.376  30.619  59.103
H  38.857  30.651  59.102
H  37.803  53.094  30.727
H  50.309  37.508  55.100
H  49.536  38.154  53.964
H  37.389  53.382  29.294
H  60.547  36.335  51.528
H  60.973  37.784  51.688
H  64.949  55.629  52.634
H  44.237  73.353  53.817
H  42.881  73.291  53.136
H  70.398  41.114  44.807
H  57.730  42.648  50.683
H  63.016  38.087  46.266
H  67.376  48.041  37.628
H  36.301  45.063  70.933
H  66.736  61.066  54.458
H  64.400  57.871  63.123
H  66.638  46.746  37.339
H  45.677  47.006  73.649
H  44.458  46.129  73.428
H  54.136  46.797  28.711
H  49.665  64.988  46.236
H  49.069  64.347  44.995
H  38.190  62.409  61.411
H  38.086  52.955  65.315
H  37.723  52.074  64.133
H  38.604  60.950  61.330
H  49.945  60.003  52.189
H  50.886  60.910  52.963
H  55.248  46.257  27.829
H  66.203  60.221  53.314
H  27.608  40.864  50.511
H  58.565  32.476  53.086
H  52.700  46.411  58.725
H  53.506  45.137  58.902
H  59.062  33.905  52.951
H  36.986  60.121  45.907
H  36.924  60.442  44.424
H  40.050  71.953  56.234
H  68.201  46.596  46.181
H  66.789  47.054  45.858
H  51.260  43.628  40.051
H  40.247  70.635  56.961
H  50.280  65.603  51.124
H  50.025  64.888  52.439
H  50.814  43.034  41.376
H  28.347  40.968  49.189
H  43.745  37.338  55.867
H  67.408  61.357  39.373
H  49.215  66.491  35.002
H  50.200  46.446  34.035
H  46.842  43.219  62.350
H  57.999  35.041  51.303
H  57.341  34.772  49.961
H  53.393  29.605  57.554
H  71.019  52.634  50.418
H  71.339  51.169  50.174
H  66.395  38.328  60.749
H  62.546  40.393  34.465
H  54.779  29.838  56.979
H  61.645  41.177  35.402
H  65.218  38.243  61.705
H  40.189  44.517  47.416
H  40.711  45.529  46.411
H  50.374  45.601  35.285
H  61.415  45.071  39.686
H  51.985  33.762  57.391
H  43.053  69.046  63.898
H  51.946  28.358  36.658
H  51.964  29.195  35.391
H  51.399  32.520  58.040
H  38.475  34.026  35.390
H  38.614  34.325  36.872
H  43.347  68.871  62.418
H  60.357  52.227  50.379
H  60.473  50.715  50.467
H  50.334  62.471  56.256
H  41.013  42.810  36.118
H  40.955  41.380  35.612
H  51.614  63.180  56.665
H  60.728  43.736  39.918
H  48.906  30.634  64.681
H  48.111  43.042  63.165
H  59.450  50.001  34.963
H  52.278  66.126  58.170
H  56.603  43.714  29.259
H  36.479  37.077  55.727
H  37.178  38.229  55.027
H  38.328  64.112  58.416
H  42.678  62.437  65.931
H  43.581  61.216  65.977
H  39.012  62.786  58.702
H  45.511  30.828  44.310
H  45.777  30.865  42.815
H  40.710  36.846  63.619
H  39.762  36.201  62.623
H  57.183  45.292  64.165
H  56.279  46.451  63.784
H  57.933  50.001  35.040
H  35.521  61.127  58.964
H  46.612  38.628  42.720
H  34.248  61.919  58.719
H  70.060  53.348  36.198
H  69.085  53.380  35.035
H  47.522  70.924  58.863
H  28.620  63.918  50.391
H  29.486  65.129  50.092
H  33.469  50.521  45.492
H  38.914  51.434  36.754
H  38.119  50.532  35.826
H  32.117  50.366  46.166
H  47.098  72.326  59.263
H  32.104  60.995  36.083
H  32.929  59.739  36.306
H  46.346  40.083  42.378
H  50.769  66.279  58.094
H  47.884  31.310  63.785
H  63.638  50.103  43.840
H  56.317  36.741  51.697
H  55.292  36.529  50.596
H  67.087  58.162  53.779
H  66.111  57.010  53.943
H  61.859  62.974  49.729
H  42.503  52.552  60.735
H  41.221  51.929  61.260
H  42.361  68.974  59.653
H  60.883  61.849  49.430
H  57.370  62.108  45.877
H  56.050  61.478  46.283
H  32.407  43.671  37.474
H  30.934  43.400  37.221
H  38.180  42.440  65.242
H  54.046  61.793  54.229
H  42.055  54.461  53.373
H  43.169  55.480  53.536
H  36.677  42.513  65.033
H  41.624  56.258  55.331
H  42.497  57.240  56.091
H  29.229  53.119  54.631
H  29.064  51.704  54.106
H  38.081  58.866  61.950
H  64.235  37.545  55.399
H  32.535  61.330  55.109
H  34.034  61.525  54.963
H  39.282  57.960  62.159
H  40.469  53.339  29.340
H  41.383  52.125  29.332
H  65.058  38.389  54.441
H  43.357  69.934  60.278
H  54.509  30.329  34.463
H  39.901  62.032  39.177
H  33.661  35.466  47.925
H  53.283  31.172  34.158
H  64.666  50.998  43.172
H  52.972  27.904  43.643
H  65.562  62.531  44.692
H  66.954  62.090  44.272
H  52.473  29.215  43.062
H  40.826  64.813  31.460
H  42.240  65.346  31.308
H  66.282  35.279  61.101
H  67.711  35.676  61.428
H  39.130  35.620  57.842
H  54.403  35.621  62.398
H  53.267  34.724  62.856
H  40.225  34.595  57.605
H  34.412  34.146  47.913
H  40.103  70.227  49.167
H  38.865  56.893  53.290
H  37.733  57.904  53.239
H  51.530  34.208  31.203
H  50.999  35.592  30.870
H  46.155  51.799  37.925
H  39.727  46.750  33.337
H  41.072  46.047  33.285
H  47.464  52.309  37.346
H  68.598  65.520  43.869
H  69.486  64.294  43.746
H  54.288  61.224  55.616
H  70.200  41.212  55.064
H  68.841  40.533  55.082
H  40.583  63.008  38.235
H  41.045  69.163  48.632
H  28.210  55.374  52.299
H  62.356  31.895  50.645
H  63.164  32.361  51.844
H  45.042  61.291  36.420
H  44.986  62.538  35.553
H  61.888  55.411  35.272
H  53.826  50.910  74.445
H  52.587  50.260  75.037
H  48.909  72.856  46.902
H  48.581  74.336  46.985
H  46.939  31.771  40.095
H  53.684  38.469  58.413
H  54.864  37.929  57.625
H  48.336  31.663  40.681
H  54.416  36.210  52.671
H  53.250  37.128  52.993
H  61.630  46.826  40.993
H  62.638  54.964  34.029
H  60.397  47.706  41.092
H  46.189  37.512  68.887
H  44.957  38.376  68.680
H  56.069  68.010  37.493
H  43.239  69.862  56.213
H  43.310  71.308  55.754
H  39.287  54.944  66.286
H  50.017  51.031  61.817
H  40.366  55.734  67.004
H  63.109  58.985  43.838
H  47.733  59.036  42.659
H  48.064  58.536  44.054
H  63.158  58.295  45.190
H  25.811  48.946  47.060
H  25.906  47.437  47.208
H  55.293  68.094  38.796
H  49.545  52.332  62.441
H  57.254  42.915  38.867
H  46.667  25.960  44.654
H  68.938  44.571  58.362
H  36.763  40.763  61.159
H  70.878  53.313  52.822
H  69.979  54.090  53.767
H  36.333  40.503  59.726
H  59.947  61.455  37.489
H  60.121  59.958  37.678
H  73.705  52.954  41.745
H  73.144  54.143  40.985
H  50.154  44.107  33.606
H  47.699  60.644  67.303
H  47.501  61.849  66.400
H  50.812  42.739  33.645
H  39.173  59.651  56.112
H  57.350  44.259  38.167
H  37.813  59.505  56.771
H  60.830  58.491  42.745
H  40.465  45.485  65.583
H  44.410  44.188  58.439
H  45.317  45.387  58.231
H  41.446  44.429  66.063
H  30.642  35.937  42.429
H  30.943  37.422  42.321
H  52.917  42.465  70.932
H  51.427  42.185  71.025
H  43.553  67.445  36.676
H  49.055  67.625  51.302
H  47.913  68.619  51.418
H  43.005  66.045  36.891
H  47.180  27.357  44.353
H  61.138  59.854  43.341
H  27.935  52.525  50.201
H  28.707  53.828  50.086
H  44.938  67.629  59.285
H  54.082  66.751  56.345
H  71.161  51.641  47.976
H  50.382  49.144  72.111
H  35.279  44.459  39.017
H  49.643  48.735  70.850
H  71.544  53.109  47.919
H  35.180  64.153  49.361
H  34.989  62.874  50.157
H  46.154  42.619  60.342
H  47.667  42.752  60.341
H  47.383  47.819  38.049
H  39.460  46.606  38.061
H  46.358  46.013  28.867
H  45.997  44.950  29.890
H  54.848  67.509  55.274
H  45.924  47.641  37.665
H  64.414  51.605  29.026
H  37.994  46.347  37.760
H  38.991  48.977  50.267
H  39.541  48.090  51.371
H  46.873  64.173  56.769
H  46.387  35.111  68.253
H  46.925  35.847  67.039
H  47.655  64.996  57.779
H  38.881  46.450  52.691
H  40.387  46.258  52.730
H  56.389  44.344  27.894
H  43.326  32.766  35.079
H  44.102  31.461  35.102
H  28.005  56.606  51.434
H  64.594  52.211  30.407
H  36.544  45.298  39.054
H  59.099  47.787  42.998
H  57.982  46.759  42.939
H  44.145  34.894  34.844
H  44.792  36.244  34.586
H  44.498  68.091  60.663
H  62.587  52.796  66.126
H  62.309  52.676  64.638
H  26.336  54.973  44.250
H  27.623  55.735  44.517
H  38.776  41.709  61.738
H  40.254  41.362  61.693
H  64.978  55.355  60.970
H  51.659  63.954  40.759
H  52.261  65.337  40.940
H  65.556  56.303  62.006
H  50.163  59.466  58.753
H  51.464  60.241  58.863
H  36.194  47.768  61.521
H  37.136  55.927  30.963
H  42.095  39.116  63.959
H  62.052  66.115  42.427
H  62.591  64.873  41.738
H  40.745  39.539  64.513
H  44.230  41.517  33.281
H  44.107  40.004  33.223
H  54.619  30.464  49.718
H  35.425  37.383  61.841
H  37.113  47.984  60.332
H  60.347  65.477  43.679
H  57.203  59.147  60.104
H  57.294  60.012  61.349
H  58.829  65.442  43.700
H  35.918  55.021  30.937
H  34.553  38.202  62.777
H  56.132  30.336  49.674
H  47.831  29.420  43.918
H  56.625  69.857  38.943
H  43.801  64.477  29.944
H  67.759  43.980  49.710
H  67.594  44.819  48.455
H  55.190  45.152  74.222
H  63.277  41.096  36.879
H  63.739  42.516  36.601
H  54.025  46.124  74.136
H  42.515  73.349  55.551
H  43.867  73.379  56.243
H  54.316  29.957  36.902
H  42.756  47.128  38.545
H  42.868  46.798  37.067
H  42.002  40.653  39.641
H  60.278  38.517  45.002
H  35.400  38.531  48.741
H  60.878  38.626  46.393
H  55.424  28.918  36.903
H  36.264  46.471  32.555
H  35.933  46.387  31.075
H  54.656  41.284  32.261
H  55.969  42.048  32.262
H  39.201  57.587  67.230
H  72.092  38.043  45.614
H  71.377  37.202  44.571
H  38.655  36.668  52.709
H  38.241  58.391  68.089
H  36.616  46.767  47.164
H  35.423  47.498  47.754
H  37.354  35.886  52.665
H  55.966  40.868  50.571
H  41.568  39.631  38.605
H  55.126  41.093  49.325
H  34.755  39.812  48.244
H  51.856  68.971  48.140
H  31.089  65.911  48.764
H  64.248  57.930  60.927
H  65.404  57.480  60.051
H  55.798  38.664  50.760
H  32.363  37.485  49.267
H  31.416  37.633  48.089
H  30.484  65.757  47.379
H  51.834  50.503  36.433
H  51.644  49.351  37.404
H  63.267  39.718  67.705
H  47.848  39.532  33.319
H  46.351  39.284  33.388
H  62.612  38.348  67.672
H  72.256  54.918  54.308
H  44.573  31.739  60.068
H  71.058  55.760  54.711
H  43.236  35.244  40.281
H  33.642  56.675  36.533
H  41.747  35.341  40.563
H  55.696  47.235  71.727
H  61.367  60.239  55.409
H  61.645  59.625  56.770
H  56.107  45.925  72.377
H  33.933  41.599  65.452
H  34.609  41.795  64.106
H  45.174  64.220  30.540
H  30.884  56.850  49.318
H  29.459  57.329  49.532
H  43.641  31.631  61.262
H  50.409  69.415  48.011
H  32.433  55.798  36.808
H  38.243  57.636  70.407
H  58.248  60.214  45.087
H  58.529  59.172  46.156
H  33.868  66.643  43.429
H  67.992  61.696  40.733
H  38.549  44.139  52.557
H  63.691  39.819  56.422
H  63.177  39.477  55.035
H  29.097  51.821  58.925
H  55.983  34.972  54.189
H  57.194  35.321  53.342
H  32.629  57.843  55.642
H  57.303  61.299  67.762
H  56.776  62.349  66.800
H  34.001  57.193  55.612
H  48.386  49.929  38.357
H  49.657  50.739  38.168
H  37.360  44.738  51.827
H  38.689  52.319  60.094
H  58.433  68.752  46.404
H  46.673  33.721  39.103
H  48.474  29.341  52.691
H  49.599  29.000  51.730
H  45.161  33.869  39.100
H  38.297  53.052  58.823
H  43.636  53.970  69.403
H  43.362  52.605  68.797
H  68.660  45.276  36.445
H  68.650  43.977  37.232
H  50.490  65.668  34.952
H  54.576  62.309  58.441
H  53.405  61.855  57.587
H  68.620  53.382  40.149
H  57.624  68.146  47.538
H  70.598  39.139  53.126
H  71.746  38.148  53.043
H  28.667  50.421  58.525
H  37.301  58.771  70.045
H  36.867  31.483  56.348
H  36.012  32.717  56.118
H  72.295  56.062  48.349
H  50.205  37.574  64.590
H  50.836  37.740  63.219
H  48.276  65.652  37.914
H  72.703  51.398  55.223
H  71.361  50.770  54.890
H  49.113  66.918  37.874
H  61.175  43.018  54.206
H  60.117  43.826  54.936
H  71.687  56.957  47.283
H  46.782  27.952  48.199
H  46.254  29.373  48.098
H  41.809  30.222  57.056
H  61.155  51.492  56.312
H  48.885  39.520  35.261
H  49.205  40.543  36.337
H  53.082  51.430  61.166
H  63.138  41.477  41.190
H  63.185  40.244  42.075
H  54.560  51.574  61.484
H  57.308  38.533  50.668
H  59.594  54.842  46.215
H  60.287  55.178  47.524
H  34.831  39.616  64.441
H  49.460  55.268  38.755
H  48.553  54.230  38.117
H  41.169  31.584  56.852
H  59.788  50.833  56.244
H  33.366  39.525  64.829
H  43.734  36.034  56.645
H  38.804  62.926  49.136
H  44.492  60.361  29.363
H  48.679  50.381  25.166
H  37.690  28.569  43.722
H  54.492  29.881  60.271
H  55.115  31.264  60.353
H  38.843  29.485  43.350
H  31.252  59.374  56.712
H  56.447  47.701  57.559
H  55.513  46.522  57.767
H  46.612  43.310  32.537
H  46.396  42.306  31.419
H  57.213  34.818  58.869
H  28.865  63.237  52.475
H  27.791  62.212  52.796
H  55.133  32.774  32.455
H  47.206  50.028  25.270
H  58.696  35.108  58.718
H  50.197  65.836  39.960
H  54.383  33.294  31.240
H  59.364  68.352  40.331
H  60.101  68.728  39.058
H  49.146  39.825  66.808
H  62.267  51.327  35.932
H  62.266  52.209  34.695
H  50.085  40.884  66.257
H  61.347  32.931  37.085
H  62.257  31.716  37.127
H  40.400  50.983  51.345
H  39.417  50.510  52.401
H  36.003  37.263  39.723
H  37.088  68.596  53.153
H  49.819  64.632  39.114
H  49.980  43.804  31.332
H  30.165  60.431  56.636
H  69.356  62.112  43.497
H  57.802  68.901  38.865
H  48.860  30.450  43.487
H  49.350  59.130  67.758
H  49.773  59.331  66.313
H  34.069  59.527  58.413
H  62.028  55.477  48.910
H  32.943  58.549  58.704
H  62.202  53.970  48.965
H  56.255  58.711  70.805
H  60.998  41.003  64.427
H  60.164  39.770  64.125
H  55.922  58.987  69.349
H  45.317  52.149  31.370
H  46.767  52.332  30.955
H  70.781  62.554  43.213
H  49.014  73.677  59.421
H  52.395  35.792  47.142
H  48.169  32.236  67.467
H  46.958  32.103  66.561
H  51.108  35.593  47.922
H  36.974  50.152  56.470
H  36.717  51.649  56.497
H  52.216  38.814  41.879
H  51.615  40.199  41.715
H  38.831  56.575  41.657
H  38.118  55.253  41.430
H  65.487  41.161  64.090
H  62.106  52.122  52.210
H  63.302  51.188  52.164
H  64.996  39.806  63.609
H  49.404  72.528  58.508
H  48.467  43.684  31.283
H  36.262  38.033  38.440
H  64.146  56.365  45.726
H  70.963  41.120  47.070
H  41.431  67.081  46.279
H  42.037  65.688  46.271
H  49.481  72.432  61.343
H  35.833  29.651  44.649
H  34.704  30.484  44.068
H  55.069  35.309  42.714
H  45.201  51.479  67.536
H  46.062  52.683  67.198
H  56.569  35.306  42.951
H  48.344  72.100  62.293
H  48.638  58.579  38.747
H  49.830  58.424  39.676
H  59.272  36.096  55.109
H  39.499  64.102  33.943
H  59.115  34.676  55.623
H  57.650  40.633  58.857
H  56.505  40.845  59.832
H  34.101  33.920  61.544
H  40.139  33.289  46.941
H  56.263  44.527  50.506
H  55.496  43.238  50.271
H  33.412  35.099  62.209
H  46.876  51.231  28.400
H  47.188  52.597  27.814
H  33.819  47.755  62.543
H  58.958  49.007  40.054
H  57.945  49.093  41.182
H  33.449  46.300  62.774
H  44.426  60.961  27.970
H  41.656  33.226  46.950
H  39.368  62.593  34.040
H  72.150  41.896  46.527
H  37.149  48.591  48.614
H  65.505  56.995  45.981
H  37.948  69.570  52.367
H  47.319  61.235  60.946
H  46.123  61.880  60.266
H  46.097  45.109  37.106
H  52.098  62.741  53.498
H  52.298  63.431  52.160
H  47.112  43.998  37.310
H  38.611  64.105  38.190
H  37.547  63.215  38.807
H  39.007  32.279  48.571
H  35.124  40.862  67.716
H  38.719  30.936  49.217
H  33.893  40.184  67.140
H  56.887  58.708  39.125
H  34.363  49.534  60.581
H  33.852  49.428  59.155
H  37.963  48.467  47.338
H  61.868  70.832  56.916
H  46.720  43.714  53.540
H  46.572  43.006  54.876
H  34.535  37.946  58.225
H  41.191  56.658  61.716
H  39.182  61.752  50.023
H  39.985  56.124  60.961
H  35.090  60.064  53.666
H  36.169  59.759  52.641
H  62.496  70.627  58.283
H  39.763  53.536  57.261
H  39.123  52.189  56.974
H  56.151  58.540  37.807
H  33.047  37.850  58.510
H  44.262  64.086  41.644
H  65.307  43.097  45.845
H  40.741  66.452  50.023
H  66.734  46.795  57.029
H  52.776  58.581  69.886
H  46.513  63.307  32.040
H  47.583  62.798  32.990
H  52.738  58.992  71.347
H  44.700  59.396  46.626
H  45.796  60.212  47.289
H  49.457  30.588  33.552
H  70.040  51.996  62.179
H  68.852  52.759  61.618
H  25.814  43.158  47.321
H  56.711  40.640  44.558
H  55.458  40.512  45.406
H  26.082  41.805  47.956
H  56.984  71.196  59.733
H  58.016  70.439  60.551
H  54.748  50.997  53.073
H  28.929  54.202  36.275
H  38.797  67.063  52.011
H  37.424  66.552  52.412
H  47.860  44.657  43.762
H  58.156  70.928  50.793
H  36.052  39.330  34.277
H  48.028  31.084  33.421
H  57.269  72.160  50.824
H  46.562  51.012  64.273
H  46.054  52.239  65.010
H  43.476  57.706  65.346
H  48.701  53.250  33.767
H  47.618  53.426  32.717
H  36.520  38.873  32.907
H  42.792  58.065  66.653
H  66.598  45.288  56.905
H  55.778  50.537  57.663
H  38.108  41.320  49.802
H  49.977  42.212  68.543
H  50.780  67.132  44.194
H  51.352  68.539  44.169
H  55.675  62.956  36.990
H  30.778  43.041  42.565
H  50.508  43.611  68.288
H  43.445  70.898  50.371
H  31.555  44.324  42.801
H  38.786  65.670  48.784
H  38.914  65.333  47.309
H  54.180  65.660  44.669
H  54.143  67.177  44.709
H  35.311  53.139  66.057
H  48.577  49.893  48.452
H  55.485  62.415  38.396
H  51.343  60.069  55.451
H  42.188  70.055  50.503
H  48.851  43.939  49.480
H  38.280  42.151  51.062
H  53.816  47.304  32.809
H  41.200  59.032  65.358
H  41.029  60.434  64.801
H  55.094  47.205  33.623
H  47.891  35.488  31.626
H  47.048  29.464  64.826
H  32.822  45.935  32.034
H  47.854  37.006  31.585
H  50.970  37.995  30.942
H  51.716  39.061  30.158
H  45.627  29.458  64.290
H  40.727  38.175  29.460
H  41.613  36.981  29.769
H  33.656  46.223  30.799
H  68.953  59.355  52.813
H  51.487  58.925  54.462
H  33.361  63.682  57.446
H  36.418  53.886  62.391
H  36.033  53.470  63.800
H  64.276  53.944  48.164
H  42.766  33.642  54.172
H  43.000  35.101  53.821
H  51.419  49.877  50.770
H  55.979  42.214  42.346
H  38.264  65.332  41.768
H  56.492  43.546  42.864
H  54.109  30.702  47.550
H  54.426  36.221  69.061
H  53.047  35.702  69.431
H  54.990  31.938  47.530
H  64.490  59.220  41.868
H  65.430  58.088  42.241
H  36.767  65.204  41.983
H  49.235  48.678  50.337
H  73.744  40.913  48.023
H  73.779  42.429  48.090
H  52.213  34.748  60.571
H  58.169  66.347  66.656
H  57.029  65.643  65.943
H  54.925  28.147  49.806
H  65.185  54.918  48.892
H  36.095  37.341  51.488
H  48.583  39.387  63.828
H  40.733  60.602  33.181
H  41.124  60.747  31.721
H  47.160  39.804  63.500
H  64.329  60.205  51.923
H  64.589  61.621  52.406
H  35.619  37.270  52.928
H  57.658  41.686  40.636
H  40.012  38.414  45.819
H  40.722  39.233  44.755
H  64.070  34.796  39.106
H  50.895  34.680  43.798
H  67.097  46.236  61.562
H  65.994  45.296  61.108
H  55.457  64.306  50.341
H  52.788  47.064  43.347
H  65.296  34.354  39.886
H  48.916  74.131  57.086
H  54.709  65.141  51.367
H  63.326  36.464  64.779
H  64.076  37.596  64.099
H  31.991  63.388  56.860
H  45.895  62.910  62.866
H  45.755  61.923  64.012
H  47.444  74.370  56.799
H  29.190  52.859  36.934
H  54.502  56.704  26.609
H  64.375  67.798  38.747
H  58.124  42.405  41.890
H  46.103  59.600  35.294
H  45.115  58.512  34.911
H  30.972  38.188  37.830
H  40.882  71.817  50.671
H  42.124  72.549  51.148
H  64.717  66.320  38.690
H  48.594  46.979  52.149
H  51.324  56.628  25.586
H  52.493  55.859  26.176
H  51.405  33.607  42.852
H  46.612  48.281  61.460
H  46.441  49.270  62.600
H  54.478  55.208  26.867
H  31.834  38.391  39.064
H  51.261  34.374  61.694
H  68.685  59.763  54.251
H  37.870  43.477  59.004
H  44.378  51.365  46.206
H  55.174  58.778  73.328
H  50.421  30.520  49.131
H  50.891  30.461  50.573
H  34.203  33.350  55.006
H  36.913  29.898  57.966
H  38.175  29.096  57.701
H  32.855  32.650  54.994
H  65.284  37.666  66.264
H  55.382  57.513  72.514
H  65.276  39.184  66.320
H  44.382  51.166  44.406
H  74.016  44.964  49.564
H  74.796  46.262  49.672
H  35.543  50.921  66.336
H  62.593  48.158  70.097
H  62.107  49.368  70.875
H  44.793  49.761  45.467
H  44.688  64.685  56.315
H  43.982  63.385  55.972
H  52.684  62.741  42.753
H  57.901  43.013  61.743
H  57.548  42.827  60.278
H  40.017  52.187  31.168
H  53.924  63.607  42.623
H  53.817  31.719  56.363
H  49.214  57.372  26.206
H  47.162  56.234  63.828
H  47.653  54.820  64.082
H  48.988  55.918  25.827
H  34.030  50.955  66.210
H  52.733  30.799  55.828
H  40.873  50.934  31.116
H  42.497  40.394  44.146
H  61.947  67.648  53.447
H  56.442  64.855  67.937
H  56.107  63.525  68.589
H  63.484  56.690  70.267
H  65.556  53.254  59.161
H  55.909  32.355  53.050
H  56.726  32.819  54.243
H  62.868  55.347  69.916
H  64.248  52.491  59.050
H  65.960  66.558  46.591
H  36.981  57.361  38.009
H  44.137  45.191  33.339
H  43.909  46.600  33.856
H  52.402  54.402  49.034
H  35.711  56.577  38.290
H  66.462  67.942  46.218
H  36.145  56.729  49.290
H  58.767  51.453  30.238
H  47.539  53.054  44.901
H  63.116  68.588  53.683
H  43.680  41.288  43.820
H  67.363  48.240  33.237
H  68.394  47.138  33.073
H  29.667  47.612  62.260
H  29.319  46.204  61.807
H  57.576  52.343  30.546
H  60.928  45.365  60.162
H  58.588  49.144  66.409
H  53.712  33.529  52.656
H  54.991  34.132  52.103
H  58.872  48.232  65.228
H  50.584  53.588  68.928
H  51.534  52.584  69.558
H  59.565  45.933  60.519
H  36.549  53.548  66.834
H  35.380  55.417  49.291
H  29.320  57.900  46.872
H  61.002  49.405  28.129
H  62.428  49.746  28.524
H  63.294  30.722  42.739
H  39.768  61.331  47.941
H  41.010  60.758  47.281
H  62.028  30.315  43.472
H  37.503  68.749  57.328
H  37.794  69.906  58.268
H  46.609  51.625  47.418
H  34.101  42.711  43.414
H  60.800  46.836  48.685
H  59.677  46.018  49.298
H  62.042  48.200  55.894
H  35.077  48.462  42.324
H  34.052  47.355  42.494
H  61.004  48.718  54.914
H  43.845  62.214  59.737
H  36.929  42.337  58.655
H  46.983  71.399  36.995
H  35.306  58.331  32.517
H  36.339  59.444  32.492
H  45.854  71.346  38.010
H  57.748  38.770  71.543
H  54.521  48.094  26.153
H  67.408  42.667  58.865
H  57.918  37.482  70.757
H  33.450  55.265  48.148
H  33.737  56.733  47.887
H  46.003  49.200  47.141
H  43.028  63.210  60.541
H  35.321  42.445  42.550
H  66.171  42.485  58.002
H  54.676  33.404  55.219
H  53.215  33.811  55.143
H  49.812  24.557  48.803
H  41.383  55.686  43.286
H  62.547  53.259  46.618
H  69.735  55.168  61.182
H  70.063  56.636  60.974
H  46.863  50.678  44.484
H  61.773  54.319  45.853
H  40.581  56.952  43.038
H  58.791  46.620  66.835
H  40.268  58.958  60.455
H  58.924  53.770  71.831
H  58.794  53.295  73.267
H  46.224  69.866  41.280
H  27.895  57.400  46.716
H  39.034  58.607  59.642
H  59.821  46.316  67.910
H  45.441  70.657  40.247
H  42.300  34.240  32.236
H  34.880  40.185  38.585
H  58.503  49.794  27.561
H  57.575  49.619  28.750
H  50.197  25.848  48.101
H  46.023  65.038  50.674
H  53.683  47.296  25.170
H  44.792  64.972  51.561
H  33.367  40.318  38.589
H  48.150  51.357  46.487
H  72.562  41.939  51.868
H  62.241  43.010  68.444
H  54.030  44.872  49.924
H  53.335  43.632  50.457
H  61.053  42.078  68.613
H  43.447  33.296  31.922
H  71.668  43.114  52.224
H  39.565  33.971  40.619
H  38.006  48.061  53.909
H  37.740  49.128  52.861
H  56.597  52.018  60.719
H  44.511  45.639  39.265
H  44.105  44.293  39.838
H  55.885  40.972  35.751
H  42.344  71.378  45.813
H  57.791  52.535  61.503
H  42.822  72.814  45.941
H  54.801  41.260  36.775
H  44.647  38.110  31.720
H  43.943  37.724  30.431
H  52.561  47.933  53.083
H  60.647  55.501  32.772
H  60.918  54.350  31.819
H  53.652  51.827  57.739
H  36.217  61.376  56.881
H  36.988  63.550  45.001
H  37.507  62.244  45.579
H  61.201  49.217  58.050
H  43.611  44.238  47.210
H  52.782  40.474  62.836
H  52.603  40.419  61.329
H  44.740  45.706  45.551
H  47.464  68.334  58.202
H  36.166  32.885  47.436
H  48.009  68.440  59.616
H  30.642  54.638  51.046
H  30.367  54.365  52.514
H  47.091  46.597  51.226
H  67.074  34.236  48.150
H  66.894  35.744  48.178
H  52.533  52.166  47.484
H  46.373  45.688  43.682
H  36.031  31.755  46.431
H  50.400  50.562  74.247
H  45.964  53.365  45.744
H  51.573  54.594  73.720
H  32.929  49.496  63.647
H  33.371  50.321  62.451
H  52.379  53.316  73.564
H  38.569  37.326  65.334
H  37.161  37.780  65.678
H  69.989  39.092  48.319
H  57.426  29.062  61.809
H  59.328  62.880  48.130
H  59.159  64.334  47.725
H  37.129  54.690  54.305
H  64.353  48.019  61.847
H  65.558  47.999  62.771
H  38.456  54.330  53.661
H  56.222  29.986  61.776
H  36.134  61.059  55.398
H  69.121  39.959  47.423
H  63.684  48.565  59.690
H  40.216  45.179  28.275
H  40.525  46.199  27.193
H  50.643  51.261  72.921
H  39.266  46.286  67.909
H  40.172  47.476  68.174
H  26.112  54.016  51.595
H  48.342  47.059  43.932
H  58.137  56.854  55.023
H  25.514  55.402  51.766
H  47.471  51.137  66.517
H  48.359  42.164  66.744
H  47.379  41.104  67.217
H  46.573  49.936  66.755
H  63.813  47.051  59.700
H  58.771  56.430  53.711
H  41.032  64.940  48.436
H  59.734  49.605  58.116
H  39.688  50.129  72.207
H  35.364  29.727  47.414
H  34.168  30.553  46.974
H  52.442  51.330  43.891
H  30.065  49.310  56.065
H  29.076  48.456  56.840
H  49.490  42.014  61.792
H  51.955  49.598  44.042
H  28.138  51.820  42.849
H  29.516  52.016  43.457
H  53.645  50.102  44.466
H  57.442  71.299  47.565
H  56.806  71.795  46.278
H  52.726  52.754  45.787
H  66.223  32.693  59.356
H  50.465  40.863  61.619
H  65.203  33.362  60.261
H  53.991  51.680  46.508
H  31.819  67.270  50.619
H  53.259  48.104  50.963
H  40.661  50.060  69.159
H  41.956  49.946  69.944
H  46.605  50.784  53.329
H  62.230  52.431  31.341
H  51.038  50.892  45.952
H  63.394  52.846  32.223
H  49.412  46.442  49.385
H  64.367  33.374  58.225
H  63.851  32.082  57.617
H  53.804  50.032  48.986
H  36.220  45.140  57.727
H  35.264  44.580  58.765
H  48.927  52.406  54.021
H  58.788  41.523  32.853
H  59.257  40.121  33.200
H  54.439  49.401  51.389
H  37.466  61.217  40.065
H  36.884  62.436  40.759
H  52.675  44.237  44.551
H  45.769  55.342  60.146
H  45.021  56.657  60.009
H  51.541  44.983  46.545
H  58.636  63.639  35.593
H  54.011  68.522  40.532
H  52.051  49.664  53.130
H  48.118  42.997  45.462
H  45.493  62.579  49.668
H  44.432  63.328  48.881
H  46.970  41.517  47.098
H  39.805  51.063  71.016
H  53.556  67.245  39.847
H  44.715  42.134  47.983
H  52.479  45.488  42.506
H  66.187  47.316  43.024
H  53.728  48.878  54.911
H  62.139  39.972  62.816
H  62.484  38.495  62.872
H  46.490  45.733  49.144
H  53.447  43.463  53.713
H  54.901  43.290  54.116
H  67.302  47.979  43.814
H  50.166  45.575  42.994
H  59.996  62.990  35.408
H  33.315  62.990  48.153
H  50.467  47.345  43.355
H  42.923  62.824  38.814
H  44.176  62.705  37.964
H  53.777  45.608  44.989
H  33.565  61.516  47.883
H  55.527  28.586  48.483
H  41.512  63.515  48.644
H  42.160  48.222  53.451
H  60.615  63.911  39.902
H  72.991  51.792  43.939
H  72.300  51.691  45.287
H  61.405  41.448  61.353
H  47.989  41.723  33.187
H  48.651  42.626  34.213
H  62.543  41.844  60.428
H  45.794  64.750  47.638
H  36.953  43.273  62.782
H  37.311  43.305  61.307
H  46.460  65.799  46.765
H  45.886  57.043  26.518
H  46.131  55.546  26.445
H  45.319  52.890  53.627
H  66.642  64.818  42.889
H  43.671  55.921  27.635
H  66.826  64.290  44.301
H  38.213  39.693  34.076
H  54.442  39.505  71.260
H  53.330  38.474  71.168
H  39.004  40.953  33.768
H  60.394  44.297  42.857
H  59.958  45.745  42.998
H  30.220  58.703  44.573
H  46.828  53.709  54.212
H  54.678  62.153  63.172
H  55.101  61.841  64.597
H  35.140  49.724  47.695
H  60.338  38.583  57.761
H  58.903  38.971  58.071
H  35.892  50.919  48.254
H  43.565  57.435  27.687
H  30.678  60.150  44.570
H  45.816  53.364  50.657
H  61.267  64.178  38.557
H  49.433  33.984  30.563
H  27.666  43.313  50.424
H  27.164  43.733  51.795
H  62.213  37.480  56.480
H  59.311  35.816  46.114
H  60.709  35.311  45.802
H  66.535  51.166  58.754
H  63.106  37.562  57.707
H  55.077  46.405  66.242
H  54.980  44.940  66.630
H  56.162  39.014  36.712
H  43.471  59.111  63.653
H  42.046  58.726  63.292
H  46.759  49.024  51.951
H  56.959  37.740  36.489
H  35.545  62.129  46.955
H  68.040  51.328  58.638
H  48.005  33.479  30.679
H  53.280  70.303  49.158
H  52.383  70.836  50.262
H  43.183  50.587  67.525
H  42.712  49.179  67.205
H  56.606  63.163  58.774
H  57.265  37.768  33.873
H  46.803  51.894  50.278
H  42.854  44.211  60.093
H  57.786  63.555  57.901
H  56.303  43.724  34.889
H  55.044  42.920  35.168
H  42.513  42.903  59.401
H  69.747  61.378  48.024
H  68.660  61.796  48.998
H  58.173  36.983  34.804
H  46.477  47.113  46.174
H  36.302  63.247  47.649
H  35.238  48.305  56.050
H  42.636  44.497  71.798
H  44.057  43.978  71.667
H  45.319  51.753  51.316
H  45.106  43.150  37.000
H  44.729  42.689  38.397
H  32.116  50.614  50.206
H  60.686  70.753  46.936
H  60.880  69.310  46.504
H  32.360  49.458  51.159
H  44.102  34.598  46.044
H  44.455  35.277  44.732
H  54.007  61.227  51.483
H  33.980  42.544  46.351
H  35.364  42.992  45.916
H  54.758  62.532  51.677
H  51.396  46.036  74.003
H  67.068  38.426  37.652
H  44.688  50.759  60.813
H  45.050  51.249  62.204
H  59.174  35.350  67.965
H  47.112  56.353  69.194
H  46.843  57.848  69.212
H  57.853  36.057  68.210
H  41.491  28.189  47.005
H  67.049  33.021  50.612
H  65.796  32.370  51.171
H  45.981  52.960  43.978
H  39.675  35.437  60.024
H  40.361  34.680  61.148
H  51.969  45.491  72.707
H  67.889  37.387  38.394
H  40.658  48.328  53.258
H  44.360  41.948  55.997
H  37.656  39.840  37.564
H  45.025  43.223  56.485
H  65.116  44.521  50.580
H  64.098  43.397  50.479
H  47.547  64.084  30.196
H  40.085  70.228  46.125
H  39.882  68.723  46.138
H  45.886  54.423  52.845
H  49.028  63.758  30.109
H  48.625  53.815  35.909
H  50.058  53.840  35.406
H  34.928  36.538  59.870
H  44.533  38.731  37.516
H  44.496  40.192  37.929
H  34.735  35.364  58.927
H  34.719  47.875  54.689
H  62.485  60.430  34.079
H  61.829  61.715  34.556
H  47.646  42.144  41.269
H  67.404  39.110  64.570
H  40.365  27.237  47.372
H  37.055  48.126  43.267
H  37.462  47.719  41.862
H  36.518  39.429  36.645
H  50.118  28.193  41.915
H  49.433  27.055  41.178
H  67.581  40.618  64.531
H  32.615  61.297  51.241
H  34.772  33.851  40.261
H  34.928  35.291  39.805
H  34.105  61.004  51.292
H  42.493  31.398  65.114
H  41.112  31.989  65.335
H  47.987  43.587  41.602
H  47.941  53.268  52.003
H  44.466  63.054  40.548
H  39.024  33.431  41.931
H  34.496  64.521  45.865
H  36.128  61.793  34.533
H  60.108  58.441  49.186
H  49.534  43.686  59.442
H  48.265  44.151  58.750
H  59.547  59.813  49.514
H  28.436  49.328  37.851
H  55.065  48.944  69.077
H  54.361  47.633  69.377
H  27.690  48.328  38.716
H  64.631  38.251  42.416
H  64.443  39.180  43.602
H  57.630  51.259  56.147
H  38.784  61.148  35.593
H  44.321  51.559  58.178
H  38.311  62.204  36.577
H  57.666  41.452  29.716
H  63.908  64.129  63.517
H  62.116  50.683  54.241
H  63.331  50.155  54.983
H  55.818  50.362  37.782
H  70.620  52.395  42.479
H  70.249  52.538  43.945
H  55.886  51.865  37.991
H  34.616  61.930  34.523
H  62.316  65.574  52.825
H  53.315  53.824  53.762
H  43.141  50.606  58.117
H  35.831  56.653  58.709
H  35.282  57.928  59.324
H  56.530  40.513  29.348
H  64.689  64.926  64.547
H  60.900  65.939  52.414
H  42.984  52.100  39.759
H  70.618  46.983  51.762
H  69.814  45.695  51.777
H  63.342  34.614  47.242
H  62.793  35.737  46.380
H  63.315  48.505  52.576
H  38.503  39.926  41.742
H  37.888  41.182  42.332
H  53.535  35.571  31.713
H  53.648  51.217  54.314
H  64.820  30.797  46.681
H  54.694  35.042  32.540
H  64.500  56.802  38.010
H  65.298  48.555  57.230
H  64.469  49.621  57.924
H  64.528  56.522  39.503
H  54.010  39.502  34.104
H  66.131  31.438  47.100
H  28.162  40.518  47.035
H  62.156  49.316  52.023
H  47.617  40.345  69.488
H  51.278  55.837  51.105
H  44.398  51.672  39.405
H  59.841  54.537  51.326
H  61.179  55.190  51.628
H  54.727  67.454  63.725
H  32.071  34.696  45.211
H  46.216  40.525  70.046
H  31.194  33.456  45.216
H  60.858  67.260  37.285
H  62.293  66.768  37.364
H  53.580  43.920  26.486
H  33.022  41.828  54.797
H  34.456  41.330  54.753
H  55.798  68.526  63.829
H  54.370  42.730  25.971
H  54.984  38.361  34.342
H  49.456  64.399  54.928
H  38.023  58.287  48.359
H  49.052  35.688  41.389
H  37.729  63.265  42.814
H  36.658  62.271  43.231
H  51.762  49.405  40.150
H  32.902  44.110  63.233
H  34.365  43.944  63.606
H  52.827  48.342  39.941
H  56.027  38.502  39.310
H  56.021  39.991  39.611
H  51.494  56.201  47.539
H  29.843  49.111  60.150
H  30.519  48.025  59.331
H  50.772  71.695  46.706
H  56.844  54.221  63.410
H  58.444  29.404  58.927
H  59.765  29.031  59.577
H  58.221  53.582  63.446
H  62.415  44.142  66.484
H  63.129  45.383  66.991
H  46.047  30.694  54.163
H  47.310  30.669  55.006
H  34.116  51.743  49.849
H  33.412  48.048  57.503
H  31.914  41.232  60.641
H  32.943  47.860  56.071
H  62.765  60.536  66.873
H  49.060  54.111  56.133
H  61.478  59.847  66.453
H  50.709  70.334  46.035
H  47.475  56.142  33.462
H  46.781  56.342  32.126
H  34.280  50.370  50.476
H  33.043  40.218  60.587
H  52.446  55.745  44.449
H  51.201  33.524  54.285
H  39.154  36.671  42.217
H  69.466  37.864  58.543
H  38.967  35.053  44.097
H  40.216  34.337  44.577
H  70.266  36.723  57.938
H  55.409  70.727  63.833
H  49.564  56.780  73.235
H  53.908  70.920  63.964
H  52.112  39.724  66.670
H  29.583  40.937  47.369
H  52.333  41.222  66.777
H  36.783  58.819  49.056
H  33.941  45.820  35.156
H  34.426  46.344  33.815
H  50.852  52.155  50.786
H  47.947  64.565  54.887
H  49.819  56.206  71.852
H  34.724  55.619  54.254
H  48.184  34.849  40.468
H  50.571  33.974  55.591
H  53.806  55.842  45.118
H  53.101  45.705  64.436
H  53.841  46.192  63.202
H  67.925  45.673  58.618
H  38.158  35.583  41.854
H  47.086  45.632  33.540
H  40.117  29.694  55.034
H  50.145  50.156  56.452
H  43.505  49.949  74.659
H  44.841  49.243  74.503
H  39.170  30.236  53.977
H  34.020  54.393  53.699
H  46.273  46.337  32.468
H  56.294  32.952  36.721
H  50.906  48.382  45.863
H  66.467  66.378  58.373
H  60.093  50.505  32.119
H  58.774  50.862  32.781
H  25.347  43.485  50.145
H  69.930  61.099  41.631
H  70.276  59.623  41.534
H  28.348  43.701  47.332
H  61.739  38.267  32.735
H  62.560  39.510  32.442
H  50.311  56.286  69.006
H  71.848  39.432  54.915
H  72.088  40.006  56.301
H  49.262  55.415  68.338
H  57.900  49.811  68.671
H  59.395  49.861  68.407
H  57.346  53.289  54.718
H  43.928  60.906  51.255
H  69.952  50.364  36.114
H  59.522  68.629  64.185
H  59.023  68.103  65.519
H  66.920  59.215  35.832
H  50.028  41.286  55.302
H  49.901  39.776  55.405
H  55.216  50.759  54.669
H  25.880  44.455  49.105
H  56.639  38.678  41.450
H  55.134  38.886  41.428
H  55.911  40.499  57.450
H  60.681  44.821  46.742
H  61.375  44.562  45.416
H  54.728  41.418  57.200
H  68.671  51.170  36.229
H  44.920  59.811  51.604
H  66.946  53.548  60.847
H  29.735  43.140  47.591
H  66.497  52.402  61.736
H  61.622  38.757  42.516
H  57.661  63.865  64.740
H  57.153  63.138  63.507
H  50.624  55.083  27.038
H  60.125  38.561  42.678
H  66.206  44.314  45.716
H  34.547  36.607  41.978
H  49.396  54.200  27.170
H  65.561  62.219  60.315
H  49.783  72.197  44.234
H  48.952  73.466  44.165
H  41.651  67.664  50.127
H  69.308  51.205  33.646
H  69.192  49.747  33.237
H  64.745  63.457  60.646
H  67.732  57.944  35.650
H  36.036  36.312  41.926
H  41.362  44.488  38.501
H  36.136  57.711  67.985
H  35.291  58.206  69.145
H  41.154  31.807  42.157
H  37.678  54.773  70.352
H  38.228  55.015  71.746
H  40.308  30.552  42.036
H  40.608  36.356  51.445
H  66.326  67.567  56.230
H  53.607  67.412  53.459
H  66.052  66.074  56.234
H  57.844  32.180  56.041
H  58.130  30.704  55.826
H  41.790  36.376  52.397
H  42.359  44.626  37.363
H  54.532  66.211  53.361
H  37.255  42.535  30.504
H  31.500  56.159  45.167
H  60.153  57.575  70.505
H  54.093  54.855  31.301
H  48.771  40.639  31.395
H  49.844  41.654  31.752
H  55.236  54.601  54.815
H  63.143  44.429  55.852
H  64.600  53.906  45.988
H  62.992  44.846  54.400
H  42.648  54.296  37.100
H  25.744  50.475  51.686
H  25.350  50.269  50.234
H  41.752  55.124  36.194
H  62.609  39.258  50.703
H  61.277  39.938  50.969
H  65.789  54.764  46.385
H  48.978  56.778  31.971
H  50.484  56.591  32.016
H  56.904  66.245  56.441
H  35.767  42.537  30.202
H  66.208  31.013  44.909
H  43.051  47.958  59.439
H  42.573  46.556  59.777
H  65.022  30.116  44.598
H  47.882  54.671  40.168
H  47.246  66.807  39.730
H  46.401  55.008  40.165
H  49.964  54.621  50.859
H  58.133  61.070  54.368
H  59.612  61.416  54.355
H  58.136  65.415  56.756
H  50.296  68.437  41.104
H  51.539  69.026  41.747
H  67.094  65.092  58.881
H  45.776  66.459  39.886
H  53.208  55.172  30.108
H  45.200  28.942  50.476
H  60.252  56.542  40.362
H  50.182  70.386  62.800
H  35.802  55.165  65.314
H  36.322  56.590  65.242
H  68.867  50.426  63.562
H  67.522  51.119  63.690
H  72.965  55.401  51.883
H  71.856  51.218  57.481
H  46.423  67.801  44.444
H  45.967  68.206  45.835
H  70.537  50.705  56.930
H  55.816  37.605  70.062
H  55.809  37.715  71.576
H  32.201  55.349  46.244
H  46.634  44.163  48.564
H  60.754  58.590  71.462
H  59.041  57.005  39.570
H  51.196  36.541  32.939
H  62.374  47.764  33.969
H  61.603  48.391  32.821
H  45.075  27.455  50.192
H  59.208  38.454  49.271
H  59.400  39.954  49.130
H  67.733  32.921  43.771
H  50.729  71.468  63.714
H  70.647  60.923  50.682
H  52.985  54.119  51.425
H  66.696  32.116  43.008
H  60.996  51.448  66.895
H  59.855  51.730  65.932
H  72.393  54.094  51.359
H  49.912  37.350  32.949
H  69.469  59.968  50.773
H  54.179  55.628  72.543
H  56.315  32.550  35.257
H  36.186  61.447  48.982
H  57.974  55.619  28.220
H  47.890  69.548  36.142
H  49.404  25.049  52.557
H  50.127  26.034  51.655
H  40.311  51.050  63.599
H  50.746  59.521  43.122
H  50.009  58.194  43.084
H  44.570  56.217  62.497
H  52.704  53.700  27.025
H  51.405  52.925  27.155
H  40.194  49.541  63.721
H  43.336  57.098  62.565
H  52.900  63.556  38.510
H  53.467  63.947  37.157
H  49.998  53.803  57.675
H  39.067  49.038  33.482
H  38.824  48.917  31.988
H  53.961  63.584  48.884
H  53.369  62.685  49.956
H  52.070  56.860  49.126
H  55.016  72.373  43.644
H  31.545  43.707  54.252
H  32.809  44.548  54.284
H  58.636  56.857  28.801
H  27.264  52.859  58.261
H  44.214  49.217  62.313
H  43.751  53.204  29.643
H  46.921  69.774  54.359
H  28.160  53.755  57.423
H  46.998  69.426  55.835
H  42.474  53.914  30.057
H  44.169  48.187  63.427
H  49.055  68.591  35.963
H  38.444  34.795  51.010
H  38.599  36.234  50.551
H  68.601  48.157  64.649
H  67.243  48.836  64.694
H  41.510  55.163  31.591
H  40.692  55.959  30.589
H  56.357  67.185  67.648
H  55.192  68.055  67.210
H  55.854  64.823  42.349
H  41.549  61.621  41.152
H  25.181  54.798  46.745
H  41.565  63.058  41.645
H  59.806  37.429  68.350
H  47.593  44.314  50.765
H  61.017  36.552  68.616
H  44.082  46.189  64.956
H  25.783  53.476  46.304
H  56.408  72.966  43.522
H  43.724  39.254  52.950
H  55.007  64.767  41.089
H  50.294  56.660  48.817
H  47.626  62.977  50.090
H  37.732  48.321  29.274
H  48.431  64.089  50.741
H  66.128  42.566  50.242
H  50.155  47.664  61.677
H  42.872  39.659  54.140
H  50.461  46.216  62.017
H  59.653  63.870  65.932
H  59.922  65.016  66.892
H  37.768  46.869  29.715
H  52.605  53.958  57.397
H  38.561  38.471  68.835
H  38.906  39.171  67.532
H  66.761  41.901  51.452
H  59.678  66.564  39.043
H  36.175  44.660  29.483
H  62.621  68.299  45.566
H  63.822  62.514  43.258
H  59.563  32.326  62.987
H  62.992  61.274  43.543
H  47.220  52.871  56.877
H  56.155  63.806  55.255
H  56.499  62.437  55.816
H  55.372  52.815  33.561
H  41.115  34.766  48.454
H  41.551  36.221  48.466
H  54.898  51.742  32.596
H  37.343  68.260  38.705
H  46.653  61.356  44.400
H  46.383  60.051  45.128
H  57.772  66.774  59.455
H  58.698  67.975  59.382
H  44.089  35.680  49.163
H  55.802  55.769  28.530
H  34.826  66.002  45.900
H  41.120  32.437  53.306
H  43.489  59.741  38.520
H  53.852  54.201  72.138
H  44.183  60.896  39.221
H  39.616  32.651  53.322
H  38.089  55.157  38.986
H  56.914  61.695  69.900
H  54.965  48.635  53.574
H  59.058  58.342  67.905
H  57.540  58.384  67.937
H  45.247  34.856  48.629
H  37.740  67.156  37.741
H  54.496  56.491  28.809
H  57.675  61.783  71.211
H  67.490  34.166  53.276
H  68.169  35.516  53.126
H  38.127  53.650  38.798
H  34.825  59.787  35.188
H  36.133  64.032  58.265
H  49.589  61.217  42.331
H  53.331  55.185  56.280
H  48.187  61.005  41.788
H  59.167  63.577  54.276
H  35.854  58.775  34.715
H  57.910  64.408  54.082
H  51.104  39.187  33.140
H  50.527  40.467  33.718
H  72.489  49.985  42.659
H  63.309  67.049  45.045
H  55.521  53.337  26.365
H  56.847  53.749  25.750
H  73.606  50.665  41.887
H  37.507  44.702  30.212
H  34.928  64.954  58.338
H  55.947  69.584  55.117
H  33.926  51.875  52.714
H  34.422  50.440  52.671
H  60.077  31.702  61.701
H  50.418  52.866  48.792
H  45.246  59.829  59.890
H  45.279  58.603  58.994
H  56.537  69.561  56.516
H  36.171  65.290  60.844
H  63.997  37.207  40.578
H  35.742  65.552  62.278
H  31.634  51.536  63.293
H  32.482  52.775  63.066
H  39.719  45.266  72.199
H  38.295  45.791  72.231
H  65.310  36.445  40.572
H  50.539  28.131  49.348
H  58.362  66.377  38.308
H  35.374  46.971  44.297
H  70.987  43.691  54.253
H  44.317  66.795  33.309
H  28.686  53.352  60.586
H  51.182  51.528  64.649
H  29.476  52.257  61.280
H  44.413  68.303  33.166
H  35.866  48.197  35.072
H  35.942  49.553  34.392
H  49.864  50.774  64.654
H  41.235  30.512  49.387
H  40.864  30.316  47.927
H  32.469  40.680  56.737
H  47.620  45.375  47.967
H  40.830  40.377  53.477
H  40.913  40.307  54.991
H  32.790  39.804  55.539
H  56.333  52.066  35.384
H  36.701  33.613  37.787
H  49.343  54.303  48.555
H  36.882  35.104  38.013
H  62.888  54.853  61.437
H  64.522  46.492  57.399
H  63.497  45.600  58.077
H  70.852  45.191  54.450
H  55.702  59.571  32.905
H  31.444  54.429  42.243
H  56.677  58.443  33.194
H  62.623  53.832  62.529
H  72.297  43.447  49.517
H  71.260  42.346  49.376
H  57.742  51.995  35.946
H  32.960  54.518  42.257
H  51.127  54.581  55.525
H  51.763  52.682  24.756
H  51.250  51.254  24.809
H  60.431  64.519  62.915
H  60.771  65.908  62.403
H  64.421  51.356  35.357
H  29.494  43.443  61.480
H  28.250  44.208  61.896
H  64.411  52.820  34.954
H  52.515  53.110  66.828
H  35.186  52.703  47.166
H  52.892  54.343  66.026
H  47.517  50.526  57.331
H  38.414  52.765  70.928
H  38.220  52.911  72.427
H  49.303  27.425  49.875
H  35.269  60.362  49.518
H  35.031  54.094  46.578
H  50.531  32.292  61.591
H  43.680  50.649  31.992
H  50.829  33.728  37.414
H  32.113  66.035  57.318
H  64.308  51.505  56.584
H  54.256  43.059  38.136
H  55.204  42.123  38.864
H  33.563  66.474  57.420
H  60.782  57.454  31.623
H  42.466  50.945  32.856
H  59.371  57.444  31.062
H  58.973  35.678  48.322
H  60.468  35.946  48.339
H  48.931  50.837  58.421
H  50.019  34.043  36.168
H  62.842  34.761  42.891
H  62.959  33.314  42.447
H  65.562  52.361  56.591
H  48.061  75.020  53.363
H  51.187  66.186  38.025
H  50.443  32.952  60.226
H  51.920  26.229  42.593
H  51.363  25.336  43.689
H  36.684  45.660  61.992
H  50.760  60.868  70.543
H  43.885  27.641  53.591
H  42.586  28.402  53.387
H  53.529  49.255  46.860
H  28.708  40.228  59.132
H  29.208  39.479  60.355
H  42.943  42.397  30.879
H  32.016  51.667  35.675
H  38.315  47.448  62.247
H  31.994  51.682  37.194
H  42.522  40.945  31.028
H  53.008  60.791  30.337
H  54.265  60.324  31.051
H  39.413  48.460  61.967
H  36.444  45.893  44.310
H  47.753  73.774  54.175
H  40.650  69.615  54.928
H  41.870  68.923  54.345
H  43.866  45.301  63.743
H  58.261  60.400  32.020
H  49.956  59.580  70.538
H  59.555  59.999  31.333
H  38.530  47.400  44.734
H  38.531  46.731  46.098
H  47.936  53.024  58.534
H  49.663  45.309  67.173
H  28.540  45.849  41.447
H  30.002  45.773  41.850
H  49.314  46.597  67.898
H  44.536  31.945  40.072
H  44.050  33.137  40.877
H  37.346  45.582  60.627
H  50.282  31.586  54.813
H  50.641  53.926  47.347
H  49.952  59.986  35.057
H  51.198  59.143  34.852
H  35.409  39.845  51.865
H  50.818  40.040  38.166
H  61.228  49.343  64.961
H  51.293  41.462  38.411
H  48.068  36.566  54.687
H  48.077  36.951  56.156
H  59.716  70.674  56.197
H  58.635  70.373  57.221
H  59.870  62.428  57.570
H  61.162  63.077  58.035
H  36.613  39.627  52.764
H  51.294  65.137  36.932
H  61.701  49.417  66.403
H  32.495  43.833  33.044
H  63.186  43.271  52.531
H  64.666  42.928  52.553
H  49.811  45.563  50.910
H  37.592  40.490  55.836
H  34.992  63.521  43.963
H  33.573  63.562  43.424
H  60.494  54.557  54.516
H  38.950  41.171  55.863
H  66.175  42.469  37.773
H  63.707  52.854  53.562
H  49.432  30.390  54.424
H  63.194  54.283  53.564
H  60.443  53.039  54.502
H  32.321  44.559  34.366
H  65.002  41.577  38.139
H  35.246  66.347  50.398
H  49.047  41.775  26.567
H  61.182  51.247  40.040
H  40.915  57.606  69.290
H  40.217  56.334  69.741
H  51.240  47.172  64.560
H  66.095  58.973  51.490
H  67.313  59.877  51.420
H  57.716  25.888  46.946
H  56.679  26.936  46.582
H  47.710  44.859  27.572
H  68.345  35.019  46.382
H  67.891  33.676  45.838
H  48.643  44.505  28.717
H  58.771  43.305  29.273
H  58.577  44.129  30.534
H  57.386  60.953  58.851
H  58.869  60.712  58.632
H  50.946  48.473  63.833
H  30.814  48.269  47.748
H  41.476  61.526  70.662
H  49.357  61.775  32.186
H  43.922  39.117  71.958
H  45.388  39.478  71.797
H  66.620  39.366  43.857
H  31.771  51.839  33.498
H  31.615  50.504  32.790
H  66.246  37.894  43.870
H  60.205  58.200  59.439
H  59.230  58.216  58.275
H  60.663  71.444  41.744
H  59.612  70.350  41.676
H  66.070  69.451  47.771
H  32.529  33.861  49.805
H  33.084  35.104  50.478
H  64.814  69.322  46.928
H  48.761  61.510  30.815
H  42.884  61.113  71.052
H  34.039  38.287  39.315
H  34.203  37.192  38.276
H  30.236  49.664  47.591
H  41.608  41.640  64.887
H  57.995  45.281  58.308
H  56.841  44.739  59.133
H  40.745  42.425  63.914
H  54.680  72.748  57.310
H  55.147  73.706  56.227
H  64.069  50.393  50.234
H  63.531  48.989  50.016
H  43.641  40.933  65.525
H  60.190  52.165  33.947
H  59.546  53.496  33.602
H  44.360  41.178  66.840
H  51.959  50.351  27.112
H  52.908  49.182  27.313
H  32.284  58.739  42.976
H  40.527  43.508  42.555
H  39.107  43.284  43.045
H  51.954  46.178  38.313
H  53.312  46.851  38.398
H  35.313  51.379  54.803
H  35.648  49.946  54.428
H  66.255  38.037  47.433
H  65.660  39.435  47.415
H  56.285  32.545  49.276
H  39.296  36.902  56.044
H  38.274  37.588  56.934
H  54.838  49.242  39.937
H  55.438  33.588  49.983
H  43.735  51.173  27.906
H  37.792  43.196  69.195
H  38.387  41.897  68.679
H  52.068  51.916  30.466
H  38.457  64.314  55.041
H  38.175  64.912  53.673
H  53.561  51.986  30.734
H  43.060  50.851  26.584
H  32.449  57.916  44.242
H  56.327  49.455  39.725
H  58.150  68.899  51.642
H  36.873  42.688  67.234
H  35.717  43.673  67.207
H  57.179  47.730  68.067
H  56.500  48.224  66.801
H  51.911  36.580  56.810
H  51.510  49.051  24.561
H  50.487  49.072  25.683
H  53.267  35.899  56.756
H  63.044  58.847  70.038
H  62.138  60.065  70.025
H  51.692  30.328  60.641
H  51.589  29.787  59.225
H  52.694  48.583  65.940
H  62.844  52.392  40.916
H  63.988  51.395  40.992
H  58.036  53.213  51.094
H  52.033  49.951  65.926
H  47.898  30.796  38.277
H  56.651  53.001  51.678
H  74.541  53.651  52.210
H  73.987  53.746  53.621
H  43.390  70.895  42.095
H  45.690  35.979  32.438
H  45.893  34.586  33.007
H  54.457  59.640  28.213
H  53.666  58.535  28.891
H  52.914  67.573  37.760
H  63.604  38.187  52.620
H  64.543  38.959  51.710
H  54.156  66.872  37.236
H  48.320  48.358  35.515
H  48.280  46.920  35.028
H  42.145  64.101  50.848
H  43.401  63.310  51.170
H  47.231  31.696  37.252
H  31.615  54.707  65.708
H  30.914  53.379  65.482
H  64.529  61.267  34.554
H  41.525  43.237  46.101
H  47.216  69.224  39.376
H  48.568  68.532  39.378
H  55.673  52.129  64.128
H  55.093  50.864  63.522
H  39.532  56.184  63.445
H  56.952  37.642  58.729
H  57.743  37.125  59.917
H  38.167  56.619  63.949
H  38.315  62.879  64.540
H  39.103  61.643  64.939
H  29.865  63.523  45.120
H  30.877  62.401  44.964
H  41.453  40.012  28.471
H  58.655  67.622  50.993
H  60.575  41.610  40.658
H  60.994  41.926  42.083
H  40.060  43.127  45.718
H  37.114  35.227  60.141
H  65.805  61.990  34.950
H  41.429  31.238  45.568
H  37.197  40.401  47.300
H  36.490  41.743  47.374
H  40.917  30.945  44.168
H  58.887  56.684  34.953
H  57.548  56.518  34.257
H  40.929  41.437  28.420
H  54.233  52.150  24.948
H  41.637  40.765  70.606
H  68.237  63.473  42.132
H  68.122  64.022  40.721
H  42.544  39.584  70.308
H  43.427  30.264  50.958
H  43.050  28.793  50.927
H  36.708  33.909  60.777
H  53.957  50.877  25.728
H  41.954  71.327  42.339
H  59.022  43.000  56.679
H  64.343  57.679  52.103
H  55.867  69.697  60.928
H  47.382  68.673  47.454
H  48.353  68.721  48.621
H  41.230  70.389  44.194
H  40.196  71.496  44.305
H  43.549  63.437  63.346
H  63.859  51.425  46.739
H  62.974  50.497  45.926
H  42.295  64.292  63.360
H  37.998  33.619  56.421
H  39.232  32.851  55.981
H  40.617  60.992  44.780
H  39.105  60.856  44.733
H  47.224  41.920  64.837
H  38.971  70.190  42.255
H  48.130  70.013  64.246
H  39.532  71.599  42.171
H  47.196  71.170  63.936
H  46.302  68.121  36.903
H  35.558  62.930  61.181
H  36.925  61.072  51.039
H  38.079  60.302  51.656
H  34.097  62.518  61.195
H  35.842  52.949  53.377
H  36.096  52.254  52.051
H  48.834  50.674  70.160
H  50.353  50.699  70.132
H  65.633  49.665  48.298
H  44.749  44.008  62.177
H  45.530  44.850  61.182
H  67.101  49.675  48.691
H  51.072  69.119  50.697
H  51.301  69.029  52.195
H  45.658  69.482  36.705
H  55.805  71.064  61.586
H  46.363  42.573  65.905
H  66.286  50.287  51.923
H  67.652  50.288  52.587
H  62.344  62.095  64.308
H  42.578  70.836  58.427
H  44.687  48.961  66.173
H  44.486  50.268  65.427
H  60.302  55.264  70.800
H  61.122  54.894  72.024
H  51.414  56.386  29.728
H  50.582  44.761  64.066
H  50.155  43.421  64.639
H  50.091  55.693  30.003
H  35.387  54.166  56.522
H  34.212  55.111  56.337
H  66.448  43.277  55.943
H  64.973  42.989  55.726
H  38.344  48.012  70.473
H  61.888  60.652  64.433
H  41.896  72.186  58.565
H  45.483  29.561  40.482
H  45.069  29.518  39.022
H  57.853  46.977  55.665
H  59.333  46.768  55.936
H  61.175  57.913  67.467
H  56.828  45.587  68.479
H  58.085  44.885  67.994
H  61.648  57.597  68.875
H  67.774  37.028  45.520
H  63.000  58.364  58.498
H  68.182  38.278  46.281
H  47.995  71.319  56.437
H  64.412  32.931  44.530
H  55.548  41.146  69.112
H  56.047  39.714  69.025
H  64.349  34.413  44.854
H  36.180  40.251  57.517
H  35.959  38.905  56.850
H  48.318  71.527  54.968
H  62.898  57.610  51.642
H  62.021  57.217  58.680
H  48.157  42.987  72.561
H  49.987  64.268  57.669
H  49.872  62.926  58.371
H  47.418  49.213  71.021
H  66.613  51.849  45.118
H  66.295  52.778  43.959
H  47.698  48.849  69.574
H  30.398  64.350  53.657
H  31.368  63.469  52.889
H  53.222  48.104  71.408
H  53.309  46.621  71.091
H  45.248  40.293  57.792
H  61.160  43.329  33.771
H  61.201  44.265  34.966
H  45.877  40.854  59.055
H  50.174  41.211  40.290
H  68.335  37.730  56.128
H  48.980  41.693  39.484
H  69.838  37.944  56.137
H  38.282  40.576  45.388
H  57.809  42.419  55.974
H  33.188  45.325  58.662
H  32.340  46.566  58.878
H  54.634  66.534  68.851
H  54.148  65.589  67.766
H  52.815  48.602  58.891
H  39.544  50.489  48.052
H  38.216  51.222  47.978
H  54.289  48.967  58.901
H  40.091  57.695  51.275
H  41.148  56.951  50.478
H  40.849  31.658  51.263
H  40.246  33.051  51.225
H  62.886  58.117  38.727
H  38.296  41.914  46.107
H  61.413  57.778  38.586
H  58.723  52.573  47.382
H  58.931  52.030  45.979
H  51.115  43.961  28.457
H  49.723  33.452  48.481
H  60.296  55.349  61.063
H  61.031  56.640  60.749
H  37.884  52.883  68.452
H  54.318  51.053  65.772
H  53.426  51.957  64.940
H  39.127  53.668  68.074
H  48.549  70.706  45.388
H  47.423  70.604  46.401
H  63.217  42.868  46.589
H  61.725  42.618  46.450
H  32.607  34.785  52.971
H  63.781  29.407  49.407
H  65.051  29.973  48.797
H  33.973  34.362  52.459
H  48.264  33.810  48.256
H  38.653  52.585  45.982
H  46.958  57.840  36.308
H  47.972  58.969  36.266
H  28.707  45.148  53.827
H  29.640  45.069  52.631
H  51.232  45.273  27.701
H  69.806  51.380  65.654
H  69.143  52.694  65.278
H  71.240  48.857  47.037
H  72.610  49.359  47.459
H  49.516  42.873  71.892
H  46.956  36.576  63.037
H  50.354  30.666  39.765
H  45.597  36.112  62.543
H  52.601  32.898  40.951
H  52.266  31.498  40.469
H  34.365  43.562  50.684
H  35.869  43.442  50.864
H  38.631  52.935  44.504
H  50.525  29.157  39.776
H  61.349  38.865  48.943
H  45.717  37.654  54.772
H  58.925  68.998  49.121
H  38.431  67.840  41.608
H  38.924  35.736  38.545
H  38.903  37.235  38.790
H  27.538  49.003  48.902
H  56.264  69.667  46.674
H  55.538  69.259  45.404
H  26.575  48.015  49.538
H  41.659  56.158  39.840
H  41.003  55.108  40.719
H  64.906  35.422  42.479
H  65.669  34.131  42.720
H  57.740  44.727  56.147
H  47.294  44.551  39.746
H  46.248  43.483  40.018
H  56.867  45.136  54.974
H  39.615  67.319  42.404
H  39.834  55.582  56.426
H  33.515  56.416  63.739
H  36.861  44.933  35.521
H  62.109  45.741  43.461
H  40.695  40.840  32.359
H  43.687  58.364  49.170
H  43.137  57.833  47.858
H  46.374  67.590  34.760
H  47.140  67.889  33.483
H  49.154  36.174  63.234
H  40.414  62.786  62.581
H  41.283  61.543  62.514
H  50.091  35.001  63.457
H  34.618  52.144  62.748
H  35.831  51.815  61.896
H  47.335  31.334  47.861
H  48.842  31.520  47.893
H  33.994  57.355  64.833
H  35.617  44.449  34.797
H  38.949  55.818  55.214
H  42.140  68.067  38.679
H  41.690  67.372  39.952
H  45.726  71.794  55.431
H  45.856  73.302  55.307
H  36.277  63.986  64.480
H  37.356  64.921  63.964
H  62.865  60.664  62.453
H  65.627  40.529  53.028
H  67.103  40.228  52.839
H  63.531  60.895  61.108
H  60.708  32.271  53.576
H  62.143  32.736  53.756
H  49.061  48.727  27.390
H  48.438  48.363  26.054
H  69.807  58.018  56.896
H  41.310  42.599  67.792
H  42.355  41.502  67.688
H  46.231  44.718  66.646
H  34.222  42.729  35.004
H  35.362  41.941  35.624
H  45.719  44.688  65.217
H  32.771  54.857  50.229
H  45.344  34.371  42.884
H  45.003  35.306  41.738
H  33.990  53.951  50.254
H  41.571  56.798  33.491
H  40.622  55.734  34.013
H  59.840  53.249  43.114
H  63.044  45.793  44.656
H  58.394  53.622  43.385
H  64.439  52.935  50.470
H  65.548  52.013  49.996
H  68.204  48.583  47.126
H  66.827  63.256  63.819
H  67.625  61.964  63.868
H  28.368  48.943  52.088
H  28.442  48.125  53.365
H  69.234  49.627  47.521
H  68.623  57.313  56.257
H  39.758  39.789  31.790
H  60.754  36.772  41.097
H  47.158  62.579  35.140
H  32.907  47.728  36.581
H  32.030  48.830  36.012
H  48.115  63.304  36.070
H  64.780  59.814  46.078
H  64.123  61.180  45.997
H  33.863  66.494  60.853
H  34.231  67.093  59.507
H  51.817  57.902  57.264
H  58.489  59.268  65.312
H  57.715  60.543  65.598
H  50.590  57.024  57.439
H  54.002  43.674  64.031
H  54.783  42.468  63.541
H  51.892  71.772  41.042
H  55.809  43.680  61.607
H  52.175  73.160  40.496
H  55.495  44.963  62.356
H  50.065  64.414  32.098
H  37.174  69.322  55.229
H  46.535  60.601  69.171
H  46.796  61.593  70.291
H  58.579  38.813  39.028
H  58.649  33.996  61.246
H  58.206  35.102  62.188
H  58.020  40.189  38.708
H  65.484  38.593  49.464
H  66.535  39.689  49.432
H  56.576  59.545  54.036
H  55.471  58.527  53.818
H  66.676  41.540  45.100
H  40.805  47.302  36.233
H  40.402  48.692  36.694
H  67.172  40.279  45.785
H  49.384  65.671  31.584
H  59.554  43.648  69.106
H  68.586  61.793  61.310
H  67.173  61.261  61.466
H  38.594  54.422  62.450
H  34.786  54.715  36.590
H  42.270  36.534  34.088
H  43.238  37.701  34.020
H  34.025  54.735  37.904
H  58.477  58.320  71.926
H  58.282  59.667  71.251
H  38.838  50.095  30.128
H  37.701  51.017  29.724
H  58.849  38.000  64.051
H  59.472  60.180  41.941
H  59.908  61.610  41.673
H  57.999  39.258  64.023
H  42.138  53.532  65.872
H  42.902  52.237  66.087
H  38.754  52.916  62.337
H  35.355  49.295  62.911
H  35.674  49.768  64.318
H  34.848  50.711  29.506
H  60.719  44.622  69.133
H  60.810  52.675  27.707
H  60.084  52.890  29.024
H  62.046  30.374  48.263
H  62.727  31.592  47.663
H  54.343  32.629  42.678
H  27.369  54.167  47.755
H  59.622  37.663  40.615
H  27.730  55.601  48.101
H  60.450  31.080  49.818
H  59.342  30.042  49.818
H  33.273  52.484  61.035
H  34.311  52.268  59.948
H  35.706  51.849  28.979
H  43.221  49.047  34.020
H  42.209  48.277  34.850
H  53.559  33.800  43.244
H  46.215  36.936  53.530
H  64.886  35.609  49.643
H  39.788  57.154  47.694
H  64.116  56.544  49.924
H  55.079  73.125  49.389
H  50.566  39.258  52.359
H  51.437  40.501  52.400
H  55.287  71.651  49.691
H  47.302  64.029  68.793
H  48.675  63.409  68.600
H  60.717  68.302  50.626
H  61.776  67.215  50.592
H  46.574  35.805  51.023
H  52.521  59.682  33.178
H  52.538  61.170  32.875
H  45.929  34.441  51.199
H  60.511  45.979  54.254
H  61.838  46.716  54.206
H  65.558  56.524  50.399
H  67.609  53.505  67.758
H  45.133  72.739  58.177
H  37.067  55.763  68.465
H  30.171  60.081  49.182
H  28.848  59.366  48.976
H  30.915  52.881  56.222
H  32.353  52.845  55.734
H  58.179  32.129  65.193
H  40.564  33.269  33.262
H  39.859  34.588  32.997
H  57.522  33.350  64.574
H  61.877  41.290  52.921
H  61.620  40.871  54.358
H  67.226  55.157  63.111
H  68.744  55.127  63.154
H  38.580  55.786  68.331
H  70.303  56.863  51.346
H  70.844  58.270  51.165
H  44.783  71.430  57.492
H  66.660  52.588  67.007
H  32.147  52.024  47.914
H  52.263  56.423  33.299
H  43.668  58.868  53.811
H  42.354  59.091  53.082
H  55.406  51.184  28.243
H  42.092  55.886  70.841
H  42.583  57.315  70.695
H  56.573  51.727  27.437
H  53.451  39.490  54.826
H  54.708  39.121  55.595
H  38.474  55.123  44.273
H  38.678  56.533  44.799
H  44.549  56.669  32.592
H  51.869  38.439  68.608
H  50.411  38.448  69.034
H  44.977  57.295  31.276
H  59.197  70.361  48.507
H  65.363  42.072  34.868
H  66.672  42.826  35.024
H  65.733  40.963  56.460
H  50.991  70.501  59.893
H  53.541  57.243  33.257
H  33.210  53.044  48.283
H  60.991  52.407  44.791
H  61.493  51.036  44.375
H  42.783  51.299  71.468
H  42.857  52.763  71.069
H  67.158  61.622  36.701
H  68.209  44.868  53.485
H  32.623  47.134  68.213
H  66.232  62.798  36.960
H  25.724  48.022  55.089
H  26.781  48.964  54.539
H  36.705  65.197  38.334
H  36.248  64.774  36.949
H  65.859  39.517  56.908
H  49.722  70.262  59.093
H  31.565  47.916  67.455
H  64.724  36.101  48.216
H  43.499  62.310  29.700
H  66.947  44.801  54.327
H  32.523  33.338  42.429
H  43.027  60.660  61.080
H  70.525  57.828  53.319
H  69.193  57.216  53.714
H  53.890  37.727  63.534
H  54.412  36.778  64.599
H  63.378  39.691  47.741
H  74.502  44.890  45.143
H  74.444  43.846  46.244
H  62.533  40.950  47.659
H  58.404  56.742  62.833
H  57.187  57.218  62.060
H  52.591  73.795  58.793
H  51.904  72.585  59.400
H  54.925  58.340  35.425
H  33.504  32.216  42.136
H  38.467  34.969  64.066
H  43.192  59.202  61.472
H  56.253  36.034  48.488
H  41.019  56.504  48.301
H  57.178  46.852  59.642
H  34.699  50.253  56.989
H  33.607  50.745  56.055
H  57.771  47.689  60.763
H  64.308  39.650  60.279
H  64.664  40.437  61.528
H  53.835  56.662  39.338
H  54.467  55.288  39.473
H  36.401  66.820  59.274
H  45.384  66.493  49.091
H  46.647  67.336  49.039
H  37.761  66.980  58.616
H  43.982  41.974  28.694
H  44.709  43.273  28.992
H  54.991  36.877  48.445
H  39.711  34.173  64.422
H  53.602  58.927  34.964
H  48.123  54.763  70.559
H  53.293  65.654  64.509
H  53.627  65.289  63.073
H  31.216  49.329  53.071
H  57.777  61.486  39.790
H  56.445  60.756  39.795
H  51.964  58.851  73.406
H  50.514  59.304  73.400
H  51.562  53.662  29.223
H  34.535  62.202  64.309
H  34.398  60.998  63.394
H  50.434  52.646  29.182
H  33.454  65.285  48.478
H  33.583  66.690  47.917
H  45.284  34.684  53.938
H  46.418  33.725  53.617
H  32.089  49.108  54.294
H  33.397  40.982  44.573
H  32.950  39.541  44.744
H  41.536  43.942  29.530
H  46.788  54.299  70.004
H  44.087  67.180  45.152
H  44.056  66.584  46.549
H  60.205  65.621  49.230
H  42.678  43.789  69.038
H  41.873  42.838  69.906
H  61.323  65.088  50.109
H  42.031  62.679  29.569
H  72.511  46.458  52.753
H  48.103  36.310  59.253
H  49.247  36.512  58.274
H  32.433  33.567  47.137
H  42.464  60.974  43.058
H  43.219  59.659  43.139
H  32.750  32.137  47.541
H  40.164  43.350  29.804
H  72.043  47.657  53.559
H  62.336  37.710  48.950
H  39.651  47.297  70.770
H  65.772  38.427  35.820
H  38.972  39.204  63.250
H  35.212  57.181  42.161
H  53.165  62.425  35.002
H  54.615  62.852  34.857
H  30.494  37.765  59.556
H  31.525  38.867  59.730
H  49.401  54.617  32.138
H  57.237  32.531  38.669
H  56.848  31.158  39.188
H  49.914  55.065  33.495
H  67.902  64.084  51.568
H  68.702  62.812  51.344
H  50.361  35.565  68.637
H  50.148  34.870  69.970
H  46.607  58.664  31.941
H  39.929  38.492  62.309
H  33.212  36.693  52.047
H  33.801  56.710  41.854
H  51.373  31.830  33.144
H  40.573  48.718  59.863
H  38.353  46.530  65.920
H  31.860  60.742  46.533
H  31.870  59.306  47.027
H  37.562  45.646  64.971
H  67.834  55.012  54.545
H  66.962  55.046  53.302
H  54.857  39.661  63.005
H  55.054  39.687  64.511
H  36.299  56.413  56.574
H  44.776  60.535  62.599
H  45.408  59.154  62.607
H  36.719  57.268  55.391
H  56.520  57.581  26.552
H  56.928  56.148  26.260
H  51.534  33.337  33.241
H  31.806  36.587  51.482
H  47.605  58.845  33.071
H  51.426  45.552  55.950
H  55.402  54.430  69.645
H  56.789  54.010  70.100
H  38.785  56.446  32.324
H  48.009  48.496  73.842
H  46.945  49.579  73.807
H  49.704  52.344  39.672
H  49.906  53.726  40.270
H  55.937  58.328  66.319
H  47.539  35.467  47.003
H  46.406  36.310  46.446
H  55.600  57.202  65.357
H  59.105  56.575  49.784
H  58.377  57.774  50.366
H  56.614  57.622  29.394
H  57.717  58.569  29.833
H  39.108  57.887  31.970
H  59.681  31.235  59.405
H  59.031  31.661  58.100
H  59.838  30.147  42.322
H  51.317  44.042  56.065
H  55.493  36.005  44.807
H  55.636  37.135  43.803
H  55.639  43.481  57.685
H  41.993  66.302  56.233
H  43.027  67.338  56.638
H  56.701  42.516  58.182
H  40.875  50.103  59.318
H  62.096  57.436  47.847
H  40.429  62.867  60.383
H  41.138  64.045  59.735
H  53.976  49.853  33.341
H  28.233  59.173  43.449
H  28.090  58.038  44.447
H  53.559  50.122  31.906
H  59.129  28.806  42.235
H  63.458  56.763  47.837
H  59.382  42.365  49.128
H  62.785  32.986  40.277
H  50.737  39.921  63.600
H  51.496  46.533  29.790
H  55.712  37.183  55.319
H  54.239  36.928  55.051
H  37.601  41.155  63.551
H  63.539  58.151  66.548
H  63.267  56.659  66.464
H  36.975  39.826  63.938
H  29.993  49.151  42.615
H  30.904  50.206  43.219
H  49.444  60.295  37.225
H  50.344  60.571  38.416
H  45.768  35.455  29.688
H  33.754  62.883  38.890
H  33.710  61.766  37.862
H  45.157  34.613  30.794
H  50.287  45.624  29.651
H  39.000  31.963  43.835
H  39.824  47.451  47.931
H  47.551  66.063  63.117
H  38.720  51.212  33.475
H  30.536  52.958  49.204
H  51.734  42.790  62.458
H  52.506  44.096  62.389
H  56.990  40.387  33.733
H  56.118  39.596  32.773
H  39.199  44.951  40.572
H  52.342  64.419  46.646
H  53.769  63.904  46.717
H  39.977  46.247  40.722
H  52.671  68.764  61.332
H  53.543  67.624  61.828
H  63.149  33.806  56.445
H  62.561  34.808  55.467
H  39.201  47.035  49.252
H  46.468  66.095  62.053
H  37.667  32.196  43.145
H  67.893  51.472  49.893
H  69.294  51.276  49.341
H  61.990  43.222  49.874
H  60.844  44.125  49.453
H  49.262  35.915  35.070
H  48.410  35.809  36.322
H  26.170  52.256  52.914
H  33.596  50.388  69.519
H  32.910  49.258  68.771
H  27.466  53.028  53.089
H  33.548  41.980  59.368
H  34.293  40.761  58.852
H  53.197  68.827  34.014
H  52.822  68.420  32.600
H  50.801  41.405  63.913
H  43.132  35.417  62.634
H  42.376  36.563  61.985
H  63.399  48.345  64.967
H  63.413  70.105  48.433
H  64.699  70.805  48.837
H  64.596  49.225  65.281
H  34.456  38.765  36.223
H  58.192  66.798  63.119
H  56.735  66.425  62.916
H  33.973  39.971  35.436
H  38.376  51.845  54.337
H  39.664  52.295  53.670
H  40.909  39.337  59.812
H  63.026  31.525  40.612
H  41.629  38.127  59.243
H  68.777  39.613  57.358
H  67.788  40.513  58.079
H  62.257  43.145  63.059
H  61.726  54.504  41.199
H  63.228  54.720  41.253
H  43.981  70.612  47.229
H  42.776  69.693  47.340
H  61.757  43.331  64.481
H  39.493  52.516  33.382
H  39.693  51.579  38.928
H  60.736  41.757  48.808
H  47.140  48.425  32.113
H  45.625  48.432  32.212
H  32.469  60.232  64.647
H  32.350  58.835  64.064
H  57.751  69.033  62.942
H  33.656  59.717  56.162
H  35.037  59.158  56.456
H  58.009  70.518  62.758
H  63.898  56.985  54.765
H  63.268  58.355  54.949
H  40.700  66.387  61.485
H  40.358  67.836  61.784
H  62.931  53.196  29.356
H  50.092  42.169  29.449
H  49.085  41.163  28.919
H  47.317  58.195  72.962
H  63.508  54.505  28.846
H  38.339  48.902  57.661
H  48.467  59.125  72.614
H  45.331  37.350  66.766
H  44.062  36.517  66.809
H  56.955  42.944  70.684
H  41.948  33.598  56.246
H  41.614  35.052  55.959
H  40.162  37.361  36.990
H  39.290  38.585  36.770
H  61.682  28.526  52.075
H  43.589  59.868  31.966
H  43.151  58.840  32.995
H  62.101  29.584  51.069
H  53.173  55.663  62.129
H  54.560  55.340  61.603
H  45.676  31.169  50.417
H  47.005  31.868  50.190
H  37.556  47.614  57.473
H  60.212  58.308  34.283
H  58.851  58.539  33.649
H  41.022  35.969  43.341
H  54.294  39.315  67.140
H  39.487  45.958  58.425
H  41.003  45.908  58.359
H  57.245  42.333  63.730
H  57.952  41.206  62.997
H  40.121  55.275  38.086
H  48.691  52.450  67.820
H  49.569  51.794  66.768
H  41.101  54.268  38.664
H  60.158  41.940  51.709
H  60.489  43.421  51.753
H  57.882  70.869  44.585
H  56.460  70.764  44.063
H  38.561  53.878  50.619
H  36.683  66.461  49.920
H  42.846  59.460  36.395
H  42.513  59.676  34.929
H  54.009  37.887  66.710
H  42.171  55.789  65.747
H  40.422  37.182  44.031
H  60.250  71.544  50.375
H  39.555  43.413  60.513
H  40.984  43.352  61.023
H  60.348  72.800  49.528
H  30.699  56.107  57.046
H  30.134  54.762  57.468
H  58.185  42.677  71.535
H  58.724  36.675  42.430
H  52.241  39.193  36.362
H  64.536  68.950  50.872
H  65.707  69.883  50.617
H  51.781  38.136  35.372
H  56.662  29.234  46.525
H  58.103  28.804  46.733
H  41.429  56.402  64.571
H  59.624  35.453  42.443
H  40.620  51.791  40.112
H  57.555  31.108  63.121
H  57.854  59.883  35.869
H  40.877  53.336  63.089
H  73.037  45.609  42.433
H  59.579  63.195  50.599
H  59.325  61.756  51.014
H  74.199  46.299  43.126
H  46.435  41.521  37.647
H  47.909  41.876  37.554
H  28.881  58.916  61.051
H  28.865  57.433  60.720
H  51.108  51.941  34.272
H  41.864  47.168  65.344
H  42.440  46.582  66.622
H  51.641  52.974  33.295
H  46.879  63.346  40.867
H  46.332  61.929  40.853
H  39.880  53.582  64.208
H  70.912  61.069  55.310
H  58.564  34.344  44.017
H  58.933  38.787  52.336
H  58.384  51.464  49.762
H  57.658  50.131  49.725
H  63.136  49.331  36.335
H  63.920  49.352  37.635
H  59.308  42.434  64.546
H  49.323  68.378  62.370
H  48.209  69.382  62.129
H  59.464  43.910  64.869
H  39.722  44.153  67.606
H  38.825  44.252  66.385
H  46.174  58.008  51.736
H  47.587  58.560  51.676
H  58.669  37.297  52.202
H  31.704  57.870  35.953
H  30.779  59.074  35.912
H  58.411  33.577  45.318
H  70.913  59.571  55.562
H  50.963  68.071  33.830
H  57.080  50.188  30.883
H  60.192  33.630  38.823
H  60.924  34.756  39.532
H  70.012  54.274  46.240
H  40.763  53.416  59.705
H  40.983  54.115  61.035
H  68.554  54.675  46.383
H  46.899  72.095  44.855
H  45.589  71.665  45.491
H  65.711  53.908  64.209
H  64.237  54.273  64.160
H  42.885  47.645  73.053
H  52.644  34.008  45.678
H  51.172  33.794  45.986
H  42.271  46.397  73.662
H  56.348  60.006  35.713
H  43.926  43.325  66.236
H  43.526  44.665  66.830
H  49.100  38.626  57.487
H  35.815  48.042  65.795
H  55.572  50.291  31.031
H  51.333  68.426  35.259
H  62.998  49.641  47.954
H  61.707  48.956  47.540
H  53.051  54.237  69.700
H  52.205  55.154  68.835
H  48.773  51.613  35.718
H  56.200  31.788  63.037
H  60.402  45.640  51.950
H  49.559  50.325  35.550
H  32.839  66.293  54.859
H  34.310  66.234  54.487
H  45.775  46.699  63.639
H  46.959  45.749  63.616
H  47.674  38.934  57.065
H  35.481  46.562  65.856
H  61.735  45.253  52.565
H  31.235  54.011  48.363
H  47.001  52.136  61.707
H  47.824  50.860  61.731
H  45.804  50.326  36.223
H  45.057  27.159  43.313
H  45.774  28.087  42.348
H  57.082  62.839  33.836
H  44.563  36.373  70.857
H  45.561  37.262  71.579
H  58.140  63.477  32.953
H  41.049  52.464  68.209
H  41.356  53.952  68.201
H  54.399  53.805  63.296
H  54.299  54.844  64.399
H  36.708  48.535  50.957
H  33.159  58.335  34.105
H  32.031  57.493  33.534
H  36.239  49.903  51.419
H  44.873  49.133  36.100
H  64.045  43.356  43.680
H  57.889  66.804  45.313
H  66.566  60.151  41.433
H  41.961  63.622  55.093
H  61.425  53.963  68.984
H  41.504  30.750  35.695
H  40.240  31.537  35.395
H  48.131  55.489  28.589
H  47.640  56.688  27.797
H  52.631  61.248  72.726
H  45.628  49.639  58.783
H  45.383  48.298  59.453
H  54.033  60.669  72.806
H  37.050  58.328  51.183
H  36.194  57.203  51.738
H  62.383  68.698  61.882
H  62.006  67.654  62.919
H  58.685  65.922  46.259
H  65.557  61.263  41.661
H  63.003  42.344  43.237
H  56.073  68.435  42.948
H  56.472  67.063  43.464
H  58.855  35.189  64.493
H  58.530  35.741  65.870
H  51.611  26.417  46.113
H  51.853  27.800  45.534
H  67.860  48.228  40.813
H  33.720  56.203  68.041
H  34.232  56.006  66.624
H  67.962  49.009  39.515
H  56.310  49.930  61.939
H  56.756  48.975  63.032
H  44.073  39.474  40.427
H  45.032  38.304  40.570
H  66.566  52.025  35.162
H  58.760  55.429  36.777
H  58.418  53.957  36.931
H  57.413  51.892  72.190
H  61.248  34.888  35.299
H  59.878  35.544  35.291
H  56.886  51.512  70.818
H  33.349  35.253  37.673
H  39.306  64.418  36.118
H  38.698  65.618  35.412
H  34.732  34.627  37.692
H  31.523  40.868  36.140
H  32.665  41.544  36.878
H  39.918  45.590  61.149
H  40.462  63.426  55.235
H  40.770  46.846  61.113
H  70.063  36.377  46.177
H  70.709  37.047  47.378
H  37.647  50.027  69.610
H  34.754  43.393  60.546
H  34.529  42.384  61.659
H  51.701  69.560  38.328
H  50.263  69.704  37.862
H  36.698  51.176  69.901
H  66.879  53.509  35.101
H  61.836  52.501  68.985
H  46.525  33.840  35.232
H  35.133  48.073  68.827
H  31.925  35.546  40.520
H  33.031  36.469  40.038
H  35.590  49.138  67.844
H  41.655  36.749  67.466
H  40.614  37.808  67.783
H  61.006  31.355  39.692
H  61.120  30.010  38.995
H  67.283  47.678  59.331
H  54.168  63.801  61.192
H  55.167  62.664  61.068
H  65.893  48.290  59.332
H  34.439  47.916  51.301
H  33.123  47.411  50.737
H  33.555  63.238  52.904
H  38.029  67.282  62.205
H  35.020  62.857  52.774
H  37.270  68.575  61.959
H  45.770  55.174  65.185
H  65.337  39.631  36.636
H  33.947  55.591  34.609
H  35.345  56.184  34.592
H  61.620  68.174  41.223
H  54.186  58.770  40.235
H  54.162  58.777  38.717
H  62.284  69.529  41.398
H  41.248  57.879  41.158
H  42.649  58.463  41.213
H  58.228  65.271  40.246
H  58.476  65.940  41.586
H  44.614  30.025  62.419
H  43.964  69.911  53.674
H  44.802  68.645  53.725
H  44.622  28.506  62.392
H  45.374  56.633  65.045
H  63.191  61.129  54.560
H  38.819  60.434  68.671
H  38.520  60.602  70.150
H  64.699  70.635  52.882
H  64.629  33.954  52.240
H  64.287  44.023  59.420
H  65.741  44.352  59.127
H  65.829  34.854  52.002
H  68.570  39.815  42.942
H  68.782  38.877  44.118
H  60.189  52.109  59.960
H  61.021  51.790  58.730
H  73.383  43.812  53.950
H  49.830  29.178  60.410
H  49.383  30.491  59.793
H  74.147  45.098  53.690
H  45.920  70.626  61.004
H  45.102  71.873  61.291
H  63.371  71.326  53.133
H  63.587  52.540  44.360
H  62.561  52.986  43.334
H  57.621  45.303  48.948
H  64.532  61.015  55.264
H  40.755  41.890  44.024
H  39.675  40.865  43.721
H  66.901  36.426  59.225
H  67.706  36.411  57.937
H  48.755  33.776  34.004
H  65.200  60.113  43.908
H  46.309  35.080  36.082
H  65.993  58.933  44.442
H  50.439  74.161  42.317
H  50.029  72.857  41.654
H  65.827  36.855  52.917
H  67.055  37.730  52.736
H  57.561  45.128  47.440
H  51.446  67.749  54.060
H  51.506  69.232  54.383
H  47.810  33.226  32.950
H  45.288  67.702  63.094
H  44.633  67.085  64.318
H  69.055  52.155  56.165
H  58.736  49.873  37.802
H  44.126  39.990  29.709
H  44.854  40.944  30.638
H  57.655  48.952  37.265
H  69.464  47.694  35.741
H  70.950  47.383  35.699
H  33.788  33.684  44.267
H  33.772  32.312  44.918
H  70.645  51.616  37.786
H  43.050  49.870  55.876
H  41.603  50.322  55.794
H  71.698  51.977  36.753
H  51.415  71.289  36.139
H  52.231  70.434  35.185
H  64.532  40.663  32.143
H  47.270  73.480  41.089
H  63.788  41.616  33.062
H  47.699  74.117  42.399
H  53.792  55.411  34.519
H  55.519  58.730  62.126
H  44.450  41.158  60.734
H  43.086  41.676  61.156
H  63.952  56.496  42.782
H  63.493  44.170  48.360
H  64.410  44.682  47.263
H  62.694  56.778  41.981
H  65.922  50.009  66.882
H  66.281  50.269  68.335
H  32.416  66.173  45.620
H  31.869  64.763  45.476
H  54.061  50.185  35.829
H  55.599  33.906  65.617
H  54.481  32.880  65.550
H  53.733  48.702  35.851
H  55.017  55.409  33.622
H  59.262  42.037  35.187
H  57.894  45.408  41.199
H  58.917  44.976  40.163
H  56.695  34.405  47.018
H  55.303  48.105  37.906
H  54.197  65.281  39.014
H  55.674  64.933  38.981
H  55.420  47.051  38.993
H  66.364  61.397  47.699
H  65.344  62.522  47.694
H  37.166  47.618  67.559
H  38.245  48.545  68.092
H  56.526  48.871  33.492
H  43.128  54.653  57.254
H  41.688  54.952  57.631
H  56.352  50.379  33.537
H  28.683  40.961  39.365
H  30.082  40.583  38.912
H  57.635  33.718  47.994
H  67.817  58.154  41.087
H  67.009  56.885  41.292
H  39.767  60.480  66.684
H  59.553  40.553  35.327
H  46.928  38.906  51.633
H  46.352  39.338  52.970
H  31.043  51.372  40.696
H  29.600  51.372  41.169
H  40.975  37.280  54.230
H  69.304  57.610  45.923
H  54.163  58.433  62.742
H  68.055  56.749  45.844
H  43.114  58.067  59.320
H  42.846  56.589  59.099
H  56.828  60.629  28.432
H  56.515  59.649  27.315
H  38.339  59.978  66.567
H  41.366  38.599  56.943
H  41.650  37.112  56.829
H  40.148  38.285  53.446
H  29.981  57.152  52.258
H  43.147  36.930  64.238
H  42.104  36.678  65.313
H  56.662  30.215  53.213
H  58.663  44.820  71.668
H  57.954  44.974  70.334
H  59.351  31.422  44.772
H  59.234  29.971  45.203
H  65.735  45.774  52.725
H  51.723  41.192  35.450
H  51.990  42.310  36.443
H  64.517  46.506  52.188
H  63.868  48.241  29.246
H  64.486  46.854  29.251
H  30.256  36.309  46.770
H  30.615  34.911  47.241
H  61.045  38.456  66.126
H  55.166  69.887  50.996
H  46.428  32.459  55.936
H  45.001  32.534  56.450
H  57.784  29.955  52.224
H  30.583  34.833  49.451
H  67.591  51.883  55.866
H  53.029  43.319  34.391
H  49.846  44.400  53.101
H  48.694  44.619  54.066
H  53.243  44.333  33.281
H  70.948  46.318  45.903
H  72.193  47.134  45.599
H  55.718  71.002  51.867
H  54.074  52.428  68.852
H  45.382  69.220  48.501
H  55.608  57.020  42.337
H  56.800  57.806  42.854
H  45.284  70.597  49.135
H  63.865  43.575  34.073
H  63.115  44.742  33.454
H  29.280  35.416  49.970
H  54.476  51.218  69.678
H  36.781  70.788  55.292
H  59.946  37.439  65.873
H  61.834  66.826  64.950
H  31.438  63.291  42.600
H  37.886  59.436  36.683
H  64.177  65.863  47.738
H  64.347  64.423  48.190
H  73.940  51.148  53.376
H  75.314  51.290  52.746
H  64.226  42.250  65.646
H  42.321  49.158  64.124
H  42.278  50.342  65.074
H  62.935  41.508  65.347
H  44.217  61.688  44.179
H  45.057  62.087  42.978
H  30.212  49.521  45.391
H  31.186  48.368  45.218
H  31.323  56.442  52.248
H  32.455  63.622  41.521
H  38.823  58.746  37.660
H  44.294  65.275  38.662
H  43.474  65.730  39.857
H  57.910  39.163  30.961
H  57.940  37.657  30.772
H  59.101  38.658  60.911
H  45.363  70.057  64.429
H  46.153  68.843  64.887
H  59.335  40.158  60.858
H  26.970  50.402  56.331
H  60.392  66.413  65.187
H  26.187  51.116  57.419
H  48.702  62.972  53.172
H  44.147  63.918  33.924
H  60.345  55.968  63.662
H  60.410  57.221  64.518
H  45.381  64.705  33.518
H  34.853  50.769  37.193
H  35.833  49.762  36.618
H  49.369  62.199  54.297
H  60.765  67.971  58.619
H  67.052  50.076  60.971
H  68.453  49.546  61.219
H  29.944  57.269  39.596
H  44.354  39.745  62.662
H  44.922  40.994  63.314
H  38.165  43.073  34.042
H  46.453  25.775  48.884
H  47.960  25.769  48.696
H  38.802  43.001  35.419
H  60.656  53.235  37.363
H  60.821  54.715  37.066
H  44.393  42.422  52.759
H  45.093  41.091  52.542
H  55.408  36.203  36.979
H  35.164  61.129  40.312
H  35.706  59.887  39.627
H  56.718  35.528  36.613
H  28.768  56.385  39.220
H  47.623  42.632  28.144
H  49.487  24.935  45.339
H  66.771  47.284  30.983
H  36.619  30.336  41.158
H  50.216  48.922  29.288
H  53.784  57.301  30.730
H  54.969  58.140  31.175
H  48.834  27.649  55.834
H  48.265  27.439  57.226
H  39.617  64.856  66.925
H  36.817  50.027  46.296
H  36.092  48.731  45.976
H  39.060  64.718  65.519
H  58.488  32.969  50.527
H  57.838  31.597  50.547
H  62.377  71.972  46.231
H  63.619  71.124  46.015
H  49.131  25.729  44.094
H  65.844  47.071  32.167
H  46.594  43.021  27.097
H  59.412  72.849  47.529
H  59.695  73.259  46.095
H  69.035  35.320  48.459
H  70.362  34.799  47.936
H  64.373  49.833  63.093
H  63.017  50.348  62.641
H  62.838  45.273  63.022
H  56.499  57.010  45.751
H  56.689  58.358  45.078
H  62.436  46.722  63.237
H  68.233  45.827  39.259
H  69.583  46.380  38.839
H  63.238  59.540  48.141
H  62.806  60.990  48.012
H  49.056  68.766  54.832
H  72.881  45.866  59.469
H  71.988  47.039  59.833
H  48.436  34.469  66.227
H  40.393  64.277  57.678
H  40.251  65.593  58.422
H  49.849  34.944  65.936
H  37.101  40.199  39.888
H  43.934  31.830  47.973
H  43.457  31.675  46.539
H  37.096  41.641  39.411
H  43.839  73.517  43.417
H  44.606  72.207  43.376
H  40.104  63.362  51.214
H  36.390  30.475  42.653
H  40.153  64.863  51.439
H  44.113  61.246  69.232
H  43.059  62.087  68.534
H  31.436  59.546  52.243
H  56.298  59.662  63.977
H  57.132  60.824  63.467
H  67.137  37.664  40.449
H  67.303  38.526  41.688
H  31.934  58.541  51.219
H  48.979  69.630  53.585
H  51.713  48.731  29.111
H  34.821  68.098  46.634
H  36.161  43.646  32.062
H  64.450  52.055  64.908
H  65.170  51.865  63.584
H  34.927  44.242  32.716
H  35.010  52.006  39.240
H  33.671  52.162  38.540
H  53.047  48.061  73.775
H  54.512  48.138  73.382
H  34.887  35.339  55.909
H  45.098  63.444  65.844
H  45.872  64.579  65.199
H  35.887  35.418  57.050
H  68.905  39.102  60.273
H  69.789  40.282  59.912
H  49.510  38.252  43.468
H  46.641  70.443  51.535
H  50.517  39.263  43.990
H  47.395  71.514  50.766
H  41.494  46.236  70.133
H  56.817  49.320  70.545
H  66.789  53.162  47.805
H  65.667  52.139  47.803
H  36.888  37.564  43.923
H  42.493  45.154  52.079
H  43.278  45.166  53.379
H  38.310  38.072  43.762
H  58.785  46.524  33.090
H  57.444  45.834  32.914
H  35.164  36.454  49.707
H  36.622  36.055  49.562
H  29.369  54.873  45.960
H  49.979  45.720  71.305
H  48.855  46.738  71.392
H  29.783  55.391  47.326
H  40.628  45.073  69.682
H  57.790  51.239  66.533
H  62.978  46.250  50.630
H  62.074  47.470  50.655
H  52.243  36.589  66.910
H  32.949  35.446  42.975
H  39.838  53.321  47.778
H  39.684  54.830  47.721
H  32.666  36.605  43.915
H  40.986  57.190  35.625
H  40.071  58.310  35.161
H  35.236  63.862  54.828
H  33.776  63.747  55.228
H  59.294  67.949  42.738
H  62.356  30.591  45.739
H  60.962  30.752  46.319
H  58.233  69.032  42.822
H  68.820  40.220  39.247
H  69.651  38.965  39.042
H  51.041  37.473  66.628
H  51.004  30.385  37.681
H  49.921  29.352  37.425
H  35.799  61.028  37.629
H  57.456  52.686  66.213
H  41.138  70.081  40.720
H  42.268  70.008  39.707
H  44.355  36.147  52.148
H  43.884  37.055  53.271
H  60.848  59.691  51.268
H  56.359  37.796  64.316
H  35.011  68.554  48.070
H  57.110  36.777  63.477
H  30.327  60.831  40.544
H  30.918  59.483  40.918
H  48.235  38.085  65.605
H  48.410  36.576  65.585
H  35.689  62.488  37.228
H  30.063  41.063  44.845
H  29.523  41.329  43.451
H  61.686  59.740  50.003
H  57.715  48.147  70.191
H  60.498  51.533  62.655
H  39.582  63.003  46.282
H  66.627  43.007  63.718
H  50.842  58.276  28.045
H  52.500  51.036  70.831
H  52.790  52.430  71.359
H  49.778  57.303  28.524
H  36.274  50.543  59.955
H  36.255  50.767  58.453
H  57.587  40.105  55.167
H  57.389  39.215  56.381
H  48.484  33.662  64.154
H  53.198  73.467  51.347
H  53.798  72.115  51.689
H  47.384  33.803  63.116
H  47.446  27.292  60.426
H  48.394  27.856  59.382
H  67.856  43.793  63.295
H  51.389  62.362  47.664
H  33.152  43.062  48.506
H  32.134  41.479  47.354
H  58.364  53.497  27.793
H  58.768  52.816  26.497
H  65.303  48.716  44.473
H  64.485  47.438  44.418
H  43.901  29.473  54.845
H  42.364  33.806  60.883
H  43.318  34.049  59.726
H  43.569  28.435  55.903
H  61.249  69.466  44.063
H  59.757  69.619  44.300
H  39.798  62.664  67.002
H  38.366  62.161  66.962
H  32.525  40.106  46.835
H  45.433  66.166  43.197
H  46.521  65.260  43.747
H  33.203  44.312  47.645
H  51.920  61.166  48.435
H  44.393  35.410  37.174
H  45.326  68.676  51.585
H  69.101  38.610  62.423
H  69.841  39.898  62.109
H  60.314  44.897  56.847
H  40.237  51.090  27.496
H  39.594  49.759  27.847
H  61.388  44.861  57.921
H  65.139  45.050  32.661
H  65.936  43.846  32.189
H  62.203  70.975  51.214
H  61.913  70.054  50.042
H  63.936  63.926  35.662
H  53.070  33.149  59.327
H  53.120  32.409  60.652
H  62.485  64.233  35.989
H  55.337  37.406  61.480
H  64.242  33.187  49.374
H  65.354  32.221  49.004
H  39.561  60.749  54.164
H  59.448  39.875  67.272
H  43.848  68.834  51.276
H  42.982  35.787  36.757
H  69.130  47.943  53.395
H  67.826  48.088  52.629
H  57.786  58.798  56.397
H  57.186  60.193  56.435
H  56.560  51.305  46.945
H  68.680  63.952  49.442
H  35.949  47.568  52.895
H  56.259  52.788  47.078
H  40.858  40.112  66.870
H  39.785  41.151  67.145
H  53.503  33.495  48.715
H  53.963  34.909  48.408
H  38.940  61.653  55.215
H  58.065  39.971  67.893
H  36.660  46.297  53.324
H  60.839  50.055  62.735
H  42.086  59.417  68.511
H  67.186  63.691  49.525
H  71.072  41.760  57.157
H  41.925  43.136  40.900
H  55.208  46.460  60.566
H  55.489  47.952  60.524
H  69.172  41.113  51.933
H  70.276  41.531  52.889
H  58.015  52.011  68.954
H  62.206  28.179  46.037
H  63.594  28.795  46.025
H  58.108  53.435  68.435
H  64.831  66.942  53.947
H  65.218  65.530  53.545
H  47.718  54.337  30.713
H  46.212  54.469  30.859
H  59.334  70.936  38.966
H  72.037  42.783  56.584
H  56.182  37.857  29.332
H  40.903  42.714  39.859
H  37.282  37.702  60.702
H  40.909  63.740  46.308
H  49.271  71.615  38.324
H  61.022  42.638  44.163
H  59.533  42.341  44.168
H  50.550  71.980  39.057
H  50.727  57.901  60.223
H  52.123  57.304  60.184
H  46.762  48.187  65.235
H  47.630  48.040  63.997
H  62.468  63.374  47.238
H  52.069  64.691  49.134
H  50.698  64.084  48.895
H  62.628  63.410  45.729
H  36.910  66.199  47.747
H  36.873  65.390  46.461
H  38.737  37.275  60.787
H  55.446  38.760  30.306
H  57.978  71.610  39.088
H  56.223  55.279  71.806
H  53.249  30.562  44.672
H  54.748  30.401  44.857
H  72.725  47.416  48.955
H  54.623  29.950  52.400
H  53.938  31.305  52.408
H  51.516  60.426  40.980
H  52.870  61.108  41.075
H  42.529  52.822  58.341
H  64.733  32.745  41.275
H  65.027  31.271  41.494
H  41.363  51.896  58.044
H  37.850  30.471  46.397
H  39.351  30.621  46.221
H  68.430  52.512  53.027
H  68.564  53.266  51.716
H  71.222  47.472  48.748
H  54.713  60.750  69.878
H  54.768  62.267  69.813
H  57.765  56.200  58.002
H  55.907  54.325  72.944
H  45.198  69.579  44.018
H  44.047  70.334  44.659
H  43.082  52.938  31.932
H  38.007  58.806  64.285
H  39.358  59.355  63.859
H  43.954  54.153  31.669
H  41.379  60.715  68.163
H  59.262  60.040  62.317
H  63.730  44.151  41.649
H  62.244  44.465  41.620
H  47.959  46.517  24.964
H  66.304  52.524  52.022
H  66.410  53.924  51.442
H  46.688  45.725  25.218
H  57.368  55.681  59.373
H  59.065  58.818  63.196
H  29.003  52.671  45.513
H  58.565  54.555  65.841
H  58.249  55.432  64.642
H  38.313  41.412  70.887
H  58.467  49.650  43.990
H  57.071  49.595  44.587
H  39.551  40.629  71.289
H  43.930  33.820  67.373
H  43.736  33.236  65.984
H  42.152  29.093  38.609
H  42.935  29.857  37.556
H  31.223  52.776  45.155
H  70.972  45.153  44.035
H  72.031  44.115  44.362
H  32.667  53.242  45.094
H  64.462  49.559  32.865
H  64.596  51.066  32.733
H  55.875  65.261  58.146
H  55.308  38.913  53.096
H  54.519  65.880  58.438
H  56.650  38.619  53.742
H  49.550  61.586  49.835
H  70.542  59.744  46.530
H  59.009  51.696  41.234
H  59.377  51.053  42.559
H  40.081  52.845  66.271
H  69.318  57.732  48.493
H  70.358  58.830  48.624
H  40.795  51.506  66.211
H  65.756  36.103  45.103
H  65.783  35.207  46.329
H  67.549  59.910  56.138
H  68.367  61.173  55.933
H  28.988  38.432  47.734
H  51.173  61.833  29.710
H  51.372  63.262  29.238
H  28.268  38.387  49.071
H  49.316  62.133  51.232
H  68.324  41.582  37.591
H  39.449  50.087  56.177
H  39.811  49.009  55.171
H  48.605  40.337  26.769
H  52.142  63.855  32.619
H  39.034  45.758  42.674
H  40.150  46.653  43.182
H  53.618  63.523  32.486
H  28.168  45.687  48.473
H  29.159  46.836  48.534
H  47.064  49.045  28.260
H  46.455  48.162  29.334
H  56.538  65.577  52.508
H  66.229  66.947  43.703
H  66.308  68.304  43.027
H  57.480  66.721  52.839
H  64.178  56.941  33.804
H  64.474  56.720  32.331
H  39.578  53.464  51.667
H  46.119  47.396  67.507
H  47.196  46.987  68.497
H  65.070  49.368  30.725
H  68.365  41.405  36.084
H  31.266  62.924  49.220
H  31.716  63.575  50.516
H  43.122  35.943  42.687
H  43.970  37.176  42.946
H  67.580  46.096  41.346
H  44.307  55.415  71.306
H  71.381  60.808  45.844
H  43.327  54.635  72.165
H  39.073  37.342  48.661
H  38.800  36.573  47.380
H  46.887  44.274  68.699
H  48.245  43.807  68.206
H  66.277  49.322  31.645
H  53.811  70.874  39.859
H  54.032  69.898  38.717
H  66.392  45.754  40.463
H  57.617  41.522  48.083
H  39.347  61.317  42.019
H  36.300  43.867  47.903
H  52.620  67.334  65.809
H  61.190  59.054  61.309
H  61.834  58.290  62.452
H  71.838  54.878  61.833
H  72.402  53.480  61.648
H  40.747  27.157  53.204
H  55.869  59.590  50.604
H  54.848  58.890  49.724
H  40.430  28.629  53.006
H  58.788  31.182  47.384
H  57.275  31.219  47.252
H  45.951  53.244  71.744
H  46.192  53.501  73.221
H  57.311  54.495  33.339
H  62.949  60.175  37.603
H  41.655  45.252  41.738
H  63.651  61.023  36.556
H  42.173  45.797  43.058
H  48.072  39.767  60.715
H  49.404  59.618  31.736
H  48.727  32.795  42.757
H  49.643  33.174  41.606
H  50.338  59.931  32.892
H  60.933  63.213  31.901
H  62.022  62.155  31.900
H  62.131  54.343  38.817
H  62.163  55.767  39.346
H  59.193  68.959  53.877
H  48.883  64.510  60.757
H  48.146  63.385  61.461
H  60.099  68.860  52.662
H  61.488  47.474  60.637
H  60.837  47.913  61.937
H  47.291  40.799  61.509
H  52.292  68.757  66.225
H  57.814  54.215  34.744
H  29.304  61.060  51.683
H  30.483  61.775  51.046
H  59.474  40.431  54.084
H  31.577  45.210  49.354
H  59.627  33.341  40.930
H  58.199  33.810  41.147
H  59.666  43.385  58.768
H  60.609  42.566  59.633
H  54.795  43.333  46.357
H  54.446  71.405  36.878
H  55.406  70.613  36.007
H  55.231  43.280  44.903
H  51.920  58.425  31.196
H  51.256  59.458  30.303
H  37.693  44.140  45.109
H  39.010  44.774  44.698
H  39.801  62.495  42.864
H  58.611  41.472  53.393
H  31.061  46.594  49.707
H  42.299  25.963  46.561
H  43.396  26.943  46.935
H  42.617  66.166  51.442
H  43.554  66.550  50.311
H  35.934  51.847  42.251
H  69.045  61.433  45.582
H  67.884  62.129  46.270
H  36.312  50.403  41.971
H  58.113  47.678  52.369
H  37.437  44.443  48.730
H  58.332  46.225  52.753
H  27.374  60.525  50.121
H  50.417  38.156  37.108
H  34.149  37.124  54.728
H  32.721  37.641  54.754
H  48.950  37.934  36.786
H  27.863  59.238  54.777
H  29.230  58.589  54.655
H  27.516  62.037  50.127
H  56.799  42.670  47.518
H  59.687  60.926  64.373
H  68.274  59.215  47.021
H  29.703  55.643  61.705
H  63.540  41.242  50.511
H  64.674  40.945  49.545
H  58.926  47.748  63.035
H  58.296  46.424  62.638
H  52.725  28.727  39.971
H  29.279  38.793  41.770
H  30.542  39.341  41.128
H  54.184  29.120  40.122
H  60.187  38.662  55.236
H  61.158  38.678  54.069
H  32.826  48.236  31.444
H  33.174  49.710  31.335
H  65.479  48.307  53.089
H  26.686  39.924  52.274
H  34.174  46.032  56.309
H  26.191  41.335  52.538
H  35.543  45.750  55.717
H  54.825  29.624  64.396
H  57.484  70.929  41.568
H  47.976  62.358  39.054
H  47.678  61.425  37.893
H  57.267  72.429  41.461
H  32.709  42.791  39.628
H  32.422  41.874  40.804
H  31.288  54.826  40.082
H  32.522  55.645  40.415
H  49.289  66.916  56.367
H  64.570  41.134  46.538
H  64.555  40.940  45.032
H  47.801  66.623  56.283
H  61.140  36.795  43.827
H  62.536  37.225  44.245
H  55.039  28.757  63.168
H  29.604  54.551  62.756
H  65.928  47.694  54.404
H  59.534  54.512  40.855
H  58.366  53.678  40.358
H  48.069  44.079  56.108
H  53.885  26.182  47.398
H  58.592  64.780  61.298
H  57.122  64.402  61.226
H  37.766  53.045  42.010
H  36.667  53.604  41.123
H  30.640  41.093  53.966
H  34.565  31.538  53.480
H  34.103  30.737  54.685
H  30.053  39.716  53.710
H  35.218  50.497  43.879
H  34.437  51.798  43.931
H  60.068  45.248  63.227
H  59.697  43.880  62.682
H  27.861  52.434  46.486
H  49.215  43.174  56.526
H  55.222  26.313  48.107
H  56.340  31.419  58.239
H  57.099  32.732  58.167
H  45.240  53.609  38.789
H  44.003  54.489  38.822
H  64.220  35.758  56.684
H  41.090  45.436  49.448
H  40.876  46.444  50.564
H  65.447  35.994  57.549
H  37.181  50.056  61.907
H  50.124  51.112  31.564
H  38.281  50.290  62.927
H  60.377  60.117  46.899
H  27.548  41.601  54.999
H  46.639  61.885  56.553
H  46.686  62.547  55.187
H  27.896  43.029  54.617
H  51.565  37.073  70.307
H  52.245  36.602  71.580
H  61.245  58.943  46.481
H  51.423  50.944  32.332
H  42.149  64.799  34.195
H  41.624  63.384  34.028
H  56.020  69.242  34.392
H  56.162  68.064  33.444
H  56.784  34.559  33.028
H  42.266  59.324  50.895
H  41.445  60.408  51.571
H  56.706  35.195  34.405
H  30.662  66.354  52.596
H  32.026  65.692  52.524
H  75.183  52.481  50.451
H  73.893  51.691  50.323
H  65.967  63.558  39.256
H  54.320  40.887  52.031
H  53.167  41.852  52.240
H  65.108  62.465  39.868
H  66.962  49.711  54.604
H  52.055  53.050  62.714
H  52.100  53.398  61.236
H  33.839  52.815  57.404
H  35.893  47.343  39.539
H  66.899  58.639  46.734
H  59.389  62.409  64.245
H  57.606  73.852  52.777
H  56.450  72.876  52.913
H  60.340  32.938  46.159
H  59.808  33.645  47.393
H  31.189  51.445  58.333
H  65.507  49.803  55.030
H  48.939  73.389  49.038
H  30.826  49.970  58.340
H  43.166  28.522  48.456
H  44.117  29.705  48.513
H  47.237  50.463  33.663
H  46.293  51.638  33.477
H  32.980  53.985  57.850
H  34.622  46.512  39.580
H  50.063  74.380  48.794
H  56.225  36.198  61.238
H  43.695  64.322  46.778
H  41.864  39.177  41.916
H  67.333  60.029  49.167
H  34.146  58.440  38.666
H  32.962  59.391  38.688
H  48.128  35.053  53.086
H  38.771  37.606  32.260
H  38.194  37.946  30.897
H  48.605  34.125  54.189
H  45.949  31.696  33.812
H  45.377  32.476  32.641
H  46.963  26.340  51.712
H  47.953  27.488  51.620
H  43.832  38.123  61.155
H  36.310  31.848  50.197
H  34.908  32.365  49.927
H  42.901  39.320  61.066
H  67.635  58.608  49.608
H  46.014  28.039  53.975
H  48.275  46.154  30.372
H  49.301  47.130  30.920
H  58.830  57.380  43.859
H  58.533  56.498  45.060
H  42.084  38.414  43.211
H  53.449  28.354  51.432
H  52.550  28.994  50.389
H  53.540  29.017  46.254
H  54.332  27.789  45.841
H  42.996  63.043  46.352
H  58.938  71.829  53.033
H  47.807  32.730  52.206
H  60.269  71.138  52.793
H  30.883  35.032  54.359
H  29.573  35.698  53.976
H  72.009  53.265  56.612
H  71.082  52.881  55.472
H  47.396  27.444  54.180
H  47.453  31.298  52.571
H  60.548  52.620  39.898
H  37.827  50.843  50.115
H  51.056  48.851  69.091
H  44.478  53.638  61.774
H  45.919  54.018  62.066
H  44.825  61.509  54.415
H  52.959  34.987  40.333
H  53.782  35.848  39.392
H  59.456  35.150  32.624
H  58.416  36.229  32.377
H  33.108  36.939  61.041
H  52.428  28.251  60.706
H  53.213  28.384  61.999
H  31.644  36.550  61.139
H  51.632  44.528  59.879
H  52.027  43.124  60.302
H  49.901  29.983  57.029
H  51.040  28.988  56.892
H  44.714  62.907  53.833
H  38.295  34.490  46.809
H  62.587  47.788  67.589
H  44.827  63.777  44.955
H  29.712  45.545  44.888
H  28.735  45.339  43.744
H  48.108  39.716  45.845
H  30.351  42.872  56.414
H  30.159  41.376  56.595
H  47.748  39.574  44.376
H  45.924  36.266  56.661
H  46.690  35.269  55.811
H  33.224  45.603  43.548
H  33.705  44.657  42.462
H  52.622  66.937  42.411
H  49.546  46.100  26.562
H  50.594  47.175  26.788
H  53.827  67.836  42.628
H  43.438  63.853  44.346
H  61.894  46.793  68.503
H  35.113  67.534  52.846
H  34.435  68.889  52.747
H  37.319  34.710  47.952
H  44.403  65.697  35.228
H  32.486  61.401  62.268
H  33.003  59.995  62.020
H  44.824  64.628  36.221
H  34.106  56.572  50.835
H  33.744  55.956  52.175
H  48.440  65.943  41.825
H  46.979  65.590  41.610
H  72.726  45.294  47.520
H  45.764  44.611  34.988
H  46.956  43.681  35.139
H  72.301  44.099  46.685
H  40.844  56.488  45.285
H  40.255  55.127  45.612
H  60.178  37.356  30.388
H  52.126  50.917  68.197
H  53.373  50.201  67.710
H  54.067  32.476  63.134
H  52.572  32.613  62.905
H  53.843  27.896  59.056
H  54.752  26.684  59.167
H  42.910  33.391  50.988
H  41.925  34.542  50.875
H  69.534  65.954  49.968
H  50.845  67.272  46.687
H  49.349  67.081  46.865
H  38.468  41.092  29.075
H  70.633  64.968  50.323
H  42.422  30.159  62.547
H  42.823  52.150  55.064
H  41.427  52.736  54.951
H  53.442  36.572  45.368
H  42.833  42.591  73.219
H  44.335  42.371  73.282
H  52.465  37.103  44.333
H  40.982  29.678  62.486
H  61.188  38.473  30.193
H  37.912  40.386  30.299
H  40.307  32.504  60.818
H  45.885  52.103  69.834
H  44.737  51.111  69.769
H  42.565  52.182  63.903
H  44.081  52.174  63.982
H  57.650  51.852  39.360
H  60.266  44.794  28.602
H  60.894  44.997  29.970
H  56.586  52.385  40.304
H  56.842  27.845  52.607
H  57.144  26.362  52.744
H  56.173  58.847  47.954
H  57.413  59.458  48.583
H  70.353  45.330  48.734
H  58.903  61.578  33.763
H  59.730  60.779  34.756
H  62.490  68.054  57.187
H  69.686  43.969  48.647
H  41.234  67.546  65.273
H  63.954  68.381  57.429
H  52.799  46.427  34.987
H  52.241  47.010  36.273
H  70.041  46.012  59.620
H  43.428  47.705  69.764
H  42.166  47.973  68.962
H  51.976  25.903  49.710
H  53.398  26.408  49.534
H  56.968  30.828  44.792
H  47.885  37.900  38.749
H  48.749  36.652  38.696
H  57.252  29.386  44.411
H  32.599  36.285  56.842
H  32.686  35.572  55.504
H  47.582  64.958  33.517
H  47.180  65.445  34.899
H  42.685  67.120  65.412
H  34.544  45.174  46.148
H  33.354  44.532  45.458
H  39.888  40.189  40.056
H  69.698  49.594  59.036
H  68.807  55.211  50.374
H  69.740  55.728  49.293
H  38.379  58.009  39.779
H  39.567  58.954  39.720
H  58.725  51.311  63.950
H  41.472  49.401  61.776
H  42.484  50.158  60.934
H  58.722  49.929  63.321
H  54.337  67.179  50.603
H  55.772  67.642  50.789
H  68.032  59.246  61.698
H  67.476  58.158  60.796
H  49.855  35.902  49.708
H  41.490  31.553  60.769
H  45.409  47.245  70.664
H  46.615  46.404  71.042
H  70.433  49.217  60.311
H  54.174  32.509  45.115
H  39.794  38.681  40.214
H  51.447  28.547  53.457
H  32.424  45.795  65.304
H  33.174  47.114  65.376
H  52.120  29.829  52.998
H  39.515  49.646  66.672
H  40.172  48.390  66.126
H  48.337  35.847  49.708
H  68.925  41.834  62.986
H  62.561  48.359  42.984
H  38.385  50.238  59.433
H  39.190  50.268  60.721
H  61.355  48.935  43.706
H  59.729  33.687  66.007
H  60.584  34.940  66.086
H  55.168  33.494  45.706
H  69.390  42.841  61.949
H  69.562  47.410  59.271
H  56.609  36.398  41.017
H  31.647  48.643  61.604
H  53.289  45.339  30.165
H  42.739  61.990  35.318
H  42.153  62.824  36.444
H  71.200  40.886  42.273
H  72.436  40.238  42.871
H  65.218  56.645  65.027
H  59.967  46.547  27.307
H  58.501  46.692  27.679
H  66.578  56.851  64.383
H  68.073  42.781  47.660
H  67.390  41.490  48.076
H  50.321  71.346  53.260
H  50.989  71.357  54.624
H  30.559  47.737  41.033
H  70.235  55.874  40.098
H  34.285  40.857  41.380
H  71.404  54.926  39.890
H  33.135  39.864  41.373
H  52.701  39.613  50.805
H  61.016  41.055  37.646
H  48.501  44.505  74.462
H  47.727  45.714  73.967
H  61.782  42.314  38.013
H  33.865  48.784  44.156
H  32.913  49.301  43.093
H  28.594  54.763  40.716
H  28.880  53.306  40.396
H  51.615  32.007  36.294
H  49.142  32.102  57.442
H  48.442  33.449  57.467
H  52.015  33.303  35.611
H  49.413  50.807  28.483
H  49.299  51.893  27.428
H  53.882  39.314  49.897
H  54.018  45.567  31.477
H  31.778  48.642  41.004
H  64.350  61.977  63.407
H  65.197  60.718  63.332
H  70.415  63.802  56.550
H  46.318  63.158  37.748
H  40.503  59.969  36.910
H  41.540  60.949  37.429
H  64.023  42.237  57.595
H  63.362  41.057  58.285
H  52.363  64.257  66.833
H  27.416  55.602  56.262
H  26.422  55.829  57.388
H  52.584  63.775  65.410
H  71.235  49.219  38.260
H  69.864  48.605  38.480
H  33.879  43.869  56.730
H  32.521  43.210  56.561
H  60.356  69.433  58.574
H  69.770  62.493  56.972
H  46.301  64.672  37.869
H  58.268  55.496  73.455
H  56.910  56.124  73.718
H  32.751  39.658  52.971
H  33.354  39.172  51.664
H  53.713  70.659  60.302
H  35.686  51.151  32.422
H  34.382  51.922  32.315
H  54.007  69.310  59.669
H  33.315  63.912  59.682
H  48.132  52.087  72.970
H  32.440  65.143  59.836
H  52.597  35.033  37.427
H  67.347  67.250  51.137
H  31.071  46.633  52.114
H  32.042  45.468  52.192
H  66.697  65.885  50.989
H  42.623  43.539  64.180
H  43.376  42.620  63.234
H  54.007  34.508  37.220
H  32.010  49.433  60.359
H  48.179  52.018  74.486
H  39.776  35.042  54.359
H  56.861  56.422  69.925
H  55.411  56.875  69.914
H  64.831  60.615  38.686
H  43.051  42.354  36.892
H  43.623  42.174  35.497
H  64.266  59.641  39.705
H  68.015  33.627  57.581
H  66.807  33.923  56.709
H  57.806  64.154  49.660
H  57.870  65.322  50.628
H  52.123  41.715  54.271
H  63.865  33.527  62.015
H  62.898  33.145  60.908
H  52.136  41.924  55.776
H  52.139  45.761  25.571
H  48.503  59.598  28.687
H  51.646  44.330  25.454
H  49.864  60.268  28.757
H  42.770  55.084  61.887
H  55.110  36.635  40.960
H  53.648  37.954  37.773
H  52.397  37.220  37.323
H  69.687  50.130  53.428
H  70.952  50.594  52.727
H  40.354  55.809  72.879
H  48.563  40.122  53.473
H  47.607  40.010  54.649
H  39.441  56.808  72.190
H  42.159  38.330  36.485
H  42.709  39.730  36.698
H  73.727  48.506  51.388
H  72.363  48.662  50.739
H  49.397  61.493  44.672
H  42.918  54.508  63.284
H  48.914  60.656  45.844
H  54.061  66.752  34.672
H  52.761  66.056  34.312
H  62.298  55.665  44.194
H  39.167  68.239  54.060
H  48.573  31.725  45.265
H  49.753  32.483  44.680
H  46.024  33.047  46.965
H  69.432  39.219  50.845
H  67.939  38.975  50.969
H  46.331  32.391  45.630
H  60.808  45.861  65.210
H  60.563  47.088  64.350
H  57.301  55.527  42.726
H  56.436  54.808  43.746
H  36.948  54.569  47.597
H  32.519  38.755  62.144
H  31.443  38.520  63.190
H  37.229  53.182  48.148
H  39.277  66.734  54.238
H  52.506  28.041  48.302
H  29.938  50.786  37.145
H  29.762  51.136  35.677
H  42.788  60.918  45.817
H  42.243  59.584  45.338
H  61.519  56.791  44.852
H  50.097  52.758  71.241
H  50.222  54.040  72.045
H  56.387  37.741  67.605
H  56.467  38.989  66.743
H  40.839  34.626  53.358
H  56.060  53.659  29.173
H  50.569  74.972  55.129
H  54.610  53.213  29.235
H  64.224  47.965  47.128
H  63.389  46.747  46.769
H  62.007  37.281  35.839
H  63.011  36.184  35.527
H  52.308  29.518  48.009
H  50.220  74.016  54.002
H  58.167  56.949  47.181
H  59.554  57.565  47.245
H  60.294  61.269  45.040
H  41.556  48.650  57.242
H  40.544  47.638  56.733
H  59.532  68.251  56.032
H  62.867  51.566  70.766
H  62.228  51.275  72.112
H  38.063  64.169  51.352
H  36.671  64.777  51.342
H  62.609  34.732  49.370
H  60.436  63.172  46.216
H  59.682  64.134  45.315
H  61.705  33.649  48.809
H  67.233  43.373  61.002
H  65.878  43.035  61.600
H  54.117  69.936  52.948
H  53.228  70.784  53.840
H  58.030  68.060  55.917
H  48.512  29.992  50.089
H  42.143  51.699  35.826
H  67.944  64.054  55.867
H  50.156  74.497  51.856
H  51.330  74.775  50.934
H  28.842  54.513  42.989
H  44.365  69.417  38.484
H  44.889  67.995  38.585
H  30.015  54.302  43.930
H  43.370  46.675  61.965
H  44.581  47.224  61.231
H  59.735  41.005  57.983
H  60.831  40.814  56.950
H  34.228  45.747  53.045
H  48.464  29.352  47.982
H  48.944  27.929  47.761
H  35.192  44.753  52.422
H  67.373  65.009  54.834
H  41.372  52.522  36.843
H  40.484  38.748  34.196
H  41.551  39.826  34.115
H  47.372  28.989  50.055
H  40.037  28.650  45.410
H  69.350  48.968  42.254
H  68.218  49.979  42.216
H  41.450  28.934  44.930
H  46.205  37.005  37.220
H  46.708  35.962  38.203
H  48.266  49.593  30.619
H  46.791  49.952  30.570
H  68.373  35.089  44.112
H  45.915  57.893  43.138
H  45.486  59.333  42.921
H  69.881  35.174  44.273
H  57.018  74.299  48.569
H  56.202  73.825  47.379
H  52.321  48.397  31.342
H  68.659  59.376  44.414
H  68.360  59.544  42.935
H  33.805  46.708  60.595
H  34.920  46.780  59.567
H  59.068  48.291  29.896
H  60.521  47.908  29.676
H  33.208  36.579  46.045
H  33.981  37.694  45.363
H  45.496  27.005  46.222
H  54.307  48.975  64.348
H  55.603  48.321  64.794
H  52.579  44.301  67.310
H  44.823  28.326  45.890
H  52.986  72.114  46.381
H  71.283  56.681  57.949
H  71.325  55.752  59.149
H  64.357  30.685  53.256
H  47.880  35.084  61.244
H  49.285  34.810  60.736
H  62.876  30.386  53.401
H  53.802  71.787  47.618
H  51.213  48.753  32.317
H  53.649  43.533  68.066
H  59.540  46.424  45.757
H  56.093  45.867  30.120
H  56.589  44.853  31.135
H  51.236  36.121  59.154
H  52.045  37.071  60.019
H  30.771  38.992  46.123
H  58.805  46.923  38.908
H  57.459  46.245  39.096
H  30.254  37.926  45.173
H  35.999  49.594  39.949
H  37.248  50.457  39.898
H  50.625  33.077  50.453
H  49.448  32.121  50.542
H  72.081  54.025  45.514
H  54.299  34.414  58.010
H  55.520  34.746  57.170
H  39.723  41.156  37.421
H  72.313  54.267  44.033
H  56.084  34.834  63.579
H  39.012  42.294  38.133
H  66.572  35.734  54.657
H  65.056  35.665  54.599
H  50.992  48.883  67.574
H  60.603  63.078  61.004
H  62.025  63.419  61.414
H  46.964  75.286  51.195
H  46.039  74.860  52.322
H  61.654  61.731  39.013
H  40.891  66.918  33.691
H  42.105  67.822  33.569
H  60.485  60.991  39.637
H  60.075  54.960  28.181
H  61.286  54.833  29.089
H  64.955  61.686  50.245
H  66.443  61.854  50.492
H  56.022  34.139  62.230
H  47.698  45.470  61.123
H  48.278  46.549  62.020
H  46.608  64.398  52.901
H  41.177  58.153  57.608
H  59.394  60.340  67.042
H  59.614  61.718  66.442
H  41.231  49.134  33.074
H  41.217  48.795  31.594
H  69.390  53.468  49.162
H  39.971  31.852  38.074
H  38.760  31.525  37.218
H  69.310  52.842  47.781
H  39.533  63.714  40.978
H  40.465  64.913  41.004
H  69.598  43.275  46.135
H  69.966  43.293  44.661
H  52.161  40.089  70.036
H  59.836  47.684  46.551
H  64.932  37.759  58.992
H  64.886  36.689  60.069
H  40.743  57.051  58.560
H  36.952  52.374  36.230
H  46.557  62.906  52.622
H  35.294  43.324  55.041
H  59.751  52.915  69.970
H  59.326  51.770  70.873
H  36.233  44.282  54.329
H  38.093  46.779  35.540
H  38.612  48.205  35.474
H  53.462  39.797  69.310
H  35.889  40.503  44.713
H  67.095  49.624  35.251
H  52.004  70.805  43.041
H  50.511  70.536  42.986
H  67.328  48.134  35.435
H  64.466  64.419  44.962
H  65.514  64.438  46.061
H  36.065  52.671  37.427
H  36.932  39.851  43.824
H  70.390  36.407  52.783
H  39.561  55.201  58.681
H  38.103  55.225  59.104
H  33.778  52.283  41.396
H  32.828  51.251  41.977
H  46.862  36.500  41.922
H  46.343  36.536  40.496
H  56.273  71.790  55.329
H  53.343  32.448  38.803
H  54.721  32.013  38.337
H  57.134  73.019  55.566
H  39.077  45.044  34.586
H  40.118  44.770  35.657
H  34.962  38.943  42.450
H  36.200  39.016  41.574
H  33.080  49.448  39.261
H  67.507  59.207  38.440
H  68.799  58.490  38.787
H  54.978  59.445  56.712
H  32.063  49.699  38.161
H  40.048  43.534  55.048
H  53.467  59.563  56.802
H  38.864  31.009  40.170
H  37.893  32.176  40.132
H  59.139  57.616  37.188
H  38.373  48.996  38.169
H  36.969  48.451  37.971
H  44.686  38.458  64.636
H  46.103  37.919  64.556
H  32.562  56.113  54.219
H  52.604  41.091  57.757
H  51.909  39.775  57.458
H  32.324  54.982  55.204
H  46.307  56.842  46.015
H  47.398  57.864  46.284
H  64.104  46.166  64.911
H  65.293  47.111  64.914
H  39.340  44.878  55.051
H  63.587  35.798  51.502
H  63.627  37.093  50.711
H  39.382  59.171  42.974
H  51.891  59.190  26.342
H  48.054  41.197  56.450
H  47.570  42.023  57.628
H  49.026  49.436  66.757
H  49.331  48.637  65.503
H  30.389  59.506  38.271
H  63.434  33.831  36.270
H  64.738  33.721  37.041
H  30.537  60.951  37.826
H  29.262  62.464  55.701
H  64.667  64.623  41.048
H  68.268  42.192  53.665
H  66.756  42.324  53.612
H  65.037  65.878  41.820
H  61.728  61.317  45.538
H  63.761  51.336  68.506
H  64.544  50.679  69.629
H  53.221  58.570  26.735
H  36.541  60.147  65.231
H  40.470  58.925  44.005
H  38.631  41.634  53.345
H  65.176  59.240  49.141
H  65.039  58.287  47.967
H  37.642  42.142  54.379
H  53.817  33.359  34.349
H  54.472  34.683  34.700
H  57.726  57.480  36.650
H  54.540  41.963  28.339
H  64.735  55.806  56.424
H  46.123  55.658  35.129
H  46.351  54.429  34.266
H  64.530  54.301  56.430
H  31.509  46.807  39.239
H  30.855  45.493  39.627
H  36.606  61.665  65.242
H  54.253  41.488  29.753
H  54.347  59.204  44.272
H  54.935  60.471  43.677
H  48.681  64.152  48.018
H  72.989  47.577  41.163
H  69.319  53.639  59.656
H  60.398  66.173  34.454
H  61.714  65.621  33.933
H  69.606  53.241  58.219
H  52.251  53.830  35.234
H  53.097  52.608  34.925
H  57.675  40.266  42.588
H  59.167  40.544  42.656
H  40.947  41.365  47.632
H  44.013  50.868  35.020
H  44.130  51.914  33.926
H  39.753  41.859  48.431
H  55.980  67.741  57.764
H  55.456  67.723  59.189
H  72.515  47.742  42.596
H  59.204  48.956  48.248
H  58.959  50.039  47.213
H  69.946  65.480  46.411
H  69.440  37.475  52.270
H  36.253  32.967  41.633
H  35.431  32.942  42.909
H  33.039  60.086  41.400
H  33.020  61.436  40.705
H  57.199  43.619  53.404
H  43.860  67.458  41.497
H  45.337  63.263  69.690
H  44.918  68.190  42.305
H  60.680  54.035  66.155
H  61.780  54.849  66.813
H  56.220  30.255  41.920
H  56.934  28.947  42.216
H  68.884  66.462  46.874
H  49.084  62.857  40.951
H  49.900  61.798  40.232
H  58.646  44.071  53.308
H  36.906  52.047  50.013
H  44.713  63.349  71.072
H  46.013  40.321  28.080
H  69.822  50.304  40.488
H  68.995  51.199  39.582
H  51.566  46.226  67.815
H  47.195  72.012  52.979
H  45.890  72.656  52.545
H  52.569  47.366  67.807
H  34.705  57.651  53.410
H  33.495  58.330  52.793
H  45.771  66.715  52.478
H  47.285  66.592  52.467
H  57.105  27.299  49.438
H  53.804  38.727  60.597
H  55.178  39.068  60.047
H  56.167  26.358  50.174
H  48.402  65.524  48.608
H  52.848  59.015  42.018
H  52.280  57.611  42.132
H  33.842  43.415  68.591
H  74.313  47.620  57.308
H  46.721  40.529  29.408
H  51.763  34.079  64.585
H  59.001  64.968  59.135
H  60.472  65.154  58.805
H  43.718  29.479  41.793
H  43.048  30.710  42.379
H  42.837  36.914  50.530
H  52.064  35.565  64.495
H  43.311  48.076  31.363
H  42.424  38.375  50.496
H  58.015  62.385  43.188
H  57.493  63.631  43.882
H  64.212  63.813  50.511
H  64.250  64.731  51.720
H  33.253  42.673  67.404
H  73.342  46.456  57.393
H  42.693  46.867  32.043
H  30.289  61.736  54.853
