10074
Supercell generated
Cl  41.337  60.998  73.131
Cl  47.168  30.666  59.663
Cl  36.672  47.982  74.881
Cl  39.674  51.297  60.230
Cl  62.131  58.264  60.647
Cl  64.650  44.832  60.470
Cl  60.991  67.208  41.624
Cl  38.739  41.635  72.906
Cl  31.743  51.543  47.167
Na  46.782  37.295  61.826
Na  35.957  52.179  54.087
Na  41.451  68.358  69.406
Na  35.649  36.858  44.012
Na  47.670  56.740  35.365
Na  36.591  29.978  63.840
Na  36.031  44.558  51.190
O  50.021  42.061  73.383
O  53.627  62.903  30.622
O  67.231  52.729  70.200
O  76.653  54.100  48.499
O  55.636  50.474  32.968
O  57.467  39.208  64.752
O  42.519  57.226  60.621
O  29.155  51.321  37.864
O  70.307  47.914  41.254
O  73.162  50.569  35.623
O  48.771  28.792  52.075
O  44.921  65.671  37.744
O  45.958  64.338  57.671
O  54.670  68.066  34.804
O  60.382  49.100  32.027
O  47.720  66.441  35.268
O  44.726  49.153  27.485
O  51.096  69.589  39.095
O  54.756  63.158  35.252
O  25.082  47.279  56.618
O  25.597  38.392  53.964
O  34.039  56.120  33.741
O  57.673  55.235  41.062
O  45.861  68.414  33.870
O  52.844  71.211  34.667
O  56.882  38.035  51.971
O  57.933  52.518  37.313
O  48.315  51.711  74.874
O  52.131  50.724  30.821
O  45.568  46.329  38.119
O  65.627  72.560  49.583
O  61.801  54.970  74.812
O  36.158  67.183  45.095
O  58.284  55.834  65.542
O  39.133  53.515  44.824
O  45.775  65.572  44.348
O  60.598  46.026  35.422
O  70.760  37.250  65.397
O  45.298  53.979  32.995
O  51.213  65.375  40.524
O  54.943  57.856  33.453
O  36.270  62.778  59.766
O  42.840  32.300  32.491
O  42.505  37.929  71.326
O  66.801  59.399  35.056
O  70.522  45.969  65.939
O  58.424  64.759  39.310
O  69.690  37.951  38.223
O  39.926  57.394  27.415
O  36.117  37.209  37.099
O  36.159  54.443  54.263
O  65.989  56.985  56.941
O  42.018  23.750  50.311
O  63.655  31.988  47.487
O  55.289  58.422  66.091
O  35.797  42.801  52.506
O  33.023  43.595  31.367
O  64.810  54.581  60.927
O  66.110  45.552  56.413
O  42.073  41.866  63.318
O  33.802  58.521  63.527
O  42.128  57.003  45.721
O  26.981  64.530  56.439
O  27.225  51.986  43.858
O  28.918  52.106  46.191
O  31.656  45.303  53.515
O  46.061  73.738  62.170
O  45.126  51.414  25.383
O  49.609  30.828  46.426
O  35.945  67.843  66.683
O  70.437  54.028  45.961
O  49.400  57.590  60.694
O  53.932  49.751  72.226
O  75.408  57.299  52.223
O  54.501  69.175  67.550
O  54.675  68.895  50.463
O  54.536  39.069  26.692
O  27.210  44.492  57.286
O  61.301  35.654  44.239
O  46.935  75.252  48.236
O  72.589  43.425  51.466
O  74.624  54.643  41.151
O  65.891  43.142  65.449
O  47.538  58.758  48.562
O  68.104  64.255  37.043
O  43.483  47.718  72.034
O  62.447  70.417  58.111
O  52.690  38.046  52.377
O  38.436  75.668  49.435
O  59.394  35.967  51.614
O  36.818  52.495  56.129
O  72.143  45.464  63.421
O  33.535  40.681  35.004
O  49.616  69.702  47.900
O  28.050  58.163  45.421
O  26.628  56.986  59.757
O  74.489  59.284  58.179
O  37.665  68.472  37.104
O  71.474  48.746  38.729
O  53.923  44.478  36.877
O  51.377  61.902  71.215
O  43.557  36.699  35.143
O  33.824  38.824  37.276
O  56.578  55.724  47.066
O  73.594  46.273  40.262
O  66.412  57.741  59.616
O  46.250  45.582  62.287
O  47.786  49.639  29.859
O  66.454  71.385  55.448
O  39.394  62.402  66.164
O  22.658  47.995  40.988
O  60.043  41.222  24.233
O  61.636  63.185  69.175
O  70.129  37.411  41.004
O  63.835  45.772  52.693
O  28.082  67.255  55.976
O  68.944  59.205  65.257
O  51.089  48.788  21.718
O  35.237  53.166  58.734
O  32.750  30.906  52.365
O  40.657  64.925  34.016
O  58.895  70.798  34.901
O  51.893  65.101  71.081
O  57.230  67.506  30.244
O  49.571  40.190  67.131
O  31.244  40.105  67.369
O  58.085  37.322  45.971
O  54.996  68.352  70.660
O  40.478  46.006  51.389
O  58.137  44.901  46.807
O  58.438  58.693  75.155
O  54.906  34.360  55.700
O  41.434  68.791  49.266
O  64.162  50.424  50.567
O  38.935  56.019  32.165
O  47.172  34.060  72.546
O  59.587  74.587  43.969
O  46.107  40.590  54.607
O  62.061  41.115  64.678
O  30.618  43.964  48.089
O  45.162  50.938  75.141
O  41.069  29.719  56.955
O  52.472  40.875  36.342
O  51.232  71.824  31.775
O  44.047  74.703  48.565
O  43.046  73.332  54.436
O  38.700  51.250  36.151
O  67.515  55.497  34.506
O  51.727  21.630  48.859
O  43.591  45.358  74.920
O  56.632  50.710  39.568
O  58.832  38.816  49.131
O  56.788  62.681  53.662
O  43.010  58.154  73.679
O  43.853  64.719  53.281
O  67.252  45.377  36.039
O  48.966  30.281  54.761
O  57.591  61.507  70.318
O  65.581  54.328  58.147
O  71.705  59.916  64.461
O  59.632  57.386  69.548
O  42.829  52.973  32.119
O  57.338  58.273  39.014
O  49.828  37.088  45.040
O  39.731  27.450  57.811
O  68.399  31.050  47.845
O  43.548  55.110  34.823
O  74.084  55.486  50.137
O  43.413  27.798  39.698
O  54.351  36.903  24.891
O  64.066  66.619  57.418
O  51.204  44.955  66.926
O  39.352  42.361  40.644
O  38.295  50.062  57.746
O  59.896  54.050  63.399
O  57.339  47.485  45.217
O  36.691  31.838  52.378
O  49.716  32.620  30.641
O  31.183  58.833  31.765
O  67.953  69.979  41.066
O  46.263  55.313  29.893
O  38.395  69.718  39.418
O  73.263  33.699  50.055
O  41.631  54.281  67.936
O  54.444  77.943  47.013
O  34.976  59.859  66.962
O  28.411  65.919  53.173
O  35.910  58.164  61.996
O  38.367  65.106  29.731
O  32.645  38.909  41.767
O  62.818  66.422  54.668
O  47.116  43.132  34.618
O  40.910  35.850  36.215
O  61.153  35.321  32.606
O  42.477  54.729  30.218
O  71.213  43.127  64.417
O  28.399  39.967  54.377
O  34.854  42.494  29.472
O  37.505  61.499  72.210
O  58.039  31.630  36.646
O  33.827  62.306  61.135
O  74.408  63.137  40.597
O  67.768  40.985  42.750
O  59.348  69.494  53.268
O  59.880  49.049  67.372
O  49.607  22.439  46.967
O  65.106  27.443  48.293
O  53.660  31.666  37.966
O  38.541  44.832  64.796
O  52.244  48.973  60.970
O  32.870  39.805  59.129
O  55.894  47.626  36.689
O  38.490  37.834  61.196
O  56.157  25.812  57.555
O  34.190  32.399  63.345
O  59.514  43.327  44.782
O  58.543  31.890  45.017
O  72.047  48.717  33.654
O  68.376  44.738  64.692
O  67.365  37.511  60.103
O  31.882  36.051  35.294
O  48.143  59.321  76.310
O  57.157  68.907  33.050
O  47.754  70.034  35.916
O  38.399  65.045  56.434
O  60.663  36.368  67.310
O  55.193  38.800  38.616
O  28.999  52.715  29.905
O  44.003  77.034  46.775
O  68.781  50.096  39.163
O  33.626  54.909  71.263
O  29.813  42.587  37.464
O  51.634  55.070  43.672
O  69.349  59.636  38.816
O  50.477  67.883  41.467
O  50.796  51.342  76.544
O  69.940  63.777  53.976
O  40.948  40.641  39.031
O  54.224  53.131  24.115
O  69.240  61.629  36.625
O  54.351  44.347  22.361
O  31.283  61.391  45.360
O  53.709  32.777  45.539
O  34.588  50.521  43.857
O  54.248  53.810  34.609
O  67.206  62.964  57.179
O  45.100  29.953  41.059
O  48.332  44.380  73.051
O  51.357  56.225  38.373
O  49.267  55.384  24.458
O  34.239  53.322  42.831
O  72.344  48.720  51.059
O  23.852  52.246  44.532
O  62.742  38.707  54.874
O  44.973  23.769  46.279
O  55.400  62.970  41.479
O  28.656  64.302  46.154
O  23.012  54.893  57.405
O  70.676  52.143  48.428
O  54.992  45.624  49.693
O  44.791  54.585  22.873
O  32.520  36.140  61.405
O  56.831  54.310  63.717
O  38.258  42.343  70.029
O  67.029  40.907  64.006
O  37.107  73.221  37.909
O  46.274  43.746  75.183
O  40.732  62.184  46.793
O  41.260  54.613  51.037
O  50.140  72.742  59.843
O  41.665  43.384  26.651
O  55.108  54.559  71.291
O  33.878  67.023  62.711
O  52.530  63.149  41.855
O  61.042  34.686  28.177
O  63.532  50.867  43.447
O  50.496  64.676  56.727
O  77.815  44.087  43.471
O  35.737  41.411  55.093
O  44.998  36.505  62.806
O  37.170  45.106  56.166
O  75.124  54.350  58.076
O  56.132  33.992  37.338
O  32.101  63.576  53.094
O  46.472  38.153  52.860
O  56.970  37.795  59.211
O  51.516  59.891  73.627
O  56.232  59.410  24.306
O  30.327  63.331  32.741
O  74.331  48.659  38.940
O  51.148  62.881  44.162
O  53.508  58.985  63.763
O  33.957  57.973  56.144
O  55.984  66.569  39.861
O  23.891  62.446  48.272
O  39.161  66.161  36.037
O  28.001  54.479  59.610
O  35.215  59.557  48.143
O  34.957  72.248  42.668
O  70.022  51.050  36.809
O  53.029  70.721  59.529
O  41.935  38.992  62.171
O  59.034  40.352  69.023
O  43.213  60.595  29.219
O  51.895  61.535  34.074
O  29.867  51.237  40.683
O  56.472  23.701  55.800
O  48.757  71.403  57.510
O  67.455  39.875  68.690
O  38.126  49.480  39.866
O  50.806  28.187  31.951
O  35.236  61.161  63.108
O  69.004  66.100  52.369
O  30.675  53.130  53.281
O  37.770  34.890  64.036
O  71.239  55.576  32.787
O  46.172  45.756  67.416
O  59.337  49.161  60.461
O  43.754  61.977  47.360
O  38.844  65.407  62.782
O  43.098  28.622  42.861
O  46.271  33.997  45.884
O  58.166  65.591  72.294
O  36.527  48.709  71.734
O  60.999  65.234  72.572
O  47.488  56.759  27.375
O  47.962  42.240  38.069
O  52.676  71.011  64.755
O  35.589  42.769  71.104
O  44.896  57.675  70.451
O  70.961  33.416  59.265
O  69.587  65.956  64.719
O  41.462  50.964  75.004
O  38.410  40.346  66.065
O  60.927  26.602  55.553
O  47.320  41.762  73.046
O  67.377  36.981  63.942
O  57.453  49.274  62.833
O  70.016  59.948  41.614
O  64.314  28.986  37.588
O  24.382  59.800  52.275
O  46.676  60.683  56.078
O  61.642  46.222  50.841
O  35.984  57.532  44.958
O  50.894  53.976  28.610
O  59.392  50.618  35.344
O  64.483  39.387  52.508
O  58.419  26.454  52.436
O  46.826  31.420  39.481
O  27.209  60.344  36.056
O  66.025  45.059  50.795
O  49.726  44.563  34.193
O  44.647  48.620  68.163
O  54.276  36.498  70.969
O  59.556  60.252  35.343
O  49.786  30.492  35.580
O  72.482  48.342  63.608
O  43.687  74.502  60.621
O  59.887  45.067  75.918
O  40.388  68.553  54.976
O  64.413  37.982  45.166
O  49.153  29.681  42.705
O  54.724  28.604  45.565
O  47.284  44.328  59.888
O  38.466  49.590  33.829
O  34.857  47.977  38.695
O  34.578  62.800  54.516
O  53.728  44.594  52.175
O  38.086  73.065  42.760
O  60.328  39.959  43.669
O  62.226  64.636  42.693
O  29.859  34.828  43.083
O  75.762  56.498  55.186
O  59.619  59.475  61.316
O  29.011  40.473  42.807
O  67.747  50.194  35.359
O  62.908  53.580  32.673
O  44.551  39.846  35.007
O  51.657  41.766  28.785
O  29.479  37.526  53.099
O  59.200  70.912  49.078
O  43.737  30.952  56.900
O  29.877  38.749  40.701
O  47.931  35.305  63.849
O  27.544  43.580  33.192
O  53.857  61.398  65.753
O  58.213  51.735  61.345
O  41.420  49.739  36.078
O  72.215  33.962  52.742
O  70.409  61.738  58.584
O  54.672  52.467  60.536
O  57.682  28.751  37.794
O  66.047  67.063  59.735
O  43.255  38.949  45.662
O  51.964  74.129  62.777
O  58.508  60.675  41.575
O  26.717  50.224  41.394
O  38.108  41.799  43.168
O  47.230  55.558  46.563
O  38.665  47.857  25.817
O  70.068  37.924  52.830
O  37.236  66.951  64.347
O  42.320  37.401  64.321
O  63.570  47.379  27.020
O  38.023  25.762  51.855
O  57.808  52.005  68.551
O  25.099  43.349  54.744
O  31.420  37.737  63.788
O  43.897  65.069  41.380
O  31.039  33.412  50.154
O  40.882  70.352  63.694
O  66.443  48.905  40.172
O  50.515  68.105  52.969
O  61.897  68.990  55.044
O  31.076  60.522  33.900
O  68.845  32.565  38.596
O  29.622  42.621  67.990
O  37.308  50.917  49.721
O  50.603  62.174  28.636
O  56.929  30.226  51.066
O  63.458  63.989  33.501
O  37.321  35.583  32.954
O  31.837  44.917  50.715
O  48.055  38.526  33.943
O  68.627  33.423  63.223
O  59.916  56.367  30.128
O  66.497  32.158  52.688
O  48.406  40.086  30.015
O  27.523  55.116  47.223
O  53.679  68.658  40.431
O  23.268  58.448  55.384
O  74.538  53.662  46.434
O  58.651  27.240  58.593
O  43.039  69.020  57.103
O  44.899  48.189  40.958
O  63.514  54.989  56.537
O  52.742  73.811  58.534
O  44.452  53.602  67.782
O  71.698  59.253  57.659
O  37.629  30.638  46.537
O  46.829  59.557  71.181
O  54.711  67.218  62.905
O  44.240  28.820  35.811
O  56.836  30.125  56.884
O  58.182  46.975  25.398
O  32.386  70.062  49.384
O  71.081  61.176  34.339
O  29.304  51.455  32.365
O  47.384  42.600  65.917
O  36.208  44.871  34.495
O  30.580  41.192  58.720
O  39.553  29.947  40.414
O  36.277  54.840  41.456
O  41.631  31.878  49.016
O  30.318  30.785  48.985
O  41.241  49.258  48.137
O  50.233  54.224  62.228
O  62.894  33.465  42.529
O  45.772  76.052  50.605
O  53.889  56.440  77.522
O  50.247  42.241  26.527
O  31.406  53.022  33.540
O  69.208  58.615  68.150
O  50.596  45.265  58.588
O  56.653  74.199  48.681
O  60.187  42.236  34.827
O  24.750  49.328  64.091
O  59.069  67.687  70.313
O  37.186  42.872  31.093
O  64.121  48.247  65.958
O  58.031  36.704  40.768
O  41.210  51.779  50.215
O  41.859  43.987  33.756
O  43.742  66.068  58.595
O  44.726  41.724  64.417
O  62.214  53.445  44.056
O  40.302  52.682  29.836
O  44.900  43.322  27.313
O  50.268  27.541  65.708
O  36.468  71.718  49.659
O  23.373  53.009  55.048
O  62.425  32.220  37.604
O  26.642  50.475  50.393
O  54.680  45.250  77.171
O  45.391  71.417  37.301
O  67.262  37.183  36.395
O  36.463  68.721  58.509
O  29.249  37.573  35.363
O  45.604  59.136  74.944
O  56.862  72.588  51.158
O  37.834  44.473  72.106
O  51.885  49.653  74.292
O  69.229  72.022  54.878
O  38.235  25.704  42.019
O  38.793  36.587  42.363
O  38.777  73.883  40.142
O  34.038  62.604  36.428
O  39.720  55.043  70.640
O  44.313  53.246  29.060
O  53.457  68.315  48.136
O  44.314  52.648  77.419
O  41.131  60.867  59.522
O  69.955  69.466  53.314
O  50.179  47.824  76.845
O  40.136  31.369  63.108
O  63.301  38.025  35.678
O  52.398  44.638  54.934
O  24.730  43.528  49.877
O  39.568  33.437  51.754
O  51.709  26.136  47.592
O  60.433  62.408  72.622
O  49.416  55.873  69.088
O  68.100  56.847  31.603
O  63.578  61.451  36.776
O  49.418  64.160  73.949
O  59.084  61.848  59.006
O  55.938  35.449  51.795
O  50.919  62.404  36.471
O  62.077  51.961  35.483
O  45.702  40.221  58.777
O  34.662  50.087  47.180
O  39.508  34.541  34.169
O  39.306  49.260  51.111
O  55.007  56.544  63.909
O  56.980  68.114  57.414
O  52.636  25.773  55.861
O  64.544  69.402  43.513
O  32.180  53.969  27.578
O  62.250  41.351  69.308
O  68.600  48.649  53.284
O  45.104  60.672  43.095
O  67.687  65.078  43.803
O  70.544  41.885  35.484
O  47.825  30.712  62.809
O  55.645  47.599  66.063
O  23.592  46.685  48.551
O  34.347  69.658  60.941
O  60.636  28.439  36.565
O  50.155  55.594  41.178
O  62.787  37.726  57.648
O  69.385  53.271  43.424
O  42.091  74.344  42.754
O  35.013  50.110  54.038
O  27.300  49.250  61.849
O  57.612  58.312  36.103
O  49.779  47.451  35.210
O  61.924  60.400  58.700
O  72.655  40.162  40.128
O  45.969  26.402  37.068
O  66.663  46.263  71.091
O  39.561  60.376  27.505
O  68.462  43.707  51.940
O  64.063  61.938  50.546
O  39.920  32.786  41.003
O  73.022  39.774  51.294
O  45.773  60.056  33.106
O  47.864  27.812  58.363
O  56.941  44.064  67.864
O  65.546  37.915  67.535
O  48.551  60.467  30.874
O  57.173  62.377  50.479
O  40.127  46.983  39.923
O  51.221  28.762  53.526
O  33.972  53.030  63.240
O  41.195  29.925  35.079
O  63.781  63.300  64.419
O  52.868  50.983  25.495
O  70.616  67.499  58.627
O  49.005  74.280  35.145
O  44.955  39.031  69.307
O  28.497  39.786  59.732
O  70.447  56.166  67.772
O  67.588  33.639  41.638
O  32.211  42.234  63.507
O  52.520  64.463  58.855
O  41.367  44.268  64.916
O  60.229  49.937  62.950
O  35.098  59.929  36.797
O  48.897  44.072  24.389
O  43.229  34.732  36.712
O  56.026  35.369  68.385
O  70.585  47.003  59.974
O  63.052  70.287  51.140
O  46.810  71.830  33.765
O  53.154  55.301  65.702
O  75.503  62.313  52.111
O  39.882  54.323  36.028
O  42.387  61.070  56.897
O  45.216  66.575  50.035
O  41.233  47.460  31.287
O  51.756  54.731  35.752
O  35.414  51.329  26.117
O  52.147  40.140  59.297
O  61.209  45.958  29.266
O  58.695  38.417  54.760
O  37.369  55.634  74.866
O  52.656  76.284  49.443
O  63.996  32.787  66.467
O  66.342  26.475  45.922
O  60.853  47.070  62.322
O  32.871  71.535  59.057
O  42.501  26.237  37.211
O  39.297  65.872  67.034
O  43.718  32.022  28.449
O  54.849  48.966  61.857
O  45.341  62.802  27.973
O  41.286  38.298  37.615
O  27.811  33.345  47.238
O  51.046  61.413  47.406
O  35.089  35.387  60.894
O  52.344  55.155  71.999
O  32.663  49.845  56.973
O  70.157  41.187  44.207
O  31.172  43.316  43.162
O  65.074  47.465  62.261
O  72.019  31.236  53.692
O  59.244  53.992  46.097
O  68.631  37.788  33.853
O  49.737  67.589  55.394
O  45.538  56.125  67.784
O  54.861  57.731  52.538
O  78.003  42.336  46.596
O  45.095  74.802  55.845
O  55.281  28.977  40.647
O  32.938  42.871  33.859
O  70.195  58.600  47.226
O  47.564  27.839  40.724
O  51.162  78.037  46.855
O  24.334  49.133  58.892
O  62.555  44.095  62.386
O  42.937  46.075  39.090
O  57.809  41.204  71.997
O  43.683  68.461  47.163
O  54.042  26.016  61.503
O  61.124  57.653  66.901
O  47.879  40.039  36.261
O  58.383  51.330  64.345
O  70.129  38.007  59.304
O  37.353  23.623  49.275
O  32.622  64.866  50.606
O  47.066  44.971  32.213
O  62.430  50.841  28.319
O  76.481  54.441  43.233
O  67.449  54.021  26.795
O  68.913  55.939  42.609
O  58.220  45.094  70.571
O  40.614  56.028  39.554
O  46.678  41.097  76.467
O  35.494  54.514  27.658
O  45.714  62.805  41.314
O  69.444  50.426  55.469
O  41.605  43.278  70.616
O  41.748  30.987  68.685
O  29.464  58.122  34.475
O  53.571  66.593  68.917
O  38.414  28.761  51.423
O  70.367  36.738  43.970
O  33.468  38.684  45.259
O  72.210  63.288  57.213
O  58.859  46.838  33.035
O  60.083  71.934  61.320
O  61.467  33.889  47.006
O  49.715  41.837  34.812
O  51.430  54.211  67.712
O  34.730  64.985  56.691
O  28.838  34.573  55.030
O  56.352  39.226  61.771
O  45.487  62.035  58.742
O  45.999  33.290  51.141
O  45.244  46.467  35.055
O  54.741  25.787  47.430
O  58.977  46.759  50.914
O  47.516  27.253  44.105
O  33.035  45.076  63.956
O  69.217  60.869  52.080
O  47.397  63.704  34.526
O  34.477  61.230  58.360
O  45.213  63.518  49.710
O  48.457  26.250  38.207
O  37.569  60.338  64.795
O  49.369  35.374  61.388
O  29.017  58.307  37.355
O  74.691  48.163  43.239
O  60.826  48.552  37.153
O  28.441  54.330  53.672
O  71.028  31.174  50.534
O  46.141  73.058  46.574
O  53.409  59.070  25.322
O  69.363  38.132  62.182
O  53.118  34.203  26.363
O  59.401  41.772  48.777
O  69.970  45.923  52.508
O  25.459  46.544  53.824
O  51.052  43.833  37.229
O  39.747  66.930  52.266
O  55.382  33.164  43.115
O  71.044  43.864  43.860
O  51.371  71.143  42.204
O  48.902  35.035  31.530
O  49.380  30.096  29.337
O  53.563  65.125  39.536
O  36.582  62.794  56.874
O  37.269  51.815  47.006
O  65.499  42.716  37.755
O  36.048  39.876  43.552
O  44.017  63.157  68.315
O  46.588  70.269  45.838
O  61.313  31.041  56.816
O  65.779  38.626  58.385
O  40.982  33.271  70.316
O  65.939  39.415  29.973
O  48.473  36.162  39.611
O  47.706  33.833  59.398
O  31.180  54.198  56.296
O  71.677  48.638  44.261
O  54.321  33.499  69.799
O  58.088  64.722  52.339
O  28.619  47.887  64.224
O  60.555  41.772  66.961
O  47.088  48.275  61.938
O  56.990  59.709  33.633
O  43.018  75.527  58.163
O  49.202  39.535  53.696
O  29.995  36.548  48.796
O  68.695  57.465  50.310
O  46.092  73.924  53.346
O  44.258  57.803  34.293
O  57.064  45.116  34.850
O  44.222  50.673  31.061
O  59.240  56.898  45.986
O  36.452  52.322  30.044
O  37.974  35.125  56.184
O  40.216  55.349  29.199
O  52.597  76.621  54.173
O  36.228  45.088  59.129
O  46.485  73.416  38.902
O  69.401  44.333  60.548
O  64.887  66.407  34.435
O  41.272  65.859  55.096
O  65.143  66.872  44.676
O  55.860  64.996  61.340
O  43.643  55.534  72.202
O  47.012  53.467  72.686
O  73.241  46.643  61.170
O  69.865  50.254  51.226
O  62.833  55.285  51.597
O  33.992  50.740  65.483
O  69.877  50.736  70.020
O  45.216  71.560  66.786
O  66.757  58.602  39.334
O  29.086  53.769  39.283
O  34.605  39.238  29.439
O  43.515  58.238  63.440
O  45.751  41.605  36.826
O  49.310  73.141  52.525
O  29.932  40.064  47.311
O  43.915  67.746  53.464
O  63.373  25.675  54.360
O  49.220  63.478  41.699
O  30.349  35.019  63.380
O  37.242  72.934  55.783
O  34.709  69.796  56.261
O  33.838  54.654  49.048
O  31.814  28.413  48.708
O  26.159  54.469  56.540
O  38.012  44.334  39.368
O  74.605  36.111  52.285
O  46.930  50.694  64.968
O  35.532  50.539  40.076
O  52.986  42.816  49.906
O  45.540  50.113  34.261
O  66.478  35.710  51.628
O  23.421  41.168  45.126
O  29.677  53.187  43.462
O  28.031  50.799  66.013
O  70.064  30.851  45.700
O  36.299  33.115  65.637
O  34.722  52.602  45.876
O  61.298  55.011  59.950
O  75.574  46.779  47.254
O  54.671  57.688  60.969
O  48.185  38.839  38.875
O  36.182  32.870  61.647
O  22.419  47.025  57.363
O  23.254  50.094  55.994
O  59.951  29.194  52.476
O  27.469  43.082  49.012
O  64.127  43.425  49.209
O  41.014  22.941  47.825
O  50.603  38.879  35.384
O  54.838  64.492  45.884
O  49.922  24.514  62.811
O  75.215  37.847  45.409
O  61.604  69.389  39.474
O  68.599  38.509  55.247
O  67.197  51.269  53.936
O  62.447  34.871  65.438
O  29.791  56.459  67.804
O  55.729  66.803  47.255
O  46.985  71.020  63.124
O  61.702  44.245  70.519
O  34.362  35.529  49.604
O  47.382  54.535  35.348
O  50.318  32.476  57.383
O  40.994  59.966  63.349
O  40.646  56.619  62.577
O  48.106  52.579  33.459
O  67.501  33.834  65.886
O  45.808  77.304  42.469
O  70.003  58.077  61.399
O  52.173  30.083  33.664
O  29.664  49.664  45.235
O  31.127  59.208  50.866
O  45.349  56.310  48.766
O  26.813  49.134  44.220
O  41.261  46.468  25.870
O  37.640  33.373  39.357
O  56.742  55.430  38.176
O  23.507  49.534  48.996
O  70.752  47.176  69.148
O  61.917  53.977  48.481
O  75.903  45.808  55.151
O  55.154  34.563  47.348
O  49.876  68.281  61.806
O  45.503  24.414  59.167
O  44.235  72.792  41.285
O  33.037  54.214  35.680
O  45.880  36.533  50.531
O  65.556  52.715  66.565
O  72.086  38.273  62.132
O  52.597  30.673  61.650
O  32.926  45.720  38.701
O  57.119  33.865  62.613
O  32.937  46.636  61.334
O  75.071  54.638  63.657
O  70.243  60.676  44.191
O  62.799  60.104  63.345
O  72.357  50.063  41.018
O  40.885  44.432  41.672
O  47.773  38.838  63.116
O  45.893  34.278  36.028
O  63.108  46.241  64.103
O  47.618  49.704  26.909
O  41.523  76.790  48.603
O  45.311  58.831  40.916
O  48.080  65.906  62.261
O  57.211  77.258  46.649
O  37.615  35.576  59.716
O  54.711  48.134  76.073
O  34.000  67.170  46.706
O  44.651  67.053  67.380
O  58.279  36.048  28.553
O  59.760  54.803  67.929
O  58.291  55.759  76.069
O  61.838  43.825  65.224
O  44.761  73.433  44.018
O  32.101  51.452  43.196
O  37.878  58.757  67.037
O  47.002  54.021  26.878
O  53.842  53.612  63.417
O  56.772  46.567  62.639
O  63.812  54.892  37.929
O  74.770  40.858  57.631
O  43.976  34.907  53.043
O  53.568  49.586  64.414
O  62.305  41.629  42.116
O  41.609  72.987  40.185
O  51.177  59.201  62.299
O  64.358  47.603  50.770
O  50.734  36.704  41.293
O  46.722  73.527  50.750
O  46.625  47.992  66.254
O  50.991  66.894  48.283
O  38.168  63.130  46.245
O  52.816  49.092  28.491
O  62.002  63.786  30.704
O  55.876  59.887  48.971
O  46.508  23.611  42.517
O  56.935  70.148  59.439
O  58.095  42.619  36.921
O  45.454  39.138  26.042
O  44.580  63.043  34.525
O  61.007  67.965  60.992
O  53.195  49.845  77.796
O  41.548  36.208  46.808
O  42.082  26.174  42.254
O  42.356  46.172  28.671
O  42.860  50.701  33.945
O  55.065  37.004  57.140
O  53.511  35.392  53.385
O  45.076  53.172  62.849
O  65.816  66.782  51.888
O  63.620  48.088  39.092
O  78.304  47.586  46.972
O  48.563  77.663  45.454
O  35.232  66.747  50.670
O  59.037  39.215  41.255
O  52.711  40.619  73.059
O  30.776  61.347  39.081
O  59.607  64.521  41.681
O  57.768  48.256  72.110
O  62.203  51.178  38.351
O  48.963  32.080  41.315
O  49.788  32.570  61.646
O  58.283  28.877  46.571
O  74.360  56.792  59.408
O  25.347  60.772  57.557
O  62.422  65.523  45.541
O  31.380  35.405  53.714
O  70.164  41.679  62.130
O  25.339  63.514  50.390
O  53.116  73.632  52.708
O  58.786  46.297  53.750
O  34.157  30.371  42.105
O  40.755  37.308  30.686
O  71.500  63.180  45.167
O  42.360  69.489  51.895
O  53.722  61.312  51.159
O  30.564  34.207  46.151
O  27.706  63.124  51.457
O  56.636  50.435  66.508
O  65.606  62.527  34.993
O  53.954  75.249  46.194
O  44.621  53.832  74.257
O  60.781  48.298  26.568
O  37.163  54.736  59.948
O  71.861  44.510  58.420
O  67.994  53.138  47.720
O  66.968  68.811  53.295
O  57.997  59.955  57.338
O  40.954  65.330  31.049
O  53.193  52.558  73.771
O  33.733  30.303  49.754
O  35.193  50.763  60.794
O  46.328  24.334  52.710
O  45.203  30.005  30.887
O  59.393  39.224  57.131
O  36.813  36.814  28.705
O  53.097  52.529  28.945
O  54.658  75.427  50.962
O  47.425  24.949  61.269
O  69.466  60.489  49.314
O  52.119  63.686  48.736
O  48.595  47.062  28.058
O  44.346  71.699  52.277
O  73.815  53.417  55.156
O  71.557  47.949  53.821
O  27.185  32.583  53.833
O  31.222  60.388  36.613
O  60.404  60.884  65.116
O  46.251  29.413  53.366
O  34.230  46.511  52.942
O  55.402  24.466  45.014
O  54.748  71.362  31.582
O  23.418  39.866  52.537
O  36.124  28.014  45.424
O  35.963  50.108  63.692
O  58.281  66.217  62.697
O  32.763  41.120  47.577
O  69.062  41.786  65.800
O  52.667  26.574  50.793
O  39.113  39.851  68.692
O  60.835  57.421  43.714
O  55.676  31.057  48.588
O  34.369  52.960  39.955
O  41.877  66.445  46.380
O  67.322  48.086  56.221
O  60.304  38.317  70.356
O  54.623  38.329  54.778
O  65.700  30.409  48.848
O  77.836  52.305  50.583
O  38.614  50.592  24.552
O  30.149  68.747  54.380
O  67.105  43.418  29.488
O  40.311  60.643  51.703
O  62.929  73.120  50.620
O  49.473  58.653  52.153
O  32.336  29.150  56.315
O  68.699  35.346  39.689
O  61.380  28.132  44.499
O  46.506  41.874  25.342
O  75.829  45.942  60.791
O  32.557  48.878  45.122
O  48.021  25.101  57.628
O  40.960  29.082  46.024
O  54.298  58.418  28.130
O  44.013  75.673  41.305
O  34.249  28.178  40.156
O  37.775  65.362  50.727
O  33.615  69.961  46.786
O  59.476  30.842  50.157
O  72.567  37.187  37.976
O  27.838  60.532  39.421
O  62.077  51.483  64.573
O  56.980  34.803  65.562
O  72.432  40.887  53.809
O  49.136  46.784  74.094
O  33.998  32.825  48.734
O  41.811  54.929  41.916
O  58.706  44.719  30.160
O  64.076  26.657  44.188
O  42.537  44.227  52.943
O  60.299  76.207  46.585
O  39.916  45.350  73.851
O  33.673  61.500  39.079
O  43.839  41.161  52.890
O  39.417  67.192  59.802
O  31.353  66.203  54.030
O  72.846  33.712  46.966
O  38.973  59.014  32.240
O  64.892  50.731  64.396
O  38.120  57.178  47.847
O  56.247  57.890  44.972
O  52.472  35.689  68.469
O  50.986  56.912  63.836
O  50.249  27.738  36.151
O  64.845  74.561  47.413
O  26.683  39.724  43.842
O  47.320  54.815  40.366
O  64.967  61.264  47.485
O  48.638  35.879  68.148
O  56.812  77.550  49.305
O  57.139  60.591  66.705
O  58.460  41.604  42.270
O  42.437  63.070  70.728
O  44.467  39.082  63.685
O  62.448  54.844  35.315
O  25.976  57.611  37.800
O  70.895  46.129  37.506
O  71.133  53.890  53.917
O  42.959  70.233  40.578
O  61.114  62.543  36.230
O  60.506  36.798  72.745
O  59.162  62.163  67.579
O  47.219  36.740  59.728
O  53.801  41.314  66.005
O  27.659  61.762  60.991
O  52.187  74.910  39.257
O  64.772  69.706  56.768
O  54.929  32.150  61.627
O  69.758  63.307  63.253
O  62.524  52.734  26.210
O  49.781  39.366  60.859
O  59.723  45.326  72.781
O  63.131  29.330  46.956
O  49.494  50.398  60.217
O  24.499  54.945  48.338
O  41.293  70.110  37.728
O  62.162  29.855  49.597
O  38.829  60.126  74.773
O  63.663  43.465  35.510
O  42.086  49.701  40.789
O  40.212  53.347  75.997
O  31.917  69.450  62.579
O  61.904  32.678  61.544
O  32.568  53.105  60.695
O  42.433  28.214  54.899
O  31.036  56.364  42.662
O  63.465  63.951  71.393
O  27.437  37.717  42.203
O  33.453  49.151  30.045
O  64.849  34.224  36.307
O  29.117  51.800  50.745
O  65.992  35.886  32.157
O  27.689  57.588  66.222
O  36.220  57.773  32.800
O  59.049  29.655  43.170
O  47.766  63.317  59.894
O  41.625  71.451  42.815
O  27.720  48.940  38.495
O  42.791  59.730  26.538
O  67.094  50.798  62.854
O  51.482  64.364  34.688
O  28.578  40.176  49.902
O  55.748  32.420  39.770
O  37.356  30.159  59.922
O  45.199  59.479  38.265
O  29.601  63.493  43.729
O  65.529  69.302  50.060
O  66.914  54.214  37.145
O  55.905  63.724  38.596
O  44.972  40.725  39.873
O  40.484  47.212  65.814
O  46.271  66.477  60.232
O  41.429  33.970  61.228
O  28.337  44.300  46.478
O  68.335  40.045  60.274
O  42.868  56.224  69.638
O  32.097  42.028  51.414
O  72.024  66.942  51.796
O  51.596  48.039  33.092
O  44.645  23.093  54.539
O  64.129  30.047  44.605
O  27.001  56.944  35.170
O  41.515  44.932  56.881
O  43.974  42.834  76.901
O  62.368  37.798  62.637
O  61.978  58.043  71.114
O  59.451  46.991  58.652
O  51.562  71.461  57.440
O  47.064  23.397  48.229
O  66.298  60.196  45.084
O  29.814  48.422  32.943
O  25.637  58.749  40.451
O  73.277  60.565  61.268
O  71.378  35.340  49.002
O  43.071  77.779  50.771
O  47.976  24.630  44.872
O  27.766  63.830  59.214
O  44.131  45.400  23.458
O  63.175  67.692  47.536
O  65.162  64.456  42.883
O  28.669  59.093  60.645
O  43.249  39.079  59.411
O  46.747  74.574  41.522
O  27.656  56.542  55.345
O  47.241  55.086  62.977
O  47.786  49.643  55.023
O  57.963  58.064  67.335
O  63.715  61.620  60.663
O  52.027  51.413  55.540
O  49.127  45.399  46.633
O  53.468  47.053  46.872
O  53.908  51.930  51.304
O  48.743  49.107  45.270
O  50.200  53.950  53.271
O  49.229  50.881  51.258
O  30.521  45.281  36.518
O  66.330  46.976  28.638
O  26.844  44.559  51.773
O  27.755  58.242  57.397
O  50.693  49.886  48.515
O  36.100  51.559  34.559
O  55.376  43.826  62.134
O  60.620  60.469  69.368
O  55.571  32.272  58.739
O  42.138  55.301  74.580
O  48.192  45.577  64.383
O  42.670  35.027  41.768
O  47.216  65.989  52.967
O  44.275  77.575  56.616
O  60.545  52.926  73.087
O  27.685  65.274  49.367
O  38.610  46.096  42.639
O  56.427  45.338  27.344
O  36.160  34.610  47.435
O  25.704  45.071  47.703
O  46.548  52.174  31.011
O  34.694  49.895  50.596
O  41.899  26.677  47.421
O  66.225  34.093  54.985
O  48.994  77.075  49.037
O  57.259  42.469  46.287
O  61.369  31.238  44.710
O  62.239  64.530  62.580
O  35.568  48.528  33.148
O  58.560  75.935  53.170
O  57.098  30.569  63.361
O  68.422  61.064  46.766
O  48.167  42.820  70.786
O  53.889  73.199  36.676
O  61.993  55.985  69.351
O  76.594  52.620  40.087
O  57.423  27.054  41.571
O  49.002  70.743  51.190
O  48.233  63.641  69.099
O  36.005  60.008  55.898
O  59.737  50.721  46.826
O  63.433  59.611  42.726
O  76.963  47.234  41.829
O  42.853  43.452  58.883
O  51.202  29.693  49.650
O  62.225  67.960  31.812
O  52.691  52.692  32.449
O  50.174  63.210  39.132
O  53.350  60.177  40.950
O  42.023  24.601  45.461
O  45.482  50.631  61.150
O  52.123  33.971  60.462
O  47.630  38.869  24.385
O  58.523  46.674  36.964
O  46.149  47.751  70.746
O  33.822  50.380  37.452
O  28.164  35.231  40.547
O  67.306  29.764  40.471
O  42.679  69.594  31.590
O  65.472  57.832  31.510
O  51.877  59.276  29.271
O  63.443  52.256  73.241
O  56.406  57.961  58.718
O  72.626  59.748  48.398
O  50.911  73.934  41.819
O  67.274  50.587  30.866
O  66.097  64.871  46.744
O  75.366  45.487  44.027
O  44.670  31.068  68.516
O  33.300  51.024  34.669
O  41.156  48.670  58.712
O  59.277  50.447  42.700
O  61.623  46.317  44.894
O  56.596  36.553  54.472
O  49.679  63.728  49.938
O  38.914  48.562  28.363
O  51.209  64.302  26.780
O  37.738  29.763  34.544
O  68.987  60.212  55.949
O  39.116  66.525  38.983
O  67.950  32.156  44.386
O  75.643  42.673  45.165
O  67.688  35.123  61.058
O  56.906  40.081  47.448
O  61.252  41.470  53.122
O  41.828  52.942  34.985
O  64.265  56.162  26.919
O  68.699  70.644  43.939
O  68.888  63.525  50.170
O  48.038  47.709  25.147
O  46.548  78.581  51.764
O  37.948  49.321  55.257
O  34.112  36.478  42.451
O  55.971  67.432  59.782
O  53.703  44.864  70.374
O  60.457  52.911  42.013
O  60.315  31.719  40.591
O  49.432  78.089  52.301
O  43.445  69.531  35.949
O  34.109  44.575  48.591
O  43.583  46.274  63.157
O  37.464  43.823  44.806
O  68.159  69.123  58.872
O  61.623  40.511  58.454
O  48.952  25.348  47.550
O  55.250  72.746  34.246
O  70.533  65.486  56.384
O  60.477  42.689  60.067
O  72.696  60.690  45.770
O  59.246  52.774  39.694
O  43.292  54.759  39.387
O  52.849  62.255  38.921
O  58.740  49.275  49.084
O  39.495  44.063  32.219
O  33.941  65.365  52.886
O  59.334  48.408  76.403
O  45.333  35.240  65.588
O  57.669  61.375  61.984
O  36.733  48.986  36.129
O  37.337  54.272  67.571
O  45.076  76.401  53.117
O  47.741  60.998  42.840
O  31.817  59.740  54.963
O  22.477  47.791  46.255
O  46.803  68.780  51.990
O  26.432  53.461  50.211
O  55.861  36.478  61.709
O  33.991  36.563  38.891
O  44.572  34.246  31.100
O  47.618  64.873  46.943
O  35.864  41.063  64.011
O  55.275  60.522  43.893
O  52.300  67.254  38.356
O  54.744  29.091  37.480
O  49.155  49.395  73.420
O  45.943  34.759  40.084
O  58.110  55.871  52.223
O  27.338  40.976  57.372
O  57.751  71.966  37.329
O  45.002  55.546  64.735
O  49.170  60.839  69.711
O  63.934  56.174  49.142
O  44.877  35.544  57.192
O  62.371  37.553  65.400
O  30.730  45.318  41.311
O  55.996  28.087  49.350
O  31.742  34.430  57.238
O  52.876  47.702  58.413
O  38.300  45.288  46.756
O  54.198  38.387  59.708
O  33.338  34.986  64.318
O  45.260  57.777  45.844
O  41.754  39.960  29.647
O  63.996  66.832  42.135
O  66.239  46.151  66.339
O  58.485  46.722  42.177
O  38.261  42.683  55.012
O  54.842  69.966  57.415
O  31.529  53.478  41.098
O  47.958  36.221  36.275
O  50.474  61.091  60.297
O  36.857  28.724  39.320
O  35.408  57.436  28.504
O  58.720  53.518  48.780
O  66.004  35.302  49.095
O  36.786  47.611  50.272
O  37.590  60.020  43.219
O  55.461  46.849  60.034
O  66.682  59.049  48.055
O  46.192  33.590  68.411
O  54.836  30.984  31.310
O  45.444  27.195  41.844
O  37.652  45.158  52.605
O  65.275  51.149  71.573
O  41.969  28.697  32.350
O  64.539  30.012  51.520
O  29.228  46.496  38.714
O  51.536  68.417  59.580
O  34.546  62.673  66.640
O  35.286  36.662  56.603
O  41.050  63.454  68.081
O  55.957  42.095  26.868
O  51.169  27.634  57.456
O  50.192  65.812  36.987
O  33.070  70.748  53.436
O  46.598  57.651  32.378
O  25.722  44.007  43.317
O  48.138  38.525  57.585
O  60.695  58.653  47.450
O  63.799  53.703  68.345
O  45.623  40.658  61.624
O  71.190  59.817  36.787
O  46.959  45.281  26.263
O  48.540  49.373  69.398
O  46.574  37.919  41.924
O  66.262  30.753  35.548
O  72.689  53.268  34.181
O  27.757  63.114  54.346
O  25.556  66.563  50.586
O  25.649  65.219  53.537
O  69.524  41.000  53.692
O  58.215  46.640  67.476
O  29.090  62.369  35.331
O  57.947  50.287  31.037
O  49.418  46.294  31.719
O  53.762  46.265  34.520
O  59.812  32.933  52.231
O  41.458  45.990  71.383
O  73.676  52.674  50.104
O  53.044  24.147  49.116
O  64.049  39.600  32.084
O  63.303  62.298  44.185
O  40.617  49.200  62.626
O  40.223  52.917  26.643
O  37.382  39.328  27.556
O  35.811  60.934  34.107
O  65.452  58.725  64.803
O  46.298  47.912  49.185
O  32.836  56.706  31.163
O  51.500  32.762  28.307
O  39.270  45.311  29.477
O  38.241  49.275  67.549
O  72.114  65.700  40.587
O  71.043  39.887  64.353
O  71.255  39.531  57.035
O  30.947  46.841  48.522
O  37.936  49.387  61.862
O  60.297  32.555  68.263
O  47.832  51.860  38.676
O  55.424  30.320  43.568
O  57.118  33.378  50.102
O  45.820  45.876  73.332
O  68.630  57.981  53.548
O  71.888  56.738  48.668
O  40.079  52.240  63.160
O  38.319  58.555  36.705
O  31.767  48.576  67.194
O  32.022  31.806  46.861
O  39.145  73.120  48.600
O  45.974  71.398  49.102
O  59.065  65.199  58.246
O  44.699  43.309  61.134
O  53.745  66.946  65.734
O  36.763  72.018  40.261
O  54.365  59.714  72.091
O  36.100  31.600  57.550
O  65.908  47.932  35.461
O  58.213  37.735  67.495
O  60.915  74.621  40.625
O  46.775  48.306  73.387
O  45.246  58.222  65.727
O  53.268  39.547  47.794
O  26.309  36.986  59.130
O  35.260  45.363  31.563
O  55.419  41.473  63.707
O  37.383  44.995  27.104
O  50.261  65.325  32.448
O  43.729  61.055  63.330
O  53.597  38.694  45.294
O  30.295  69.864  47.232
O  63.014  50.020  25.679
O  44.360  67.175  63.698
O  35.330  42.461  42.743
O  46.672  64.537  64.184
O  62.212  51.273  54.668
O  38.916  37.172  38.313
O  46.499  67.474  31.155
O  43.552  53.388  65.051
O  64.143  52.150  52.751
O  57.727  44.649  55.938
O  72.964  64.663  43.107
O  47.235  49.598  21.838
O  53.018  34.486  38.631
O  54.915  28.707  62.028
O  59.561  34.092  30.384
O  57.202  45.128  59.048
O  52.001  27.086  63.410
O  37.759  56.540  39.804
O  46.867  40.986  27.701
O  43.079  66.410  44.042
O  48.875  76.591  60.438
O  49.585  46.494  23.193
O  46.047  51.269  28.411
O  57.391  69.333  51.161
O  39.935  55.539  56.024
O  70.338  60.804  62.146
O  26.503  52.069  55.489
O  39.150  28.998  61.886
O  30.495  62.296  55.090
O  52.217  43.026  61.870
O  53.860  33.525  63.953
O  41.457  52.155  41.510
O  63.109  46.772  70.767
O  51.808  25.912  34.484
O  40.615  69.940  66.889
O  36.131  32.219  33.843
O  44.038  51.700  72.504
O  61.728  51.294  48.988
O  39.693  40.908  33.617
O  41.615  52.034  66.113
O  57.295  62.243  45.290
O  46.828  28.119  66.341
O  66.262  51.018  42.298
O  35.418  50.346  57.045
O  57.120  23.536  53.090
O  58.102  60.499  47.286
O  42.317  67.368  29.541
O  60.419  60.697  31.538
O  40.967  43.288  47.534
O  32.148  45.579  45.938
O  61.162  44.925  26.784
O  61.675  42.817  39.816
O  29.321  41.845  34.750
O  41.389  55.029  53.764
O  47.896  30.993  68.919
O  68.482  62.606  42.573
O  53.428  38.202  67.659
O  31.792  39.410  39.084
O  41.727  62.493  34.166
O  50.238  78.103  55.174
O  63.163  62.287  56.801
O  64.924  47.278  45.997
O  33.853  41.113  66.419
O  44.529  36.237  46.721
O  27.805  58.226  50.724
O  51.026  72.142  47.536
O  27.344  50.439  34.929
O  32.187  38.336  47.805
O  37.972  70.034  54.760
O  69.273  42.101  49.519
O  47.260  29.856  44.880
O  64.909  40.764  34.632
O  69.735  38.535  49.899
O  63.460  35.598  34.130
O  62.409  47.275  68.012
O  42.391  61.466  43.353
O  53.258  68.860  32.309
O  59.748  33.380  56.189
O  49.610  61.119  25.981
O  58.849  39.619  60.363
O  41.895  33.748  38.868
O  57.260  37.172  70.214
O  73.099  56.256  54.201
O  50.492  53.609  73.767
O  59.918  72.194  39.404
O  55.041  24.050  59.681
O  64.588  51.627  33.873
O  41.546  31.367  51.732
O  37.294  51.085  52.665
O  48.456  43.249  28.563
O  50.267  69.583  44.856
O  66.863  57.446  45.855
O  45.032  51.542  69.461
O  40.690  27.700  63.946
O  56.769  57.978  72.303
O  42.284  52.444  55.803
O  53.982  30.162  64.412
O  35.389  64.828  36.762
O  54.558  51.897  70.394
O  33.418  40.191  69.338
O  30.491  62.951  64.397
O  31.031  50.727  60.830
O  45.948  62.525  62.281
O  76.274  47.725  49.955
O  48.012  59.585  37.704
O  41.894  55.388  64.500
O  52.093  64.525  53.294
O  56.792  43.211  50.924
O  47.796  21.405  50.088
O  47.068  53.155  23.987
O  66.512  39.926  46.097
O  37.668  64.310  70.671
O  28.306  56.527  39.224
O  44.649  68.060  42.276
O  29.315  39.727  37.969
O  44.226  25.240  35.085
O  39.748  61.732  70.321
O  62.767  36.885  52.616
O  71.153  53.958  50.865
O  30.555  48.299  29.795
O  61.055  72.319  42.280
O  64.268  43.771  40.142
O  68.459  53.932  52.835
O  57.105  30.344  60.267
O  59.178  56.934  59.514
O  46.641  63.589  54.835
O  54.680  62.621  73.633
O  62.687  60.604  46.338
O  47.766  63.683  37.504
O  56.980  26.945  44.652
O  54.826  26.973  52.627
O  39.204  47.221  48.930
O  47.710  42.671  57.216
O  29.611  57.159  53.239
O  64.491  35.703  43.879
O  41.572  31.012  60.411
O  42.494  40.819  33.624
O  46.833  38.064  31.294
O  59.586  49.662  39.592
O  43.195  62.953  25.727
O  59.416  66.063  50.185
O  36.364  63.038  50.241
O  67.360  58.073  62.596
O  64.779  30.564  63.475
O  28.315  36.028  46.651
O  51.492  44.343  22.720
O  54.924  26.277  64.255
O  52.566  49.355  35.453
O  46.172  40.663  32.846
O  41.597  72.838  56.660
O  45.843  37.033  71.592
O  27.553  37.595  39.186
O  57.442  53.831  23.666
O  59.016  46.378  64.374
O  66.898  49.748  44.977
O  67.356  39.956  48.922
O  52.100  56.385  61.139
O  34.110  44.097  56.164
O  69.025  31.017  58.255
O  46.388  44.378  40.290
O  46.320  67.038  39.973
O  38.965  53.192  58.278
O  48.780  45.162  76.424
O  30.654  49.194  42.693
O  60.990  59.935  44.222
O  25.459  55.631  40.361
O  35.081  28.971  56.668
O  49.863  29.879  58.737
O  50.726  35.829  66.122
O  49.077  52.173  26.547
O  75.229  50.508  56.371
O  56.224  40.317  50.258
O  57.741  34.065  53.788
O  67.488  63.684  65.233
O  32.646  37.997  53.855
O  31.462  42.606  56.411
O  45.463  31.481  64.337
O  70.103  49.328  62.583
O  59.612  68.786  31.588
O  34.299  72.849  55.081
O  40.815  68.631  34.977
O  66.515  46.810  48.468
O  47.402  63.283  72.088
O  35.392  55.333  30.874
O  58.905  64.222  69.435
O  69.594  42.424  69.427
O  33.909  47.001  47.347
O  73.115  36.231  44.418
O  62.189  55.743  46.141
O  40.721  52.880  47.773
O  63.752  40.593  39.060
O  75.179  38.249  41.347
O  50.152  36.599  33.378
O  60.919  45.593  23.953
O  75.068  38.839  53.612
O  70.316  41.576  46.890
O  70.160  63.442  39.551
O  49.721  75.498  54.452
O  46.784  52.994  76.832
O  65.686  38.599  55.638
O  73.074  55.545  37.156
O  39.162  54.004  41.307
O  45.566  26.183  47.782
O  63.775  41.332  54.294
O  54.613  37.520  50.242
O  61.589  38.662  46.046
O  28.433  37.977  64.009
O  33.062  46.363  29.756
O  57.101  38.878  30.578
O  39.356  33.024  54.689
O  56.845  54.872  44.342
O  49.102  53.830  37.428
O  59.334  64.362  29.720
O  42.191  43.242  39.540
O  30.781  55.381  29.589
O  41.896  42.043  67.007
O  72.131  51.914  38.668
O  41.709  46.821  35.335
O  41.134  76.048  55.997
O  54.237  55.308  42.557
O  45.067  43.538  32.664
O  33.084  61.098  52.595
O  38.959  56.642  44.975
O  38.173  56.620  61.726
O  66.715  41.434  58.688
O  63.058  36.532  27.480
O  29.823  47.815  61.636
O  36.778  47.575  47.396
O  52.204  36.441  35.417
O  37.589  65.478  32.580
O  72.672  51.889  52.693
O  40.261  68.716  45.865
O  46.415  37.751  55.414
O  32.809  27.532  42.706
O  40.388  37.338  33.378
O  55.768  39.227  42.166
O  45.664  43.642  55.159
O  67.744  37.294  48.240
O  45.401  38.046  66.253
O  40.678  50.508  27.412
O  55.594  59.952  55.465
O  35.807  48.568  42.308
O  38.562  47.166  34.938
O  71.541  58.058  43.895
O  49.356  66.469  29.689
O  59.631  32.677  63.388
O  59.437  55.132  43.569
O  73.804  47.842  36.281
O  24.768  57.704  57.857
O  47.505  50.912  35.948
O  39.603  63.556  37.108
O  31.408  51.070  30.430
O  31.558  67.255  60.760
O  47.318  26.745  51.432
O  54.027  34.460  35.498
O  42.372  53.216  70.532
O  29.280  45.942  52.330
O  32.416  64.477  62.327
O  71.316  44.534  34.950
O  55.808  63.910  58.588
O  42.037  34.484  55.179
O  73.213  65.760  57.341
O  58.059  70.456  46.384
O  55.082  59.620  68.576
O  47.440  38.898  73.714
O  59.323  57.387  41.236
O  60.508  59.237  56.617
O  36.933  47.522  57.660
O  53.867  55.390  37.503
O  68.961  55.366  29.251
O  38.501  39.083  50.860
O  38.930  38.597  35.761
O  40.626  50.624  68.133
O  37.622  38.749  63.788
O  61.826  43.986  37.543
O  61.542  61.328  54.034
O  69.560  47.035  34.644
O  47.805  49.492  77.108
O  40.526  46.261  63.082
O  40.669  37.147  69.331
O  43.137  60.953  32.245
O  46.665  55.228  70.195
O  66.759  67.882  56.565
O  35.300  34.344  57.942
O  71.745  55.398  65.069
O  37.201  68.005  41.542
O  29.910  50.160  55.540
O  49.781  35.187  57.824
O  43.677  63.830  63.794
O  67.450  70.935  60.876
O  56.810  67.670  68.174
O  73.629  46.510  49.708
O  63.554  40.686  45.963
O  32.856  39.575  50.250
O  55.630  42.144  23.419
O  47.878  71.191  68.853
O  46.647  22.030  45.424
O  48.671  67.980  37.791
O  60.582  54.176  28.281
O  42.589  57.034  49.333
O  62.067  26.958  49.548
O  66.359  47.197  43.420
O  69.452  38.913  45.856
O  50.545  26.088  44.962
O  33.304  49.270  41.365
O  40.334  39.391  59.649
O  46.845  69.596  40.570
O  65.567  48.985  32.480
O  50.321  31.870  38.686
O  43.118  51.490  47.630
O  64.740  60.848  39.425
O  54.089  72.335  41.630
O  40.159  44.911  54.452
O  57.133  72.840  60.024
O  37.400  73.672  59.381
O  40.520  48.502  23.826
O  37.350  69.900  44.836
O  72.403  36.621  54.052
O  48.772  28.035  46.581
O  61.523  48.591  48.333
O  53.854  28.996  54.562
O  33.308  57.380  36.289
O  71.542  42.257  41.331
O  37.652  40.860  35.483
O  62.149  56.769  39.418
O  51.627  42.962  71.214
O  51.608  45.747  25.828
O  66.789  43.663  42.666
O  65.443  55.146  32.585
O  39.813  60.566  34.110
O  44.355  64.536  60.782
O  64.254  64.632  40.162
O  64.485  31.181  60.538
O  46.926  50.962  71.408
O  61.115  40.311  73.656
O  43.747  67.791  39.462
O  40.141  28.347  42.686
O  38.109  70.439  47.757
O  65.480  67.718  39.921
O  31.714  40.535  44.050
O  55.898  57.146  75.129
O  27.686  36.870  56.597
O  31.568  61.205  66.573
O  39.286  48.834  72.649
O  39.535  71.054  61.256
O  61.670  41.701  55.828
O  64.642  45.356  42.560
O  62.723  26.136  46.814
O  53.148  36.108  62.669
O  57.344  34.839  56.698
O  56.672  54.740  68.357
O  48.527  60.780  73.113
O  41.444  34.743  49.326
O  32.370  58.931  38.909
O  57.025  51.983  71.855
O  38.675  57.719  57.274
O  34.197  31.615  59.946
O  33.800  56.821  46.530
O  39.506  36.828  64.906
O  51.590  23.051  55.950
O  44.859  65.550  69.809
O  47.809  51.600  67.662
O  44.733  69.210  49.952
O  39.776  34.850  58.331
O  52.466  25.392  58.877
O  44.192  31.882  38.876
O  50.947  38.603  57.080
O  25.049  62.524  53.119
O  70.172  66.204  49.180
O  67.308  37.431  44.095
O  27.299  56.149  62.403
O  35.899  41.295  68.325
O  48.467  41.398  23.202
O  66.302  39.279  38.312
O  46.093  68.745  65.086
O  51.547  58.808  57.513
O  63.050  62.065  41.151
O  68.029  47.522  68.148
O  63.316  63.327  47.070
O  65.419  37.982  34.170
O  38.436  29.132  37.281
O  36.469  37.328  48.946
O  62.346  32.052  51.797
O  61.884  75.524  52.579
O  46.476  61.107  35.839
O  52.732  63.422  64.035
O  43.988  71.245  46.879
O  50.630  72.343  36.265
O  66.119  41.390  61.300
O  35.822  64.792  62.247
O  66.159  53.147  30.567
O  52.494  44.026  64.524
O  51.183  26.716  41.726
O  65.032  52.502  55.233
O  32.629  36.944  58.130
O  67.157  43.995  62.138
O  65.888  42.501  45.112
O  49.043  68.364  50.170
O  65.755  54.841  47.519
O  58.545  60.486  53.176
O  50.414  51.408  36.499
O  39.855  54.269  61.169
O  58.842  42.369  54.000
O  29.063  57.289  48.356
O  65.568  52.548  44.727
O  24.736  46.937  39.272
O  44.403  52.078  39.433
O  36.479  39.409  33.628
O  31.785  52.000  36.956
O  51.312  25.577  53.066
O  54.090  40.635  52.920
O  72.644  39.344  44.629
O  68.935  51.407  45.575
O  62.603  28.004  52.467
O  28.099  51.309  53.555
O  61.320  45.128  48.118
O  37.858  43.416  36.693
O  65.024  62.608  67.126
O  76.626  40.063  44.029
O  44.787  72.382  63.972
O  58.899  75.564  50.046
O  44.405  61.450  54.345
O  36.302  33.013  43.203
O  69.357  46.756  48.176
O  55.918  60.551  40.099
O  34.838  35.570  53.993
O  53.306  22.254  44.713
O  63.371  43.166  58.162
O  64.719  41.028  70.920
O  36.133  51.878  37.503
O  62.770  49.066  57.121
O  45.398  45.103  57.896
O  39.043  60.534  55.984
O  54.766  25.748  42.328
O  52.368  36.444  56.021
O  41.087  64.919  57.865
O  57.113  32.999  31.504
O  31.804  39.917  31.409
O  54.194  29.437  51.758
O  56.117  27.630  59.516
O  43.855  68.095  71.497
O  48.437  44.746  36.735
O  26.384  62.801  46.237
O  58.101  23.110  50.332
O  36.571  66.850  35.242
O  39.082  71.906  57.932
O  25.210  48.856  37.021
O  36.789  36.480  72.438
O  25.372  59.589  45.512
O  47.582  65.322  32.524
O  70.977  53.526  60.068
O  37.077  62.875  68.080
O  41.344  47.902  74.490
O  60.595  45.870  66.685
O  62.814  31.970  54.326
O  26.514  48.317  66.280
O  34.059  71.028  39.053
O  53.860  27.945  34.904
O  75.626  57.263  38.493
O  32.975  28.193  53.581
O  67.077  31.581  55.852
O  44.250  46.136  69.519
O  69.341  43.620  41.499
O  50.509  71.349  62.700
O  39.716  36.769  72.261
O  62.364  61.744  27.947
O  63.916  56.922  67.408
O  74.558  61.834  48.470
O  72.342  46.177  42.917
O  45.993  53.474  59.908
O  37.336  59.934  59.401
O  52.391  39.093  29.934
O  56.176  56.752  25.996
O  41.997  44.970  31.188
O  58.295  68.866  61.511
O  39.096  32.869  48.899
O  57.829  65.982  55.781
O  65.451  61.816  42.879
O  69.423  33.206  53.077
O  32.905  51.858  52.970
O  44.259  60.554  60.872
O  66.020  35.319  38.692
O  46.018  62.582  44.722
O  29.791  45.598  56.036
O  68.192  68.226  45.675
O  56.197  65.943  70.417
O  44.873  66.214  55.746
O  58.285  40.806  62.866
O  54.162  28.034  57.247
O  47.965  56.836  66.054
O  63.264  49.405  72.741
O  77.884  44.605  48.586
O  68.149  37.087  68.424
O  59.256  59.443  71.667
O  57.572  62.830  73.199
O  24.349  60.342  42.545
O  42.918  62.256  37.246
O  57.459  39.564  44.600
O  72.185  52.930  63.610
O  44.316  59.252  48.509
O  47.271  64.317  29.798
O  69.037  45.151  57.276
O  36.105  40.373  50.636
O  40.290  59.837  68.108
O  59.838  47.392  70.008
O  31.280  44.342  29.130
O  38.932  37.230  26.312
O  56.571  29.577  53.795
O  42.869  74.403  51.359
O  29.489  41.860  40.203
O  36.038  68.275  48.429
O  55.504  69.908  43.245
O  70.940  59.212  53.584
O  51.661  37.195  27.987
O  59.669  53.246  75.806
O  25.858  57.437  47.714
O  33.282  57.362  49.046
O  36.862  30.949  41.022
O  31.703  67.539  45.482
O  52.631  68.957  43.312
O  36.850  27.405  57.822
O  37.980  51.288  27.526
O  64.259  69.956  53.867
O  37.554  53.920  33.428
O  57.511  63.991  48.018
O  32.181  34.953  41.133
O  59.704  65.696  65.550
O  37.567  63.291  64.060
O  48.911  50.598  40.963
O  67.085  64.574  62.444
O  48.655  75.656  43.197
O  70.193  50.141  30.531
O  54.949  65.883  55.424
O  61.183  57.779  26.490
O  42.107  64.375  39.316
O  46.784  61.803  47.323
O  36.470  57.180  65.183
O  65.889  61.006  58.919
O  35.569  54.500  35.348
O  56.644  49.841  69.619
O  47.829  60.756  61.174
O  54.025  72.371  45.346
O  40.398  44.426  37.611
O  41.882  66.243  68.808
O  41.885  34.560  29.595
O  62.551  36.807  38.191
O  42.921  53.972  58.179
O  62.614  60.724  71.823
O  27.138  57.373  42.666
O  69.874  47.176  30.251
O  59.019  45.078  61.604
O  54.958  32.193  51.896
O  51.577  52.505  70.821
O  58.106  52.493  28.013
O  49.920  26.823  49.886
O  57.728  73.255  62.835
O  63.137  59.571  68.258
O  60.877  26.610  60.451
O  60.202  23.996  45.292
O  41.852  56.196  32.619
O  50.747  37.692  38.218
O  68.882  44.087  67.474
O  46.101  75.748  45.253
O  54.117  43.986  28.448
O  63.225  52.385  46.381
O  34.373  58.026  42.426
O  39.728  47.734  45.781
O  36.418  26.944  49.735
O  39.626  50.583  45.976
O  30.353  50.021  52.626
O  51.876  28.940  46.685
O  49.302  39.066  42.303
O  34.705  41.678  60.687
O  32.559  60.514  29.598
O  69.776  42.149  58.584
O  48.291  61.176  40.096
O  59.696  66.688  53.987
O  49.829  37.574  30.526
O  34.743  43.540  26.934
O  54.785  65.064  49.328
O  29.645  43.393  53.888
O  39.987  55.408  47.080
O  26.529  39.556  61.819
O  50.460  21.879  51.440
O  46.804  72.164  55.542
O  37.079  34.049  50.196
O  36.397  48.788  30.175
O  50.877  52.928  24.359
O  50.625  60.678  41.789
O  48.920  23.272  53.446
O  58.595  58.554  25.704
O  42.499  48.845  66.172
O  33.651  60.215  32.539
O  41.222  25.433  54.117
O  65.522  43.715  53.945
O  25.255  53.988  62.175
O  73.680  44.175  54.241
O  53.439  65.441  36.372
O  51.462  51.430  22.006
O  47.467  65.285  50.001
O  61.198  67.418  67.080
O  33.099  68.119  58.042
O  34.482  47.395  55.423
O  45.655  45.748  77.684
O  34.593  27.870  47.718
O  50.402  29.417  63.089
O  53.567  55.793  24.151
O  53.357  41.702  25.230
O  36.693  38.281  68.731
O  43.023  37.820  53.712
O  70.707  48.673  66.409
O  51.154  46.669  64.361
O  56.858  71.142  67.894
O  61.097  35.603  70.010
O  59.637  69.635  37.233
O  59.107  51.332  58.603
O  33.856  46.999  43.590
O  39.552  72.516  53.996
O  58.839  61.163  29.094
O  36.622  46.650  44.747
O  27.262  45.177  40.288
O  53.364  61.423  27.975
O  30.631  50.826  34.829
O  22.488  54.437  46.130
O  33.222  42.838  53.736
O  55.340  41.717  36.538
O  59.964  31.272  47.482
O  67.104  44.122  59.232
O  28.606  55.034  41.840
O  74.713  42.438  48.534
O  47.245  35.018  55.822
O  59.004  48.956  52.687
O  57.265  72.071  57.261
O  29.623  52.888  65.804
O  31.307  55.581  47.674
O  41.586  65.559  60.676
O  31.321  47.748  40.349
O  47.290  59.712  45.426
O  59.126  44.344  49.508
O  62.005  50.906  59.302
O  38.749  63.075  48.808
O  65.455  50.757  26.142
O  55.359  31.765  55.013
O  58.860  50.504  25.945
O  42.526  66.976  51.271
O  74.842  41.609  52.441
O  31.414  39.285  36.163
O  39.334  57.445  42.295
O  73.221  56.681  62.267
O  35.737  71.540  58.170
O  61.961  59.420  29.464
O  33.995  32.414  35.628
O  61.709  63.254  59.159
O  65.840  31.158  42.502
O  41.339  50.574  31.351
O  61.273  66.913  63.515
O  25.986  43.060  63.819
O  31.857  53.729  45.311
O  36.357  53.378  73.803
O  34.140  62.434  48.573
O  57.713  31.114  33.724
O  46.270  27.674  55.896
O  32.544  48.346  33.810
O  51.627  68.007  35.626
O  39.438  27.761  48.386
O  57.485  52.099  34.209
O  32.053  65.186  43.610
O  42.699  57.694  54.009
O  68.265  40.104  36.072
O  64.546  54.977  53.913
O  29.311  43.488  30.955
O  62.118  49.401  69.497
O  50.496  59.886  32.563
O  45.724  28.958  38.377
O  50.319  40.490  37.848
O  39.269  39.638  56.217
O  39.842  63.352  60.125
O  48.234  28.178  61.230
O  52.288  30.443  56.587
O  62.721  56.785  29.251
O  61.459  64.814  39.356
O  40.957  33.404  46.662
O  60.588  38.869  52.659
O  62.235  55.319  25.176
O  61.969  63.729  49.513
O  33.851  55.659  43.936
O  42.009  39.992  55.107
O  35.250  42.637  46.837
O  62.758  49.198  62.804
O  55.011  70.448  61.779
O  60.763  51.484  51.608
O  42.998  30.555  62.984
O  65.011  44.475  46.785
O  45.983  48.571  31.824
O  40.654  59.593  45.919
O  40.132  51.158  52.943
O  28.853  61.140  49.776
O  44.308  25.113  43.836
O  38.132  46.778  31.827
O  51.014  40.571  51.746
O  54.394  49.820  37.883
O  32.356  36.136  67.225
O  68.359  57.366  36.731
O  42.329  29.587  37.689
O  42.193  35.275  32.862
O  56.536  66.378  37.012
O  51.378  41.191  23.245
O  36.913  70.844  35.685
O  73.048  40.249  37.337
O  40.767  65.606  28.142
O  29.913  64.080  50.227
O  24.417  51.893  57.511
O  58.193  72.490  32.768
O  61.798  56.692  63.584
O  62.918  28.868  55.708
O  42.654  26.853  57.815
O  46.947  54.029  66.173
O  40.710  55.815  58.782
O  67.708  46.831  58.962
O  62.282  70.039  36.614
O  41.968  72.091  45.382
O  47.673  60.545  28.184
O  56.058  59.449  62.908
O  44.030  24.979  38.916
O  69.673  57.498  40.707
O  33.383  44.977  71.724
O  57.755  51.645  74.495
O  48.679  71.888  41.295
O  39.517  44.627  35.157
O  43.062  60.787  40.176
O  38.948  67.687  43.553
O  61.142  48.395  65.108
O  32.847  45.745  34.755
O  49.806  33.623  36.522
O  62.624  74.933  45.435
O  52.651  61.153  68.490
O  43.737  73.609  38.443
O  63.496  57.558  44.449
O  68.761  35.463  54.427
O  64.741  51.465  61.026
O  40.667  44.294  68.039
O  38.823  41.687  52.472
O  57.659  66.326  42.243
O  52.531  37.494  65.065
O  50.955  49.624  71.157
O  27.002  59.705  55.053
O  31.952  50.666  50.535
O  28.528  42.999  62.397
O  50.378  34.432  69.923
O  32.171  65.182  35.448
O  52.691  59.237  44.172
O  37.640  56.284  29.638
O  35.601  49.052  67.020
O  71.875  52.425  57.430
O  38.232  54.345  27.692
O  55.729  40.761  69.288
O  44.041  31.503  44.365
O  63.350  64.476  36.332
O  45.063  53.745  37.328
O  71.306  50.328  59.832
O  60.172  42.843  62.863
O  56.845  25.862  37.443
O  41.318  67.422  37.392
O  57.916  54.784  60.977
O  64.023  36.511  59.621
O  44.440  27.617  45.509
O  66.110  55.438  28.771
O  39.858  31.730  33.402
O  43.485  59.479  44.931
O  49.081  58.359  25.674
O  56.696  46.156  74.150
O  68.162  62.363  34.132
O  50.735  32.317  67.882
O  25.539  52.054  64.589
O  41.698  68.769  43.370
O  34.460  35.465  33.221
O  59.038  64.651  36.255
O  33.612  72.460  50.183
O  64.373  33.138  50.023
O  42.361  62.750  61.220
O  66.441  51.010  48.007
O  71.794  40.684  48.973
O  57.764  53.708  31.752
O  32.383  43.266  36.407
O  47.227  42.862  62.909
O  55.259  51.678  30.337
O  46.749  21.435  52.638
O  39.823  67.539  32.504
O  33.852  51.948  49.088
O  63.544  46.456  48.628
O  35.306  36.972  63.698
O  43.402  38.111  32.924
O  63.558  32.459  57.028
O  44.333  56.699  31.154
O  57.637  42.176  32.490
O  66.994  49.045  50.385
O  48.091  35.901  28.833
O  48.955  73.622  49.419
O  39.229  70.163  42.056
O  59.986  23.912  52.670
O  32.407  39.617  56.125
O  50.679  38.183  71.611
O  67.090  54.554  55.206
O  59.027  26.102  39.026
O  65.062  40.895  42.799
O  36.475  74.396  51.032
O  63.869  48.090  42.322
O  37.911  25.565  47.071
O  36.554  65.523  42.804
O  67.224  45.638  45.336
O  68.422  43.901  54.885
O  60.155  62.297  26.516
O  24.792  52.193  52.264
O  60.732  36.277  55.055
O  71.286  56.498  59.428
O  48.369  63.276  27.348
O  48.710  50.234  24.135
O  56.178  66.036  33.944
O  55.199  55.072  32.417
O  66.541  65.790  54.287
O  29.684  40.446  64.887
O  44.350  26.324  53.818
O  47.272  28.269  48.805
O  64.627  28.429  58.680
O  74.876  41.099  41.893
O  62.001  49.426  34.452
O  54.102  43.286  67.947
O  41.729  30.323  29.828
O  68.280  51.407  67.224
O  48.772  74.697  46.036
O  69.434  48.722  46.038
O  47.698  45.176  53.670
O  29.764  50.639  58.198
O  50.568  28.968  40.263
O  48.086  27.390  63.912
O  41.308  38.614  48.242
O  54.886  30.440  34.460
O  34.135  51.712  28.473
O  55.655  52.662  41.800
O  37.621  51.485  71.473
O  44.317  31.483  52.682
O  63.358  59.062  50.143
O  37.306  68.718  32.989
O  37.617  38.402  54.151
O  53.930  48.911  31.766
O  42.967  63.275  30.480
O  60.083  64.582  44.618
O  59.631  53.485  70.522
O  55.306  52.926  37.760
O  33.807  67.527  33.939
O  51.801  28.780  43.802
O  41.652  69.335  59.958
O  69.031  44.704  31.285
O  68.877  34.523  57.539
O  61.525  45.429  59.794
O  54.009  56.905  39.917
O  41.441  32.524  57.989
O  43.077  35.006  71.228
O  40.406  62.753  63.526
O  59.345  48.886  23.576
O  40.577  70.794  32.914
O  48.452  55.089  59.837
O  46.704  61.243  68.211
O  21.746  43.843  51.960
O  47.888  32.452  34.678
O  69.909  31.511  42.220
O  41.046  39.291  66.357
O  44.913  43.035  68.112
O  64.699  71.331  37.554
O  63.442  57.616  58.075
O  45.770  36.068  33.317
O  34.898  69.152  43.321
O  61.636  64.987  56.853
O  27.313  63.305  40.347
O  27.796  60.663  47.330
O  30.675  45.077  62.337
O  52.184  31.763  47.844
O  40.382  72.140  51.193
O  59.609  55.533  38.834
O  40.780  27.740  39.816
O  30.114  32.722  41.141
O  32.503  34.837  44.138
O  34.416  67.709  54.499
O  66.089  36.314  46.408
O  31.212  48.160  58.674
O  56.243  43.257  70.410
O  27.828  45.921  44.038
O  38.052  59.183  39.608
O  67.635  44.314  39.167
O  45.007  69.924  55.209
O  66.864  60.863  37.587
O  32.090  60.058  42.997
O  29.962  53.626  49.074
O  36.004  54.172  51.341
O  46.878  56.438  24.646
O  56.059  47.491  33.005
O  53.959  62.079  47.265
O  35.794  40.610  37.653
O  38.530  53.717  52.338
O  56.578  47.250  29.686
O  50.595  26.598  60.730
O  63.839  51.532  40.630
O  70.467  44.925  49.644
O  50.345  59.795  35.961
O  58.951  68.595  40.183
O  66.298  60.147  52.311
O  51.929  76.520  42.932
O  31.745  49.960  39.001
O  53.001  35.858  58.837
O  53.145  51.969  36.194
O  25.207  57.627  53.804
O  34.678  53.359  32.983
O  66.740  61.433  49.353
O  56.737  69.994  55.217
O  44.682  58.757  56.462
O  46.470  65.960  72.442
O  47.714  32.207  56.530
O  42.308  36.123  58.575
O  55.368  72.467  54.847
O  46.432  41.991  30.272
O  39.451  53.084  55.056
O  55.403  64.991  64.454
O  63.445  51.226  66.988
O  52.673  53.879  40.750
O  36.432  54.513  44.637
O  34.657  47.357  35.873
O  38.611  57.809  73.255
O  27.948  61.296  63.804
O  26.118  52.867  46.602
O  72.318  43.360  37.595
O  46.153  44.844  70.658
O  58.499  67.823  35.443
O  71.586  61.280  55.342
O  61.757  55.342  41.876
O  60.576  46.851  40.115
O  29.194  46.973  46.156
O  47.574  66.230  42.157
O  64.885  55.386  45.001
O  36.859  59.227  51.493
O  38.945  32.649  44.692
O  63.204  36.044  47.135
O  72.337  37.684  42.118
O  52.181  32.244  35.544
O  27.750  33.284  44.181
O  49.825  47.585  61.467
O  30.378  37.681  43.325
O  62.362  24.390  50.836
O  37.026  71.042  63.170
O  39.378  61.393  41.369
O  52.005  69.638  51.199
O  49.477  42.698  76.486
O  38.008  56.897  68.937
O  44.507  36.130  68.693
O  21.379  46.951  51.036
O  43.747  40.305  73.439
O  51.336  72.490  54.573
O  49.496  60.891  57.634
O  28.911  50.057  48.407
O  59.699  33.972  65.906
O  53.696  46.137  67.655
O  34.307  52.886  67.256
O  60.567  66.759  37.905
O  71.052  45.294  40.058
O  48.409  36.485  72.250
O  26.221  65.995  46.801
O  72.971  56.876  40.660
O  74.595  43.689  57.480
O  35.924  42.361  57.616
O  67.727  53.366  41.304
O  38.350  48.708  43.500
O  34.991  39.768  40.419
O  51.308  72.194  50.452
O  45.052  32.852  55.017
O  56.046  63.460  68.892
O  70.239  65.947  44.495
O  50.191  42.872  68.737
O  35.319  26.679  52.438
O  62.653  26.603  40.701
O  41.346  64.444  42.507
O  67.080  67.066  64.048
O  25.746  54.854  53.566
O  49.823  73.864  56.772
O  38.876  57.790  54.562
O  24.611  40.021  47.261
O  62.367  48.170  23.543
O  65.384  50.320  57.437
O  72.039  50.339  46.502
O  38.685  51.788  32.076
O  67.360  38.615  40.946
O  24.410  48.071  61.564
O  65.102  44.186  69.859
O  67.099  42.670  35.042
O  35.134  58.144  39.697
O  39.050  64.937  44.222
O  38.771  41.301  60.794
O  30.797  53.385  63.086
O  50.381  50.707  28.660
O  48.364  37.704  66.009
O  55.757  39.119  66.719
O  41.834  46.918  68.402
O  49.256  68.621  64.595
O  43.012  71.525  49.680
O  58.001  30.467  66.257
O  36.041  44.890  68.904
O  32.548  61.040  64.023
O  52.017  39.446  54.419
O  35.539  46.303  28.963
O  42.550  72.459  36.233
O  56.184  49.190  24.891
O  25.478  52.440  35.709
O  73.663  52.612  59.904
O  61.102  50.866  23.886
O  61.971  42.245  47.725
O  30.314  61.775  51.895
O  50.026  57.483  28.206
O  70.355  55.188  62.556
O  66.030  73.859  52.804
O  72.098  35.379  40.299
O  67.903  68.634  48.700
O  48.181  70.670  65.997
O  45.459  31.352  34.907
O  61.108  41.733  26.926
O  33.044  49.343  62.093
O  42.503  52.540  53.109
O  48.142  32.069  52.423
O  36.251  54.498  47.502
O  59.709  35.850  57.586
O  30.091  38.518  57.470
O  37.014  39.510  71.183
O  37.552  54.086  37.211
O  66.697  60.996  65.753
O  45.988  31.784  71.119
O  70.378  34.226  42.477
O  49.845  40.087  75.299
O  31.033  56.226  50.534
O  72.429  50.290  55.295
O  63.663  35.632  55.814
O  40.028  74.094  37.456
O  29.323  36.128  59.027
O  66.186  64.133  51.067
O  32.714  57.431  53.251
O  48.971  73.119  64.752
O  30.621  33.998  60.526
O  49.775  54.827  65.090
O  58.399  35.766  60.892
O  47.970  52.371  62.267
O  58.479  58.722  64.673
O  30.362  40.876  61.799
O  50.583  48.224  30.160
O  57.609  65.484  45.362
O  66.098  48.608  72.745
O  60.724  44.382  52.939
O  69.477  53.261  34.479
O  31.988  47.931  51.869
O  73.408  42.067  35.183
O  28.558  43.531  42.300
O  37.751  65.202  59.281
O  41.135  35.777  27.302
O  43.793  42.850  24.702
O  64.281  47.321  55.257
O  62.740  48.838  45.081
O  63.318  72.661  53.567
O  31.656  59.012  57.778
O  63.200  72.486  40.297
O  48.539  49.668  33.142
O  64.625  58.235  53.790
O  66.046  49.771  67.452
O  43.408  47.337  33.095
O  61.547  52.328  61.813
O  34.730  50.696  70.379
O  39.980  48.686  69.874
O  32.156  68.507  39.367
O  44.942  72.738  57.944
O  62.480  40.955  36.354
O  40.106  33.006  31.032
O  41.874  48.354  38.387
O  56.363  49.480  27.785
O  60.606  53.240  37.212
O  48.230  60.964  49.858
O  62.080  44.460  42.727
O  50.462  39.134  24.888
O  41.893  58.293  41.371
O  41.838  22.777  53.071
O  42.722  59.780  35.804
O  56.641  50.387  36.260
O  41.702  65.879  63.505
O  38.870  49.097  31.176
O  60.735  62.284  42.943
O  53.401  69.727  37.129
O  65.307  41.776  67.954
O  64.987  34.168  61.209
O  68.627  43.165  45.211
O  76.116  44.275  41.168
O  33.306  39.346  61.961
O  48.009  70.970  38.449
O  32.100  36.497  50.707
O  33.232  66.337  37.898
O  50.872  75.011  47.721
O  51.241  55.331  22.296
O  26.629  45.390  65.327
O  40.530  57.955  34.652
O  57.902  26.184  47.392
O  46.012  37.187  39.073
O  36.043  33.082  54.915
O  44.800  28.175  33.067
O  48.970  33.552  65.704
O  38.836  44.669  60.159
O  26.036  49.527  47.592
O  51.056  43.915  30.847
O  58.810  71.706  43.773
O  58.679  39.471  28.214
O  48.245  57.826  41.328
O  66.580  40.734  54.033
O  52.862  46.450  30.491
O  73.098  61.598  53.156
O  55.028  36.501  65.730
O  63.151  43.093  52.029
O  60.877  37.646  28.703
O  31.316  55.742  33.005
O  52.611  54.411  75.766
O  60.106  62.518  61.639
O  66.136  33.083  33.837
O  28.566  69.050  49.393
O  63.989  58.285  47.231
O  60.079  52.848  65.872
O  48.783  35.463  25.357
O  39.459  33.425  36.711
O  62.642  65.297  51.804
O  35.322  59.698  30.284
O  47.398  59.079  58.369
O  43.917  43.120  29.942
O  35.202  33.780  37.780
O  60.106  38.632  37.822
O  49.218  47.486  66.432
O  34.222  44.231  44.508
O  26.545  61.897  42.849
O  51.534  41.735  32.299
O  48.587  62.376  64.620
O  45.268  44.169  65.142
O  23.991  44.569  57.114
O  73.416  44.642  45.720
O  50.114  59.313  45.606
O  62.598  48.355  30.189
O  23.364  43.368  47.115
O  62.090  69.689  63.972
O  62.185  54.738  65.883
O  34.123  59.357  60.475
O  38.839  35.423  29.896
O  33.697  48.314  27.109
O  35.556  30.906  37.750
O  60.191  34.992  38.014
O  61.068  35.564  60.394
O  72.963  37.260  50.258
O  41.824  60.357  49.194
O  57.070  36.289  48.843
O  44.536  46.732  25.872
O  56.169  35.373  26.582
O  53.990  23.539  57.204
O  65.018  69.712  64.692
O  43.797  63.349  56.295
O  53.622  40.095  56.845
O  64.836  46.255  59.413
O  44.129  24.822  56.596
O  36.052  60.870  40.664
O  65.539  65.356  37.751
O  22.173  54.551  50.767
O  58.865  31.153  30.214
O  34.171  42.221  49.596
O  56.578  40.368  57.140
O  72.160  46.020  32.777
O  68.845  48.566  43.378
O  31.749  57.868  45.075
O  69.098  30.387  53.275
O  59.790  53.226  25.481
O  72.879  54.271  43.400
O  53.469  32.781  66.745
O  40.414  57.428  52.115
O  63.088  35.193  62.801
O  68.175  54.184  68.183
O  39.719  58.367  59.812
O  33.322  31.690  55.044
O  47.262  66.179  68.258
O  67.684  55.674  63.964
O  34.669  47.685  70.046
O  26.447  47.293  41.922
O  31.175  36.928  45.864
O  40.500  36.049  40.277
O  64.536  60.250  55.714
O  40.112  63.924  72.474
O  51.886  29.696  37.578
O  55.390  44.464  64.839
O  52.241  68.321  63.554
O  58.385  55.259  26.700
O  27.600  36.401  61.663
O  36.521  62.009  38.045
O  76.839  53.176  55.255
O  43.233  30.662  47.006
O  63.938  31.964  40.394
O  37.750  62.560  54.130
O  42.747  32.189  35.315
O  42.103  55.684  37.006
O  42.333  56.936  66.827
O  48.437  64.365  44.247
O  40.840  39.494  52.402
O  73.131  42.143  43.896
O  40.817  37.236  44.464
O  32.499  29.563  44.743
O  42.633  54.084  26.614
O  48.942  72.241  44.373
O  26.309  55.730  44.804
O  43.169  41.228  37.433
O  29.858  48.381  36.572
O  34.172  44.269  67.158
O  64.645  61.600  69.903
O  67.238  67.977  43.032
O  49.881  44.750  61.758
O  61.889  41.170  50.310
O  75.357  50.272  50.965
O  38.157  61.839  61.633
O  40.630  39.593  75.287
O  44.662  58.516  59.159
O  33.675  43.573  58.944
O  67.918  46.426  40.905
O  68.660  31.525  61.066
O  26.395  52.964  41.295
O  27.942  47.786  57.142
O  32.313  26.918  46.199
O  59.555  40.179  31.474
O  64.925  38.623  65.032
O  54.708  43.096  54.513
O  31.135  64.023  47.715
O  56.808  48.939  42.140
O  57.729  74.584  45.969
O  60.819  28.301  39.302
O  51.955  37.410  49.546
O  58.917  55.526  72.521
O  31.505  63.996  41.080
O  43.336  38.105  56.562
O  32.433  49.003  48.143
O  60.103  62.053  51.312
O  57.610  56.698  31.721
O  56.119  28.387  65.458
O  29.663  61.867  41.562
O  63.931  67.623  37.418
O  57.669  43.889  24.281
O  46.228  32.114  32.195
O  54.749  57.812  22.824
O  44.146  39.013  51.160
O  59.242  44.500  38.906
O  54.138  71.738  50.595
O  37.905  56.295  35.033
O  56.947  57.694  29.099
O  30.742  46.652  43.811
O  42.667  49.775  25.651
O  51.181  32.561  64.194
O  57.474  61.941  36.649
O  32.111  63.747  37.917
O  32.322  63.947  59.315
O  43.664  47.834  77.580
O  42.324  30.586  41.000
O  59.959  38.534  63.588
O  23.872  45.708  51.510
O  34.308  33.237  45.296
O  39.977  26.906  36.158
O  56.617  40.398  54.032
O  73.052  63.928  50.010
O  61.430  48.522  54.448
O  54.719  33.227  33.111
O  33.357  41.673  38.445
O  33.468  55.658  41.079
O  52.992  62.139  61.415
O  68.051  41.405  56.181
O  39.459  30.385  53.369
O  32.824  37.146  31.223
O  74.880  49.192  53.868
O  34.205  62.679  41.751
O  62.736  41.916  29.381
O  41.253  40.683  71.731
O  66.831  29.241  60.802
O  38.116  68.541  61.846
O  59.054  56.800  62.666
O  53.118  47.199  37.156
O  39.044  54.914  24.966
O  50.669  33.852  44.681
O  60.100  50.083  73.316
O  63.581  31.324  35.154
O  36.020  57.327  36.857
O  53.268  59.799  59.560
O  64.758  49.902  29.554
O  59.267  47.416  47.199
O  53.957  51.105  67.612
O  59.149  30.949  58.538
O  67.823  48.228  61.544
O  69.694  55.094  48.596
O  64.772  57.432  61.820
O  54.852  36.828  43.752
O  66.546  55.730  66.379
O  65.377  60.568  29.732
O  60.911  28.991  65.324
O  34.734  65.335  59.603
O  51.993  47.147  70.065
O  37.992  65.524  53.622
O  39.183  54.060  73.268
O  31.570  60.882  48.228
O  46.967  71.397  52.874
O  64.875  53.158  50.023
O  54.099  40.928  61.282
O  54.680  36.864  40.727
O  25.936  49.581  54.422
O  34.197  58.955  51.012
O  29.985  67.006  50.947
O  38.871  35.838  48.229
O  61.047  72.465  45.679
O  65.417  57.387  37.003
O  27.967  53.064  62.539
O  64.996  28.529  42.209
O  61.693  25.505  43.260
O  68.989  64.094  46.456
O  37.927  51.376  42.027
O  51.231  31.438  43.395
O  33.676  43.697  40.561
O  51.450  53.395  38.370
O  35.100  64.752  33.976
O  60.647  57.438  73.840
O  27.813  47.326  48.820
O  66.947  56.921  68.952
O  31.081  56.613  39.661
O  33.353  34.075  51.791
O  37.738  56.492  51.506
O  66.646  36.906  53.854
O  38.466  38.786  31.799
O  63.226  39.096  60.351
O  40.863  39.838  41.756
O  35.594  46.705  65.406
O  23.131  50.897  40.923
O  77.025  56.379  41.168
O  51.595  51.987  61.369
O  64.400  66.814  62.387
O  27.981  45.913  34.947
O  60.554  62.189  39.841
O  72.507  61.733  38.849
O  40.517  42.075  36.370
O  60.512  65.491  34.029
O  51.100  75.296  51.725
O  37.165  55.298  57.080
O  52.485  69.964  45.949
O  61.540  37.993  31.559
O  48.024  32.679  44.064
O  54.333  60.377  35.360
O  72.309  65.685  47.422
O  48.589  54.266  21.676
O  41.158  51.966  24.266
O  68.103  44.225  47.990
O  49.650  51.564  31.279
O  52.511  57.842  36.226
O  49.073  70.209  54.370
O  72.285  43.420  48.074
O  39.260  48.447  37.426
O  36.614  49.530  45.370
O  23.425  49.605  52.138
O  76.834  42.009  54.995
O  62.544  70.484  61.109
O  31.764  45.909  66.646
O  45.410  60.897  25.833
O  52.277  54.924  30.917
O  50.618  68.712  31.096
O  52.464  42.857  57.871
O  38.381  41.253  38.241
O  41.756  54.859  23.949
O  61.333  48.648  42.176
O  48.517  69.461  43.017
O  44.917  58.531  52.159
O  53.629  27.902  66.855
O  74.359  43.404  39.269
O  54.230  48.607  68.842
O  39.716  69.114  57.654
O  66.765  63.124  39.670
O  67.873  62.837  60.436
O  50.745  51.392  33.670
O  41.076  62.734  27.883
O  59.928  56.575  24.025
O  59.455  27.953  49.466
O  46.848  68.582  71.201
O  52.356  69.942  54.092
O  69.168  35.677  46.309
O  70.690  57.399  55.609
O  29.583  37.918  66.738
O  57.088  48.697  58.130
O  38.418  53.839  49.528
O  27.225  44.423  37.418
O  63.112  39.471  67.481
O  67.378  39.395  51.744
O  74.863  51.370  38.171
O  48.605  65.629  39.572
O  57.960  72.294  53.852
O  56.342  64.664  29.929
O  37.011  65.422  47.622
O  54.593  42.045  31.001
O  51.715  56.664  26.015
O  52.075  68.738  56.728
O  48.608  30.721  65.447
O  63.166  34.652  68.186
O  26.973  40.657  39.230
O  43.681  57.733  28.620
O  45.593  42.391  42.533
O  50.221  59.648  67.457
O  64.043  38.717  41.027
O  41.698  42.217  31.434
O  58.291  33.888  47.183
O  41.584  74.108  47.467
O  69.041  67.140  54.817
O  41.502  28.062  60.281
O  61.957  62.643  66.456
O  34.225  62.691  31.005
O  37.200  42.819  62.441
O  44.329  33.229  61.082
O  29.272  50.663  63.284
O  58.470  42.592  58.097
O  43.247  56.268  56.719
O  77.132  51.158  53.232
O  62.931  46.041  57.363
O  76.461  46.841  39.088
O  47.986  41.544  59.969
O  67.759  53.259  65.240
O  44.522  32.892  41.630
O  50.326  49.850  63.195
O  54.086  59.176  38.235
O  67.202  54.681  50.202
O  59.876  53.798  34.404
O  65.472  33.187  64.143
O  29.095  46.296  59.287
O  29.329  41.875  44.968
O  54.083  62.238  70.727
O  44.499  56.283  26.338
O  49.952  37.421  51.894
O  39.819  58.356  65.135
O  47.377  29.216  36.013
O  27.348  65.647  43.355
O  56.808  41.935  65.881
O  44.561  35.877  60.043
O  59.321  49.414  28.647
O  72.983  63.178  60.223
O  53.039  26.832  38.446
O  46.956  68.520  56.777
O  49.226  62.591  32.426
O  49.855  22.803  44.048
O  68.484  54.973  57.816
O  32.985  53.566  30.453
O  58.709  43.834  65.725
O  58.837  58.436  49.790
O  42.506  49.120  29.057
O  66.153  31.221  58.331
O  29.472  53.993  35.674
O  38.593  64.244  41.271
O  65.755  42.863  56.538
O  29.168  64.095  62.109
O  51.510  36.260  25.235
O  39.631  55.716  66.308
O  69.538  52.980  30.610
O  69.762  68.819  50.625
O  35.843  56.381  49.422
O  63.923  49.831  47.420
O  67.176  32.743  50.132
O  43.871  40.177  66.966
O  31.309  58.835  68.121
O  24.458  52.142  48.689
O  70.760  36.705  56.938
O  58.427  31.407  54.577
O  47.370  57.957  55.469
O  61.137  53.658  55.688
O  42.313  35.803  66.836
O  35.241  55.216  38.537
O  62.571  46.177  75.645
O  61.255  47.504  73.486
O  57.475  52.231  43.948
O  32.965  55.975  64.775
O  40.312  51.523  38.620
O  53.320  54.197  26.584
O  44.780  65.728  46.829
O  41.702  58.481  57.295
O  59.732  56.223  35.951
O  64.574  40.361  49.903
O  54.125  55.807  28.720
O  53.214  41.556  42.418
O  32.896  47.922  64.788
O  60.936  56.419  56.201
O  49.214  22.456  57.455
O  38.668  68.012  49.522
O  30.005  64.897  56.228
O  37.761  34.967  45.176
O  25.743  36.908  45.749
O  34.381  41.063  31.958
O  59.001  33.676  59.170
O  66.664  33.462  46.890
O  57.209  73.027  39.999
O  41.034  58.407  37.325
O  65.027  70.400  40.875
O  69.498  35.749  51.074
O  53.015  33.251  57.539
O  31.940  54.416  38.341
O  27.214  60.440  52.209
O  65.718  45.399  33.781
O  58.331  59.593  44.353
O  64.973  53.007  27.880
O  29.414  64.545  38.548
O  30.059  70.037  51.788
O  61.034  45.305  32.254
O  69.739  53.779  39.131
O  37.416  52.504  61.757
O  66.908  36.547  56.773
O  56.338  50.810  47.757
O  30.872  61.711  59.376
O  51.612  39.496  40.503
O  28.336  61.146  57.342
O  55.393  32.042  28.912
O  36.013  71.489  52.869
O  71.227  57.398  38.317
O  37.548  29.977  49.013
O  29.192  66.927  47.006
O  30.947  56.288  36.157
O  56.125  26.138  34.833
O  37.660  34.929  53.380
O  74.140  57.385  47.284
O  33.584  38.471  65.525
O  26.024  51.707  60.370
O  31.413  32.166  62.796
O  42.441  72.116  60.799
O  42.700  59.984  70.715
O  51.630  53.053  64.592
O  33.245  54.666  52.055
O  71.229  52.770  41.431
O  45.712  68.704  37.497
O  64.674  46.440  30.824
O  61.416  38.030  50.139
O  71.673  61.341  50.753
O  60.951  51.829  68.521
O  51.369  34.986  30.127
O  63.318  44.086  55.354
O  48.312  35.767  43.029
O  48.462  53.754  29.359
O  60.002  73.049  51.059
O  56.535  69.842  40.662
O  49.516  73.994  38.385
O  70.602  55.502  35.883
O  56.020  61.234  59.545
O  64.095  34.173  52.840
O  22.651  56.901  48.424
O  62.414  35.048  50.417
O  64.445  40.539  57.054
O  34.506  50.831  31.609
O  40.825  66.566  71.984
O  40.514  31.401  38.177
O  57.111  35.179  44.463
O  28.591  47.939  54.556
O  39.945  74.684  58.336
O  55.261  34.985  29.867
O  55.634  70.168  64.970
O  63.021  33.779  59.230
O  32.251  68.052  42.319
O  61.478  37.520  41.999
O  40.646  51.640  72.258
O  26.031  42.459  46.450
O  43.573  61.240  51.688
O  29.644  55.403  45.327
O  69.675  42.732  38.132
O  54.916  62.922  56.003
O  35.409  57.947  53.732
O  59.361  40.596  46.378
O  53.908  28.403  31.843
O  63.273  41.886  60.684
O  52.662  41.124  68.670
O  50.851  34.051  72.516
O  60.086  24.024  48.238
O  31.813  50.595  27.242
O  57.813  42.601  60.797
O  52.200  57.662  67.006
O  63.733  35.539  40.890
O  53.742  67.133  57.808
O  66.307  46.892  53.088
O  65.125  66.375  49.122
O  50.010  39.446  27.746
O  54.783  45.881  24.996
O  52.447  38.666  43.032
O  61.385  60.972  48.933
O  42.655  51.023  59.341
O  27.106  38.791  48.043
O  36.580  35.211  41.321
O  48.284  33.720  38.791
O  51.617  73.768  44.938
O  63.661  44.812  67.246
O  54.009  54.018  68.102
O  67.646  52.035  56.836
O  50.613  50.052  67.642
O  34.040  47.017  50.217
O  63.858  53.433  63.548
O  49.423  26.924  54.935
O  68.871  66.761  61.074
O  67.598  54.586  44.957
O  44.490  26.475  50.627
O  75.504  54.365  53.150
O  34.115  40.131  52.697
O  66.655  56.170  52.461
O  61.290  66.030  69.651
O  36.038  57.329  58.233
O  43.235  50.761  22.733
O  59.889  73.182  57.086
O  21.805  51.654  50.795
O  34.549  56.497  67.332
O  64.528  37.474  50.272
O  56.182  57.118  69.489
O  36.178  37.198  51.968
O  54.494  39.362  31.705
O  65.214  69.415  61.202
O  58.815  40.578  51.597
O  51.380  35.938  47.280
O  61.135  28.702  58.254
O  54.680  68.469  53.306
O  55.796  41.877  43.408
O  65.620  67.228  66.242
O  51.880  73.946  65.592
O  37.832  63.100  34.704
O  54.793  46.903  72.040
O  50.468  42.644  59.664
O  33.246  62.512  33.844
O  73.231  46.202  52.491
O  51.829  60.644  53.385
O  60.537  56.234  50.628
O  29.701  31.167  45.084
O  62.240  67.635  34.809
O  31.167  40.998  53.969
O  46.201  39.927  71.576
O  66.301  36.363  41.750
O  64.428  33.021  44.995
O  38.233  46.409  67.706
O  39.364  25.481  59.724
O  61.606  58.538  52.615
O  34.813  44.583  74.006
O  67.579  62.103  54.057
O  50.105  65.934  51.370
O  70.365  45.975  45.701
O  35.278  61.704  44.872
O  52.976  45.076  60.065
O  24.860  40.243  50.088
O  49.696  62.708  52.809
O  37.788  52.114  64.885
O  59.382  69.133  56.384
O  49.145  66.826  45.338
O  49.662  35.737  54.438
O  59.810  33.839  49.598
O  42.089  76.323  53.418
O  62.911  39.288  43.625
O  35.643  42.243  34.568
O  33.802  35.882  46.538
O  37.062  40.143  58.881
O  42.021  39.593  69.029
O  37.756  43.200  67.137
O  46.762  55.474  75.574
O  37.326  27.350  60.595
O  60.440  44.329  56.015
O  37.713  38.748  40.477
O  61.145  67.773  52.082
O  57.854  36.486  37.885
O  62.595  43.719  45.518
O  71.489  51.150  33.004
O  44.284  70.474  43.798
O  59.373  50.355  70.496
O  64.405  37.005  30.100
O  71.370  62.377  41.829
O  60.846  51.944  30.645
O  51.117  78.868  49.575
O  69.673  52.220  62.640
O  50.145  41.108  56.025
O  34.334  58.312  71.266
O  73.856  38.260  56.453
O  46.777  58.357  29.788
O  71.334  51.415  66.244
O  60.367  58.749  38.158
O  42.882  48.410  61.283
O  46.256  56.705  38.440
O  46.574  56.439  52.986
O  60.273  63.590  54.582
O  52.299  72.049  38.996
O  50.135  56.819  31.043
O  36.459  56.598  71.635
O  34.093  56.344  60.268
O  59.074  71.037  65.643
O  57.668  36.532  73.329
O  73.957  50.865  43.011
O  64.841  49.499  53.990
O  27.316  49.452  59.056
O  56.305  38.055  35.982
O  31.565  43.174  66.069
O  34.576  65.276  40.663
O  29.899  38.149  61.533
O  51.515  31.829  54.122
O  53.913  46.588  63.431
O  66.615  29.310  45.854
O  63.649  59.025  73.880
O  46.903  45.335  29.089
O  49.461  56.639  75.686
O  38.323  30.451  43.555
O  55.694  72.990  65.990
O  51.129  38.777  68.735
O  30.955  45.086  32.796
O  47.772  65.766  56.487
O  43.194  50.337  77.188
O  68.191  49.731  58.249
O  56.133  37.457  33.145
O  35.045  40.810  26.948
O  31.153  56.892  55.471
O  37.196  46.882  40.310
O  69.535  69.160  56.283
O  46.405  62.143  52.180
O  22.295  41.934  49.928
O  56.410  46.978  69.601
O  42.097  60.458  65.893
O  36.831  48.077  53.062
O  74.769  40.345  46.986
O  59.304  69.413  67.912
O  35.027  38.730  54.730
O  39.842  62.342  30.613
O  60.445  36.352  48.150
O  59.425  57.944  54.252
O  38.513  46.709  70.934
O  39.032  44.688  24.812
O  35.695  37.589  31.494
O  30.022  65.694  59.062
O  52.131  32.369  40.769
O  59.515  41.284  39.286
O  35.504  68.530  39.574
O  56.417  25.360  49.924
O  66.142  34.396  58.639
O  41.023  43.142  60.980
O  64.105  40.366  63.010
O  48.704  42.056  32.043
O  68.741  50.841  60.612
O  70.952  62.554  48.094
O  54.943  42.084  33.932
O  35.741  54.089  65.322
O  38.828  39.057  43.867
O  45.983  62.475  31.707
O  39.770  76.052  51.780
O  51.796  57.793  23.147
O  44.779  48.900  63.851
O  66.524  68.898  37.355
O  65.498  31.720  37.985
O  69.512  46.232  62.685
O  47.038  76.675  57.176
O  42.173  57.344  24.933
O  65.221  35.668  65.569
O  52.609  61.295  56.245
O  36.902  68.360  52.601
O  56.591  42.013  39.840
O  54.176  33.807  72.667
O  66.848  59.614  42.012
O  38.792  44.232  50.031
O  29.150  59.605  43.054
O  53.625  73.533  48.601
O  42.433  50.489  70.119
O  57.852  35.654  32.161
O  44.702  64.444  66.159
O  63.621  61.942  31.744
O  47.816  41.174  40.673
O  34.116  37.898  34.681
O  55.201  71.485  38.769
O  42.994  65.106  49.054
O  38.003  51.220  74.457
O  62.321  48.036  59.758
O  52.924  39.660  63.705
O  48.333  70.277  60.645
O  28.151  55.452  51.108
O  44.715  55.858  61.864
O  68.930  34.056  48.752
O  35.982  64.338  45.106
O  32.754  62.053  56.578
O  62.797  54.204  30.068
O  40.287  74.840  45.067
O  46.566  58.202  61.705
O  44.327  43.886  37.824
O  34.696  30.781  46.524
O  44.865  47.760  56.708
O  38.127  47.806  64.493
O  37.383  64.430  38.726
O  42.713  64.642  36.041
O  60.880  62.688  33.330
O  50.091  40.347  63.525
O  42.994  37.450  28.693
O  41.995  31.482  54.627
O  55.833  51.765  62.862
O  34.351  68.661  36.595
O  54.947  64.025  51.854
O  39.612  47.843  53.645
O  46.854  33.315  29.471
O  49.017  40.225  70.221
O  45.911  73.905  35.670
O  32.823  41.559  41.692
O  40.855  58.314  30.072
O  35.822  47.008  25.502
O  39.722  50.048  65.274
O  24.675  54.156  59.544
O  22.911  55.709  53.386
O  65.737  69.022  46.589
O  56.681  44.153  41.781
O  57.497  27.703  62.609
O  60.233  29.425  62.617
O  55.584  54.427  74.111
O  66.829  52.865  60.034
O  26.473  46.474  62.545
O  55.292  59.535  76.511
O  49.108  58.257  22.853
O  38.486  59.217  62.384
O  54.472  48.058  23.011
O  37.387  44.903  75.179
O  76.339  51.830  44.252
O  64.330  62.866  52.983
O  46.723  40.455  67.600
O  53.487  40.134  50.330
O  70.620  64.914  59.530
O  71.071  53.493  68.234
O  35.397  43.584  64.805
O  23.842  55.635  43.113
O  56.004  32.171  65.307
O  35.575  47.604  62.449
O  37.077  46.337  37.634
O  58.636  43.258  27.486
O  40.194  34.205  65.726
O  60.400  65.454  60.877
O  46.729  74.643  59.580
O  42.638  71.244  65.693
O  43.438  36.960  49.302
O  34.980  44.471  37.065
O  44.449  39.755  42.749
O  36.255  55.104  62.703
O  39.574  60.905  37.734
O  57.874  63.233  31.986
O  45.494  62.226  38.405
O  26.199  41.783  41.895
O  57.860  67.959  65.064
O  53.452  28.576  59.751
O  59.885  48.742  44.922
O  63.281  58.908  38.361
O  42.686  53.536  61.010
O  42.566  37.514  74.332
O  43.381  59.353  68.216
O  53.981  63.943  66.876
O  29.549  42.728  50.826
O  41.158  31.689  43.710
O  69.124  49.495  48.689
O  67.746  55.465  60.959
O  71.296  55.124  56.820
O  39.808  71.739  35.591
O  67.382  61.004  62.348
O  47.951  55.313  32.366
O  50.452  37.077  63.391
O  63.099  46.665  34.046
O  56.206  59.897  51.611
O  70.219  31.907  55.814
O  42.527  63.642  45.414
O  38.286  30.292  55.920
O  35.842  27.308  42.581
O  58.631  28.173  54.937
O  25.803  42.203  60.521
O  32.439  46.367  56.877
O  49.651  59.598  54.991
O  44.718  23.217  50.674
O  44.617  46.195  30.708
O  49.609  51.564  65.357
O  51.149  56.449  78.122
O  69.402  66.265  41.465
O  35.656  45.194  42.052
O  44.090  41.316  56.711
O  41.571  43.091  74.882
O  43.949  42.935  35.201
O  65.716  48.935  59.657
O  72.782  38.315  47.593
O  31.564  50.991  64.827
O  35.673  36.808  66.575
O  60.116  65.322  47.393
O  60.588  37.802  59.183
O  68.179  47.982  64.904
O  45.067  58.134  23.219
O  42.833  51.177  63.220
O  68.196  29.963  50.690
O  39.000  32.574  60.741
O  70.121  35.936  36.017
O  56.682  65.125  66.822
O  43.693  34.698  44.451
O  62.942  71.860  47.749
O  38.430  75.690  55.064
O  46.451  56.607  72.822
O  40.397  65.904  48.526
O  56.449  62.454  64.960
O  31.900  42.921  45.592
O  54.964  37.661  73.472
O  59.628  44.031  41.509
O  34.231  48.133  59.325
O  58.157  63.017  56.393
O  43.567  33.542  50.486
O  64.254  56.237  64.577
O  63.069  52.335  57.362
O  76.774  40.180  51.240
O  66.208  29.566  53.876
O  51.030  58.240  40.191
O  45.123  61.761  71.220
O  35.433  45.059  62.298
O  44.443  51.052  66.467
O  43.372  45.831  66.185
O  50.335  24.439  39.635
O  32.646  33.014  38.949
O  40.360  28.935  66.563
O  68.327  39.139  65.893
O  66.540  42.530  49.995
O  39.010  72.192  45.635
O  50.319  54.581  33.521
O  44.062  38.227  37.267
O  31.732  48.233  54.480
O  33.567  64.545  46.360
N  47.882  49.268  48.267
N  54.307  50.667  53.949
N  49.999  52.302  56.023
N  47.254  45.115  48.796
N  51.695  52.430  51.086
N  52.855  50.007  49.202
N  48.449  51.541  53.957
N  47.298  47.400  45.712
N  47.632  49.280  51.531
N  52.346  53.833  54.008
N  51.664  48.322  46.372
N  50.494  46.276  45.054
C  51.342  52.399  55.667
C  53.305  49.125  51.417
C  48.228  50.484  51.807
C  52.673  45.337  44.722
C  47.180  49.485  47.014
C  50.773  46.429  43.600
C  47.556  51.338  52.839
C  51.365  54.773  49.237
C  48.148  44.749  49.925
C  48.009  46.472  44.858
C  47.365  48.481  49.266
C  53.060  54.130  56.378
C  47.130  50.968  46.649
C  52.519  50.151  50.603
C  46.210  52.427  51.000
C  51.833  53.785  51.582
C  52.243  46.007  43.404
C  46.485  42.497  46.766
C  44.970  50.818  45.320
C  51.059  54.805  50.748
C  52.120  50.723  45.939
C  54.306  53.303  56.275
C  52.319  49.519  46.861
C  56.525  52.972  55.405
C  46.291  53.439  53.308
C  47.138  45.326  44.345
C  55.344  53.684  55.440
C  52.349  47.133  46.408
C  46.428  51.268  45.314
C  52.870  48.972  52.886
C  54.469  52.164  57.048
C  51.724  45.914  45.790
C  48.477  50.644  54.995
C  49.018  45.938  50.302
C  44.595  43.951  46.785
C  51.873  49.812  48.263
C  49.247  53.358  56.757
C  51.385  53.868  53.023
C  49.241  45.993  45.588
C  45.232  44.784  45.888
C  50.423  53.818  48.502
C  56.677  51.858  56.199
C  48.179  48.376  50.543
C  49.342  50.980  56.179
C  48.205  46.962  51.114
C  52.777  51.582  51.040
C  48.435  51.130  57.411
C  52.890  51.931  46.466
C  47.114  43.331  45.866
C  52.535  50.368  44.519
C  47.813  48.662  45.912
C  45.222  42.804  47.219
C  54.048  49.210  53.820
C  47.057  52.662  52.248
C  46.492  44.476  45.400
C  46.529  52.751  44.961
C  48.103  52.629  57.489
C  55.646  51.447  57.014
C  51.942  53.762  55.400
C  51.293  56.179  48.634
H  45.610  75.041  44.793
H  60.642  24.489  44.574
H  43.174  42.954  76.356
H  68.578  44.963  67.762
H  48.976  39.802  42.840
H  48.663  39.006  41.577
H  71.897  35.013  48.246
H  50.025  37.207  38.663
H  51.492  37.075  38.175
H  68.864  44.125  66.505
H  61.897  58.405  26.283
H  59.383  23.648  44.906
H  63.337  60.943  71.208
H  44.718  43.073  76.313
H  62.292  59.848  71.538
H  42.199  45.601  56.705
H  61.511  56.908  26.203
H  41.867  44.416  57.628
H  37.090  54.409  34.128
H  38.073  54.620  32.992
H  57.961  64.603  48.631
H  57.149  41.430  40.384
H  70.507  34.908  48.919
H  33.164  49.776  30.735
H  39.770  50.866  27.363
H  40.253  57.722  42.126
H  54.834  27.324  57.248
H  54.113  28.395  56.341
H  45.653  38.941  66.562
H  58.880  40.150  62.452
H  58.765  41.632  62.722
H  44.278  66.973  55.839
H  44.651  65.795  54.892
H  41.143  51.205  27.904
H  34.131  56.911  49.206
H  32.867  56.846  48.336
H  61.579  67.832  63.460
H  56.564  64.171  48.156
H  25.628  58.015  46.960
H  60.248  53.998  76.007
H  58.768  53.608  75.816
H  41.166  34.047  55.088
H  59.515  47.202  69.104
H  60.556  48.045  69.905
H  42.364  34.310  56.075
H  73.122  57.608  62.543
H  72.400  56.227  62.529
H  38.850  57.797  41.529
H  26.804  57.583  47.905
H  64.949  29.842  44.133
H  30.274  49.969  53.595
H  45.422  76.314  45.667
H  62.417  51.873  46.541
H  48.790  60.841  61.082
H  64.116  31.021  44.600
H  56.533  48.875  69.543
H  40.921  44.104  36.853
H  48.764  50.257  41.861
H  49.845  50.407  40.766
H  59.362  47.759  59.251
H  69.225  42.618  45.756
H  68.395  42.572  44.477
H  63.065  53.201  46.885
H  59.010  66.374  65.446
H  31.759  41.899  52.319
H  32.801  34.535  40.510
H  31.439  34.321  41.151
H  31.809  42.925  51.184
H  39.496  44.381  37.245
H  55.768  50.170  69.891
H  60.290  28.215  58.180
H  61.660  28.507  57.457
H  68.488  40.151  59.319
H  54.297  69.224  52.835
H  60.328  65.926  64.840
H  47.519  61.486  60.607
H  62.552  37.552  63.563
H  34.346  57.482  41.615
H  53.723  43.256  27.943
H  54.525  66.277  56.211
H  39.187  51.402  45.702
H  40.940  55.846  32.556
H  42.258  55.774  33.403
H  26.629  44.059  52.575
H  27.046  56.928  41.812
H  27.565  58.230  42.502
H  26.014  45.038  51.604
H  52.752  29.181  47.023
H  35.105  58.638  42.267
H  51.944  28.967  45.710
H  56.019  62.988  58.825
H  61.513  57.367  70.585
H  40.465  50.878  46.361
H  53.365  44.445  28.859
H  62.618  57.580  71.681
H  37.367  26.805  49.876
H  36.011  26.869  50.620
H  39.606  48.612  45.381
H  39.004  47.623  46.414
H  63.123  37.468  62.127
H  29.699  49.377  52.303
H  30.612  39.313  36.711
H  42.157  53.556  69.644
H  55.766  64.331  59.467
H  35.705  54.487  30.500
H  65.079  70.084  54.371
H  63.949  70.873  53.728
H  37.068  51.277  27.172
H  38.132  52.229  27.744
H  50.731  26.580  49.407
H  46.253  31.191  63.841
H  49.233  26.752  49.195
H  31.955  64.244  63.148
H  37.021  26.767  58.538
H  69.628  46.361  30.725
H  36.254  28.063  58.227
H  68.880  37.167  67.790
H  30.774  56.304  29.284
H  77.586  44.765  49.498
H  78.251  45.448  48.267
H  31.348  54.901  28.956
H  64.204  49.144  72.784
H  55.184  32.296  52.837
H  51.849  53.382  71.162
H  30.525  47.286  40.649
H  42.632  44.329  30.829
H  67.653  36.305  68.135
H  23.849  61.173  42.615
H  70.755  46.993  29.884
H  59.743  45.712  61.764
H  44.624  51.257  67.405
H  49.397  37.082  33.759
H  59.719  72.230  50.615
H  60.771  73.358  50.547
H  50.875  36.627  34.026
H  35.992  68.248  52.925
H  37.270  69.045  53.189
H  52.800  60.398  56.575
H  52.469  61.179  55.285
H  64.450  40.995  39.606
H  36.201  55.793  31.165
H  45.340  64.490  65.429
H  63.022  40.461  39.687
H  65.956  35.029  65.626
H  65.377  36.323  66.278
H  47.396  76.471  58.052
H  41.539  64.586  60.607
H  31.797  47.097  39.803
H  66.697  47.643  48.948
H  32.956  63.691  62.115
H  55.685  32.573  51.369
H  59.385  44.357  61.063
H  44.125  65.208  66.029
H  31.139  39.328  35.236
H  25.266  60.644  42.681
H  41.951  62.184  37.186
H  43.097  67.694  50.924
H  42.635  66.264  50.615
H  72.038  44.179  34.403
H  59.446  49.788  26.247
H  58.047  50.046  25.667
H  71.035  43.783  35.499
H  54.724  32.333  55.487
H  55.782  31.207  55.702
H  64.867  50.001  26.320
H  55.495  68.283  52.815
H  75.672  41.627  51.939
H  44.456  37.996  66.473
H  38.190  63.762  48.391
H  42.742  53.979  71.017
H  62.151  49.980  59.587
H  61.854  51.415  60.123
H  34.834  71.669  58.523
H  36.290  72.252  58.535
H  48.214  26.538  51.107
H  59.628  45.106  49.844
H  59.796  43.678  49.288
H  47.446  27.595  51.881
H  39.368  62.838  48.094
H  66.477  46.136  49.172
H  74.836  40.715  52.837
H  47.524  57.406  65.402
H  43.196  62.753  36.455
H  32.203  68.189  46.007
H  32.161  66.696  45.653
H  40.764  69.392  34.361
H  37.327  30.890  41.880
H  37.101  31.811  40.634
H  40.901  69.047  35.860
H  41.204  44.448  31.407
H  50.652  52.624  70.543
H  67.545  68.787  46.141
H  65.678  50.690  25.201
H  67.989  67.318  45.961
H  55.965  28.817  53.757
H  56.706  29.861  52.871
H  60.314  69.328  31.200
H  55.687  66.463  71.067
H  56.401  66.572  69.698
H  58.136  51.643  27.538
H  58.962  52.534  28.470
H  45.619  32.409  64.587
H  63.080  49.551  71.796
H  47.323  56.784  66.786
H  60.104  68.056  31.999
H  69.183  39.821  60.684
H  44.919  23.806  53.942
H  55.793  40.987  43.004
H  55.564  57.820  69.203
H  56.381  57.303  70.426
H  51.655  73.017  65.742
H  51.825  74.071  64.627
H  44.180  41.265  39.708
H  37.502  45.913  68.125
H  39.025  46.355  68.268
H  44.740  40.162  40.639
H  50.782  36.321  46.612
H  51.645  35.084  46.905
H  39.594  47.385  65.459
H  34.498  57.463  71.709
H  25.978  42.092  63.901
H  28.287  48.714  37.732
H  42.900  60.021  27.464
H  34.076  57.290  60.524
H  33.274  56.224  59.754
H  42.036  59.126  26.534
H  61.641  68.204  52.797
H  61.618  66.928  51.947
H  73.063  51.114  43.296
H  73.960  50.954  42.040
H  28.399  44.975  45.780
H  26.852  48.542  38.318
H  35.824  36.524  52.577
H  40.729  46.297  65.577
H  62.961  39.986  42.950
H  63.180  39.741  44.445
H  65.873  46.815  29.487
H  41.027  35.003  29.445
H  42.548  35.201  29.301
H  38.656  26.056  60.082
H  39.730  24.998  60.480
H  43.690  56.495  69.194
H  41.435  65.386  68.430
H  47.619  55.901  75.763
H  36.931  37.580  52.448
H  56.005  64.574  38.118
H  60.022  68.483  56.716
H  42.905  76.767  53.704
H  43.546  46.115  23.159
H  58.913  41.295  52.251
H  59.032  40.954  50.727
H  44.825  45.848  23.976
H  64.381  69.885  61.049
H  64.942  68.545  61.537
H  54.520  40.332  31.649
H  53.772  39.165  31.086
H  59.665  69.333  55.476
H  67.279  46.963  28.828
H  64.179  50.123  54.343
H  48.420  66.413  56.165
H  73.442  45.253  52.509
H  51.190  63.798  35.419
H  37.089  62.466  34.643
H  32.491  61.908  33.927
H  33.614  62.251  32.981
H  51.842  65.148  35.127
H  49.853  42.137  59.104
H  50.485  43.537  59.272
H  54.468  47.815  72.173
H  55.345  46.937  71.233
H  51.850  59.872  52.791
H  66.337  50.255  63.141
H  66.067  35.452  41.525
H  66.722  51.294  62.101
H  29.284  63.702  44.621
H  49.562  56.175  74.834
H  49.198  57.559  75.487
H  46.154  28.337  55.190
H  60.628  27.128  61.230
H  66.639  35.309  31.716
H  47.474  58.222  30.457
H  45.969  58.075  30.253
H  65.969  36.494  42.659
H  65.647  50.033  53.853
H  51.125  60.407  54.023
H  61.045  55.542  50.181
H  65.371  66.300  66.107
H  46.909  66.136  56.229
H  30.349  44.517  32.282
H  31.698  45.231  32.179
H  66.499  53.348  37.301
H  51.730  38.019  68.752
H  51.721  39.549  68.689
H  67.633  54.254  37.797
H  54.737  73.118  66.086
H  55.994  72.388  66.701
H  28.019  39.707  49.253
H  38.018  30.569  44.474
H  66.467  67.312  65.772
H  37.483  63.947  34.384
H  31.666  40.165  54.030
H  72.775  46.363  53.332
H  62.309  68.504  35.265
H  63.145  67.267  34.679
H  29.361  30.315  44.764
H  29.001  31.819  44.883
H  28.783  39.499  50.569
H  61.051  56.413  51.432
H  39.194  30.906  43.565
H  35.481  41.598  35.275
H  42.366  75.721  52.693
H  36.407  41.891  34.080
H  70.446  50.360  31.446
H  70.184  49.169  30.488
H  72.491  67.741  52.097
H  47.773  75.727  43.606
H  54.999  64.927  55.614
H  43.157  55.983  70.537
H  35.204  58.737  71.213
H  32.585  48.620  49.021
H  43.380  38.118  59.389
H  67.925  61.492  54.742
H  71.304  66.813  52.434
H  66.823  62.581  54.435
H  35.638  44.798  74.469
H  29.129  58.851  61.464
H  61.551  57.969  53.403
H  60.710  58.914  52.544
H  28.365  60.011  60.779
H  76.149  43.597  40.471
H  76.180  45.111  40.683
H  31.478  48.886  47.989
H  49.275  65.970  51.885
H  64.691  63.842  42.288
H  34.656  43.644  74.198
H  65.441  34.215  60.346
H  42.333  63.781  38.578
H  54.918  72.152  45.652
H  37.145  56.938  72.243
H  36.352  55.654  71.824
H  27.520  44.553  46.945
H  59.623  46.257  59.262
H  67.712  63.897  62.147
H  66.908  65.080  61.637
H  49.138  76.459  43.450
H  36.288  55.158  35.404
H  35.687  53.898  36.103
H  44.978  22.309  54.086
H  41.434  64.991  38.992
H  66.156  61.643  58.232
H  43.531  51.355  66.296
H  36.316  56.522  64.478
H  37.414  57.068  65.388
H  47.032  62.709  47.068
H  45.814  61.796  47.216
H  52.454  48.414  32.822
H  61.943  37.555  38.030
H  63.262  36.890  37.531
H  51.093  48.054  32.257
H  53.512  71.553  45.491
H  66.099  60.131  58.556
H  64.663  33.251  61.236
H  65.414  65.198  42.302
H  66.181  37.130  46.937
H  47.653  74.509  41.867
H  53.724  45.697  60.010
H  53.156  44.342  59.448
H  46.743  74.164  40.636
H  35.981  61.970  45.488
H  35.393  60.749  44.747
H  70.537  46.745  45.136
H  63.338  67.807  46.583
H  59.672  34.438  50.359
H  59.701  32.924  49.927
H  24.757  40.129  49.124
H  33.855  34.973  46.171
H  56.360  63.064  38.036
H  37.105  42.534  66.863
H  37.251  43.800  67.721
H  41.062  39.694  68.878
H  42.333  38.917  68.404
H  27.715  57.335  55.899
H  36.191  39.913  59.246
H  37.561  40.588  59.594
H  28.120  56.782  54.523
H  33.515  35.792  47.465
H  46.577  55.687  74.641
H  25.782  40.522  50.209
H  50.506  63.237  52.952
H  49.800  62.265  51.951
H  66.441  35.604  46.971
H  37.420  27.311  61.559
H  37.342  28.306  60.406
H  62.493  68.340  47.776
H  50.614  35.625  54.286
H  49.563  36.673  54.681
H  50.760  65.486  51.940
H  42.300  39.181  59.625
H  42.790  66.434  68.330
H  37.676  52.778  65.585
H  54.175  49.994  63.771
H  58.505  58.733  67.778
H  64.844  59.413  64.490
H  66.164  59.195  65.262
H  57.372  57.737  68.035
H  43.661  46.038  75.612
H  44.456  44.901  74.935
H  49.827  66.140  45.249
H  48.490  66.556  44.670
H  47.906  55.620  62.513
H  37.819  52.597  64.043
H  47.459  54.145  62.836
H  70.577  45.201  45.149
H  54.853  42.098  43.439
H  48.232  54.661  29.628
H  39.055  38.950  42.929
H  74.979  38.021  53.089
H  26.752  61.528  61.243
H  43.970  37.631  53.636
H  61.015  36.447  69.527
H  28.117  61.850  61.841
H  22.656  55.133  45.475
H  22.802  53.626  45.688
H  57.687  70.782  67.535
H  56.873  70.873  68.826
H  47.344  35.714  59.580
H  71.283  48.462  65.655
H  61.802  32.564  60.581
H  69.808  48.512  66.064
H  42.588  37.215  53.095
H  36.588  38.567  69.655
H  37.659  34.713  49.776
H  37.657  38.324  68.585
H  60.665  37.582  72.190
H  60.721  66.573  67.170
H  62.043  67.265  67.530
H  61.079  36.910  73.518
H  50.493  46.246  63.794
H  50.993  46.288  65.241
H  47.642  37.281  58.945
H  47.111  66.106  49.625
H  59.478  58.248  25.984
H  40.339  55.912  47.831
H  49.489  22.803  52.803
H  49.506  23.930  53.856
H  51.995  72.319  57.580
H  50.112  59.871  41.940
H  49.948  61.374  41.811
H  51.546  71.108  58.349
H  51.697  53.440  24.452
H  51.012  52.437  23.529
H  53.974  66.162  36.002
H  53.802  64.629  35.974
H  40.173  55.989  46.322
H  73.038  61.499  61.109
H  57.989  57.804  25.857
H  73.249  60.414  62.225
H  46.281  72.967  55.748
H  47.195  71.860  56.379
H  41.666  48.717  65.682
H  43.136  49.165  65.514
H  25.140  59.295  41.087
H  50.904  21.874  50.571
H  50.683  20.998  51.793
H  26.412  59.282  40.185
H  36.741  49.282  29.412
H  36.795  49.267  30.925
H  46.715  64.676  49.887
H  37.286  33.232  49.699
H  69.366  42.705  68.528
H  58.792  60.132  71.152
H  44.705  61.108  60.202
H  35.375  49.313  41.847
H  65.993  34.377  38.457
H  65.178  35.488  39.148
H  54.913  64.190  49.741
H  43.764  77.428  51.352
H  35.499  44.120  26.735
H  33.974  43.909  26.472
H  55.560  56.688  26.745
H  49.378  38.440  30.471
H  45.570  39.911  32.712
H  59.190  66.580  54.805
H  59.314  66.004  53.408
H  45.847  41.089  33.656
H  47.437  60.936  39.705
H  48.911  61.144  39.350
H  34.191  60.123  31.734
H  32.821  59.762  32.331
H  72.258  57.978  44.548
H  59.815  48.893  53.234
H  49.972  37.382  31.474
H  62.383  31.878  61.816
H  55.972  57.586  25.530
H  58.417  69.775  61.197
H  29.755  42.544  53.427
H  30.053  43.229  54.756
H  42.442  78.209  51.372
H  58.698  64.222  29.003
H  44.841  59.780  60.951
H  32.087  51.481  52.588
H  32.910  52.802  52.724
H  41.492  43.461  38.893
H  70.347  33.516  52.994
H  68.890  34.014  53.108
H  69.959  43.229  69.831
H  41.711  42.933  40.324
H  65.968  61.084  42.493
H  58.064  65.047  55.908
H  56.870  65.966  55.617
H  39.814  33.124  48.293
H  54.559  65.640  50.076
H  39.374  33.129  49.798
H  58.860  64.049  30.513
H  45.869  62.428  43.771
H  46.359  61.721  45.026
H  57.614  68.481  60.933
H  66.024  62.600  42.878
H  70.130  38.518  62.634
H  33.124  50.247  62.437
H  53.373  37.111  65.365
H  39.002  57.980  58.154
H  38.793  58.500  56.701
H  60.746  57.378  42.754
H  43.567  31.400  38.301
H  44.880  32.235  38.285
H  57.149  51.283  72.523
H  56.947  51.513  71.004
H  41.373  35.049  48.404
H  53.303  36.067  63.631
H  42.057  33.987  49.325
H  60.231  58.137  43.963
H  52.049  26.273  51.482
H  48.087  61.632  72.925
H  40.412  37.123  64.689
H  38.910  37.558  64.659
H  54.594  24.827  45.428
H  57.290  54.016  68.162
H  57.153  55.575  68.239
H  56.021  24.372  45.759
H  52.710  35.270  62.456
H  35.815  42.179  56.670
H  36.475  41.615  57.903
H  49.321  60.795  72.552
H  48.202  46.872  28.931
H  34.770  31.677  59.154
H  33.732  56.250  45.744
H  39.089  71.556  60.559
H  28.101  32.886  53.958
H  39.715  49.696  72.473
H  39.898  48.367  73.247
H  26.705  32.906  54.612
H  37.077  70.546  45.507
H  61.819  26.105  46.464
H  71.011  54.014  60.913
H  70.116  53.774  59.691
H  74.317  53.892  55.841
H  33.949  30.677  60.006
H  65.242  56.054  32.290
H  73.096  52.982  55.645
H  46.858  65.812  32.108
H  48.374  65.591  32.031
H  62.117  62.226  40.939
H  63.060  61.230  41.658
H  48.194  46.343  27.521
H  46.636  30.232  53.008
H  62.631  26.441  47.734
H  40.140  65.344  30.509
H  53.458  26.796  51.315
H  64.601  54.703  32.786
H  46.242  25.289  52.851
H  44.658  30.733  31.240
H  50.157  59.907  35.017
H  72.400  57.122  41.407
H  72.440  57.070  39.865
H  69.611  59.617  48.913
H  26.363  66.550  46.020
H  26.058  65.098  46.467
H  69.842  61.117  48.671
H  47.980  37.211  72.744
H  49.219  36.880  71.898
H  48.268  65.656  41.805
H  47.141  66.498  41.334
H  73.692  43.928  57.772
H  31.546  59.785  37.303
H  29.758  46.844  46.938
H  31.205  61.242  37.074
H  60.289  47.767  39.926
H  61.499  46.944  40.396
H  56.312  65.297  64.322
H  54.931  65.774  64.791
H  36.096  36.469  28.148
H  51.745  76.957  42.082
H  51.770  75.571  42.780
H  36.927  37.744  28.430
H  29.311  47.909  45.906
H  66.491  61.094  52.420
H  66.853  59.851  51.572
H  59.864  68.888  40.012
H  51.063  59.131  35.983
H  44.720  29.636  30.130
H  70.909  45.725  49.317
H  69.691  44.798  49.058
H  64.621  51.303  41.164
H  63.338  52.162  41.175
H  47.247  24.065  52.910
H  68.358  53.550  40.583
H  68.248  53.457  42.119
H  37.491  48.476  43.906
H  74.881  44.352  56.828
H  38.198  49.519  42.989
H  35.150  40.695  40.660
H  35.870  39.347  40.409
H  33.535  31.025  49.137
H  50.871  71.426  50.861
H  50.564  72.760  50.183
H  34.688  30.172  49.657
H  59.873  67.349  38.238
H  60.955  67.203  37.136
H  55.378  63.714  68.228
H  56.190  64.260  69.432
H  59.036  67.869  40.815
H  58.564  49.775  52.963
H  47.825  53.190  29.833
H  71.162  58.954  44.007
H  57.233  71.104  57.294
H  35.532  40.070  51.369
H  35.573  41.058  50.186
H  66.006  39.512  55.699
H  68.737  44.842  56.406
H  69.927  44.778  57.394
H  47.015  63.634  30.448
H  46.575  64.993  29.881
H  70.324  64.365  39.804
H  44.638  58.886  47.659
H  43.758  60.019  48.272
H  52.020  68.546  42.673
H  69.203  63.368  39.412
H  53.482  69.104  42.867
H  41.656  65.732  61.634
H  47.767  51.235  36.830
H  57.318  69.887  46.115
H  31.001  55.581  48.600
H  30.482  55.621  47.162
H  58.478  70.771  45.560
H  70.250  41.635  59.259
H  68.901  42.320  58.972
H  33.154  59.749  29.662
H  57.594  34.571  54.607
H  33.072  61.246  29.989
H  64.743  38.686  55.431
H  31.461  44.902  28.358
H  42.427  56.757  53.970
H  41.934  58.141  53.603
H  50.132  50.971  60.687
H  31.947  64.757  42.737
H  32.209  66.116  43.357
H  65.049  44.436  53.486
H  66.359  43.631  53.465
H  60.513  44.786  72.929
H  46.203  29.748  38.684
H  59.467  58.759  71.004
H  41.229  59.618  68.258
H  57.220  63.399  72.497
H  40.283  60.429  67.336
H  43.268  74.611  50.493
H  42.151  73.766  51.175
H  39.711  36.747  26.641
H  38.274  37.142  27.023
H  57.498  54.646  43.660
H  51.067  37.968  28.013
H  52.363  37.403  28.624
H  56.262  55.515  43.912
H  30.998  44.976  29.813
H  61.212  66.589  62.599
H  49.551  49.511  60.621
H  46.927  50.158  36.144
H  35.087  41.914  59.824
H  51.707  58.712  23.447
H  52.718  57.751  22.833
H  39.759  75.080  51.730
H  56.915  38.764  44.532
H  61.600  52.020  54.516
H  45.091  62.136  31.529
H  46.426  61.752  32.183
H  62.622  51.525  55.519
H  37.894  39.331  43.861
H  65.464  36.256  31.422
H  49.340  54.537  36.808
H  34.817  54.291  65.524
H  45.204  26.668  47.014
H  41.211  32.014  54.392
H  42.086  31.620  55.587
H  69.185  46.944  63.261
H  70.445  46.090  62.928
H  61.983  55.176  46.912
H  46.478  75.912  56.930
H  74.841  38.556  54.516
H  57.193  73.273  63.644
H  57.235  72.700  62.201
H  35.810  54.127  64.353
H  34.661  42.525  61.159
H  44.187  48.723  63.095
H  48.184  54.012  37.685
H  43.147  54.794  57.712
H  57.233  34.553  53.117
H  41.965  54.083  58.342
H  70.335  59.410  54.329
H  71.433  58.416  53.850
H  59.183  63.589  68.754
H  55.898  70.175  42.399
H  56.054  69.162  43.529
H  58.699  63.639  70.182
H  36.406  67.475  48.009
H  45.474  48.231  63.745
H  36.747  68.934  48.374
H  29.068  42.432  40.872
H  71.324  52.628  63.261
H  72.826  52.255  63.340
H  57.782  39.746  43.706
H  40.403  76.261  52.489
H  61.496  55.606  45.473
H  66.283  31.402  37.507
H  65.198  32.491  37.467
H  67.253  68.977  37.991
H  66.094  69.775  37.324
H  30.253  41.480  40.663
H  67.429  40.533  35.821
H  68.313  39.311  35.506
H  64.504  54.043  53.618
H  52.580  68.150  35.463
H  55.075  32.236  60.664
H  62.259  62.595  58.701
H  61.574  62.925  60.063
H  47.767  35.278  55.046
H  38.864  40.501  56.034
H  40.288  27.432  48.033
H  59.544  70.022  38.115
H  55.660  40.807  36.397
H  34.378  48.942  30.277
H  51.194  68.536  34.941
H  41.808  50.123  30.625
H  65.251  31.569  41.842
H  66.351  30.540  41.948
H  26.749  37.681  42.883
H  59.579  32.174  47.450
H  60.919  31.376  47.333
H  27.796  38.620  42.280
H  62.144  60.203  28.915
H  61.411  59.767  30.192
H  55.201  42.029  35.627
H  31.923  56.127  42.343
H  40.925  51.335  30.906
H  64.027  64.611  71.833
H  54.854  31.191  61.768
H  34.697  32.336  34.956
H  29.123  52.498  66.540
H  29.462  52.285  65.058
H  35.105  48.075  42.774
H  60.882  35.852  70.925
H  58.833  69.105  37.079
H  58.465  63.180  73.352
H  68.010  44.220  58.875
H  40.205  39.727  55.952
H  58.385  30.183  43.648
H  58.247  51.495  34.117
H  33.329  33.009  35.259
H  57.252  52.354  33.303
H  74.436  43.342  48.752
H  73.961  41.888  48.813
H  29.465  55.453  42.032
H  28.736  54.483  41.051
H  42.298  29.175  54.877
H  67.194  44.153  60.204
H  42.622  27.978  55.827
H  39.602  28.039  49.304
H  47.721  60.350  46.022
H  47.935  59.594  44.715
H  59.310  30.212  42.416
H  52.078  50.674  22.077
H  51.414  51.625  21.056
H  64.043  63.236  71.055
H  38.769  72.767  54.530
H  40.319  72.751  54.548
H  64.695  68.829  57.174
H  33.381  46.582  44.327
H  33.143  47.185  42.959
H  63.931  70.128  57.005
H  60.055  51.176  58.780
H  58.771  51.638  59.464
H  41.625  25.707  54.955
H  41.000  26.264  53.672
H  59.194  60.820  29.936
H  60.041  46.229  72.930
H  39.634  60.470  74.355
H  51.366  60.097  32.935
H  50.069  60.757  32.429
H  63.078  49.441  69.643
H  62.048  49.173  68.546
H  41.163  69.232  38.129
H  29.116  43.801  30.059
H  29.722  42.620  30.813
H  40.432  70.550  37.807
H  65.239  55.432  53.401
H  44.909  29.299  37.974
H  59.632  61.403  28.583
H  63.177  42.687  35.851
H  49.558  40.309  37.266
H  73.354  43.703  55.022
H  74.483  44.648  54.539
H  26.158  53.618  62.171
H  24.709  53.246  62.469
H  31.212  56.864  43.476
H  32.805  49.190  34.225
H  32.826  48.480  32.889
H  47.898  35.043  56.544
H  38.264  60.901  74.906
H  50.555  39.622  38.209
H  35.760  46.217  44.691
H  27.014  39.073  62.510
H  25.761  38.993  61.614
H  49.981  39.732  61.738
H  30.376  49.916  35.047
H  30.239  51.025  33.960
H  49.850  38.410  61.005
H  52.419  61.483  28.221
H  53.679  60.520  28.172
H  27.907  45.754  39.842
H  26.953  44.628  39.548
H  63.421  43.512  34.572
H  37.100  46.185  45.457
H  56.384  72.363  57.544
H  62.526  59.347  68.984
H  35.948  54.089  74.322
H  30.675  45.928  56.297
H  42.273  64.513  45.775
H  43.464  63.750  45.178
H  42.817  66.667  29.094
H  70.007  32.433  55.020
H  71.018  31.410  55.567
H  41.493  67.404  29.023
H  56.943  60.082  52.216
H  55.754  60.747  51.477
H  33.086  46.945  56.438
H  69.361  62.594  42.146
H  38.620  30.133  55.013
H  51.051  32.700  29.169
H  63.303  47.023  33.165
H  68.037  61.795  42.274
H  50.366  36.632  64.251
H  51.333  37.475  63.451
H  66.941  61.115  61.485
H  68.153  61.591  62.265
H  66.731  51.834  42.037
H  54.295  55.962  23.529
H  53.635  56.539  24.773
H  66.565  50.812  43.206
H  63.432  47.360  34.634
H  40.712  42.382  47.770
H  37.945  29.432  56.230
H  50.961  33.478  71.741
H  57.054  68.362  64.705
H  25.438  42.384  41.977
H  26.973  42.347  42.087
H  56.519  33.957  49.600
H  44.615  62.424  38.045
H  45.510  61.257  38.319
H  57.681  33.980  50.620
H  58.105  63.242  32.927
H  45.567  61.664  52.033
H  48.271  54.442  32.673
H  32.081  46.905  57.603
H  48.743  55.743  31.992
H  42.945  53.813  60.110
H  43.480  53.599  61.575
H  47.653  51.429  39.528
H  49.520  60.078  55.830
H  50.048  58.747  55.248
H  45.299  23.672  51.306
H  44.813  22.277  50.889
H  31.444  32.554  46.637
H  60.944  23.794  48.626
H  50.388  34.834  72.187
H  48.746  52.195  38.762
H  58.225  68.660  65.627
H  36.481  26.587  42.447
H  40.139  43.791  47.470
H  73.439  38.986  47.323
H  67.743  48.775  64.551
H  28.125  58.886  50.092
H  59.811  66.141  47.820
H  59.766  64.582  47.923
H  35.853  35.855  66.648
H  36.026  37.236  67.378
H  34.251  41.557  65.660
H  32.003  50.121  64.843
H  31.575  51.263  65.755
H  53.822  34.693  72.824
H  34.547  41.150  67.102
H  65.732  48.841  60.624
H  27.655  58.753  51.524
H  66.342  48.257  59.328
H  63.887  62.677  56.284
H  46.713  41.414  67.747
H  47.651  40.284  67.368
H  63.463  61.380  56.981
H  59.841  58.178  55.101
H  58.878  57.162  54.412
H  38.632  46.088  70.200
H  72.697  37.722  46.829
H  36.021  27.629  43.486
H  63.903  52.281  33.649
H  58.312  27.844  55.796
H  52.009  41.832  68.818
H  53.063  41.294  67.794
H  50.870  32.382  27.671
H  63.332  40.927  60.534
H  63.429  42.307  59.825
H  65.621  65.953  48.399
H  64.425  66.829  48.620
H  38.669  72.805  49.383
H  43.019  38.326  74.038
H  41.803  37.842  74.838
H  62.730  34.013  58.331
H  38.456  73.303  47.940
H  43.397  60.011  68.931
H  54.267  64.675  66.308
H  53.078  64.162  67.148
H  54.561  34.093  64.316
H  28.806  43.099  51.335
H  29.325  41.799  50.617
H  54.260  33.053  63.195
H  26.116  41.387  60.961
H  26.287  42.258  59.682
H  58.102  28.969  54.775
H  43.775  58.581  68.648
H  69.119  57.779  54.365
H  60.145  48.813  43.985
H  59.034  48.269  44.919
H  57.929  51.074  31.609
H  36.935  39.225  72.107
H  36.819  40.460  71.201
H  30.241  39.431  57.780
H  51.074  50.592  71.065
H  29.974  62.749  35.467
H  39.386  74.037  38.184
H  39.714  73.515  36.742
H  28.864  62.634  34.425
H  60.608  36.023  57.914
H  67.572  60.996  66.169
H  59.809  36.019  56.636
H  48.209  32.220  53.380
H  36.183  51.683  35.524
H  42.932  52.110  53.867
H  41.565  52.304  53.205
H  69.483  34.600  42.394
H  70.985  34.970  42.372
H  49.433  47.174  31.309
H  49.826  40.719  74.559
H  64.782  39.595  31.439
H  68.258  67.730  48.656
H  48.976  32.421  52.068
H  67.146  68.679  48.084
H  66.869  61.146  64.809
H  35.586  55.063  47.936
H  48.127  34.898  42.647
H  49.554  28.966  63.238
H  36.667  31.427  34.029
H  51.032  28.677  63.192
H  33.757  39.562  50.614
H  32.473  40.390  50.619
H  61.371  51.437  49.881
H  72.315  35.841  39.466
H  72.114  34.430  40.100
H  61.726  50.323  48.918
H  57.073  49.866  31.111
H  65.106  73.938  53.091
H  70.183  54.276  62.862
H  69.557  55.390  62.025
H  27.553  60.208  55.685
H  26.589  60.383  54.491
H  50.208  49.432  70.548
H  30.960  38.082  57.570
H  50.200  45.829  31.371
H  46.686  31.604  70.463
H  46.315  32.541  71.636
H  36.750  54.092  48.236
H  66.303  72.965  53.065
H  64.397  39.998  32.904
H  47.456  70.076  65.725
H  48.968  70.172  65.718
H  72.066  39.063  56.752
H  65.818  47.231  52.312
H  67.115  47.434  53.160
H  53.951  68.086  57.722
H  52.813  67.108  57.523
H  63.903  36.485  41.060
H  31.513  31.377  47.568
H  62.772  35.437  40.997
H  71.804  65.464  41.481
H  51.558  58.393  67.026
H  61.169  44.898  56.312
H  52.334  57.450  67.944
H  56.975  42.918  61.177
H  39.407  46.166  29.029
H  31.561  50.693  28.175
H  32.597  51.165  27.139
H  39.052  45.581  30.388
H  60.157  24.006  47.265
H  39.747  44.107  50.170
H  47.045  61.763  51.551
H  71.201  54.331  56.270
H  58.196  62.370  31.676
H  57.719  41.657  60.594
H  60.812  43.425  56.040
H  70.933  40.026  56.263
H  36.520  47.330  39.774
H  45.841  31.701  34.080
H  46.159  30.777  35.263
H  72.764  52.765  49.777
H  61.660  42.332  26.397
H  60.307  42.242  27.162
H  74.082  51.984  49.552
H  49.475  58.241  27.944
H  50.469  57.197  27.386
H  64.586  35.762  55.537
H  63.628  34.709  56.133
H  59.388  32.111  51.922
H  72.118  49.479  54.845
H  72.591  50.038  56.221
H  59.163  33.354  52.813
H  30.121  55.989  50.797
H  31.141  57.186  50.693
H  49.863  40.666  76.079
H  66.851  55.076  60.975
H  72.256  55.290  56.829
H  69.332  58.240  52.924
H  72.531  66.571  40.704
H  38.464  44.619  50.892
H  37.320  46.026  39.858
H  38.198  46.148  71.656
H  47.795  36.418  42.517
H  41.101  33.378  39.283
H  67.476  47.472  65.356
H  49.944  35.886  66.698
H  37.723  48.165  53.446
H  36.298  48.806  53.420
H  50.812  34.883  65.918
H  42.648  60.118  66.625
H  41.789  61.335  66.181
H  57.149  46.782  68.998
H  34.861  47.199  47.218
H  49.316  41.873  32.779
H  47.863  41.659  32.359
H  74.904  41.154  46.458
H  41.198  28.886  67.050
H  61.593  38.383  46.975
H  39.250  71.709  44.825
H  39.349  73.098  45.510
H  67.150  41.866  49.614
H  66.397  42.223  50.907
H  41.337  46.345  36.091
H  68.036  39.213  66.826
H  67.973  38.335  65.464
H  41.640  47.766  35.575
H  39.920  29.711  66.944
H  50.665  53.774  33.935
H  32.401  32.103  38.717
H  75.420  40.415  47.706
H  59.201  68.954  68.768
H  30.120  59.712  43.104
H  28.885  59.128  43.862
H  33.458  47.270  46.527
H  75.399  51.585  44.286
H  76.682  51.347  43.485
H  59.865  35.786  47.620
H  35.472  29.562  56.004
H  42.212  43.811  74.686
H  35.396  38.295  53.941
H  54.224  33.704  71.700
H  59.971  68.850  67.482
H  64.746  41.361  54.317
H  67.387  59.220  42.719
H  63.491  41.840  53.512
H  63.845  62.174  52.503
H  64.906  63.263  52.301
H  39.033  62.166  31.125
H  40.114  63.243  30.875
H  74.863  50.741  57.239
H  35.086  38.068  55.437
H  75.686  51.311  56.065
H  55.655  47.138  69.003
H  66.268  58.889  41.723
H  53.425  74.432  48.926
H  35.164  44.121  64.030
H  41.808  75.898  56.684
H  60.262  43.740  40.824
H  60.211  44.465  42.153
H  55.897  37.371  73.523
H  54.904  38.519  73.913
H  33.507  45.631  29.286
H  33.944  64.344  45.488
H  33.884  63.841  46.962
H  33.399  47.146  29.287
H  32.499  47.676  54.706
H  31.730  48.913  55.180
H  57.137  37.937  30.348
H  31.876  64.349  47.177
H  31.510  68.507  42.754
H  46.962  45.002  40.765
H  38.793  52.236  58.171
H  41.342  57.659  30.603
H  40.215  58.675  30.714
H  38.354  53.694  57.697
H  42.660  45.324  65.747
H  43.028  46.742  66.225
H  37.352  48.077  65.005
H  38.302  48.555  63.901
H  36.605  63.949  50.471
H  33.511  33.193  38.533
H  56.350  63.277  65.476
H  56.200  39.004  30.931
H  50.297  24.150  40.561
H  51.196  24.872  39.523
H  41.452  76.825  55.509
H  36.103  45.115  41.189
H  35.547  46.148  42.194
H  43.143  41.236  56.916
H  44.305  42.241  56.939
H  64.106  40.950  35.156
H  41.728  42.384  74.231
H  50.926  54.768  32.783
H  57.389  62.431  64.716
H  62.436  38.334  45.689
H  44.170  37.283  37.049
H  35.663  42.725  64.443
H  73.830  36.626  44.949
H  44.736  57.598  22.480
H  45.759  57.593  23.646
H  73.482  36.270  43.518
H  68.776  65.911  42.126
H  69.142  67.197  41.389
H  61.475  37.400  59.239
H  59.985  37.083  59.446
H  43.682  38.543  36.426
H  52.809  73.032  48.766
H  56.397  40.214  49.303
H  42.045  51.232  69.609
H  41.929  51.548  63.207
H  38.559  44.970  24.011
H  42.548  33.025  38.920
H  33.808  31.127  46.744
H  54.275  71.600  39.046
H  53.059  38.751  63.376
H  53.095  39.568  64.661
H  52.698  48.410  35.269
H  62.043  47.726  60.636
H  61.710  47.573  59.161
H  42.852  50.537  62.486
H  38.539  51.036  73.673
H  28.960  35.508  46.140
H  43.267  64.255  48.688
H  43.840  65.523  49.292
H  28.848  36.283  47.427
H  55.719  72.060  39.364
H  35.060  31.455  45.922
H  45.588  55.585  62.193
H  44.544  56.685  62.350
H  67.469  59.038  62.630
H  36.660  64.727  38.152
H  37.077  51.106  74.202
H  37.228  63.477  38.787
H  51.677  71.521  47.167
H  45.801  56.811  72.126
H  41.264  65.525  48.734
H  43.450  43.758  35.339
H  70.394  35.881  35.086
H  39.376  75.752  55.311
H  38.377  75.277  54.183
H  70.001  41.462  49.444
H  63.893  71.989  47.604
H  62.778  72.313  48.595
H  69.278  42.557  48.655
H  44.541  34.457  44.873
H  47.031  57.389  72.827
H  43.269  35.310  45.073
H  32.192  42.412  46.371
H  32.408  38.818  48.625
H  69.220  36.319  36.012
H  40.431  65.865  47.557
H  32.866  38.542  47.131
H  39.400  32.149  61.524
H  38.083  32.776  61.016
H  67.718  30.780  50.458
H  68.648  29.709  49.873
H  50.256  71.555  47.604
H  31.012  43.248  45.820
H  66.406  57.949  62.439
H  68.587  46.146  41.556
H  67.211  46.846  41.420
H  68.855  33.223  49.245
H  47.534  38.293  31.934
H  27.574  55.145  51.828
H  43.851  42.425  36.028
H  65.547  41.476  34.833
H  30.331  64.145  47.176
H  57.059  35.865  32.680
H  35.411  28.086  56.430
H  22.310  42.489  50.728
H  23.065  41.340  49.952
H  68.209  33.974  48.106
H  68.332  50.021  60.945
H  60.300  60.620  44.280
H  71.594  62.925  48.731
H  70.375  63.286  47.804
H  61.592  60.115  44.963
H  55.799  42.159  33.470
H  54.372  41.528  33.381
H  58.477  36.360  32.384
H  61.350  36.192  47.818
H  57.083  40.143  50.682
H  43.383  50.662  70.004
H  69.128  50.591  59.756
H  46.798  38.836  30.704
H  44.259  48.396  57.121
H  45.574  48.293  56.310
H  43.435  64.999  36.595
H  42.290  65.405  35.621
H  37.162  62.733  49.779
H  51.604  49.462  35.508
H  47.680  70.385  61.358
H  48.619  71.173  60.393
H  27.942  56.399  51.003
H  43.863  43.042  37.965
H  45.272  43.701  37.942
H  73.749  56.805  54.677
H  47.146  58.980  61.619
H  46.915  57.550  61.074
H  73.675  55.645  53.703
H  40.913  74.790  44.318
H  40.819  74.666  45.867
H  43.848  37.177  29.064
H  42.323  37.359  29.404
H  45.136  35.501  46.512
H  62.494  55.073  29.756
H  63.251  54.426  30.902
H  44.855  36.995  46.210
H  36.875  64.506  44.740
H  35.531  63.793  44.435
H  39.340  43.781  24.639
H  63.677  60.287  68.643
H  40.664  40.839  33.629
H  52.677  41.027  25.036
H  61.065  37.459  49.432
H  64.121  45.644  30.882
H  64.052  47.168  30.632
H  48.601  63.557  60.327
H  46.061  69.488  37.958
H  44.918  69.020  37.031
H  47.292  64.158  59.814
H  50.102  39.392  26.773
H  49.058  39.504  27.926
H  63.447  44.199  54.398
H  60.537  63.258  53.709
H  64.154  43.713  55.706
H  22.513  51.716  51.455
H  21.278  50.882  51.051
H  31.176  45.289  35.797
H  63.569  37.400  50.113
H  64.774  36.690  50.794
H  50.862  56.169  30.978
H  50.390  57.488  30.385
H  39.955  53.635  75.104
H  52.428  72.015  39.958
H  51.607  72.717  38.853
H  30.399  44.345  36.772
H  40.647  52.491  75.861
H  61.096  63.732  55.079
H  45.734  56.566  53.460
H  47.128  57.131  38.345
H  65.383  68.403  49.711
H  42.557  48.424  60.362
H  43.085  47.481  61.494
H  34.110  40.675  26.713
H  35.232  41.714  26.641
H  45.613  58.601  38.215
H  56.207  37.751  34.071
H  55.598  38.144  32.712
H  67.249  49.978  58.199
H  46.547  57.097  52.271
H  60.839  38.813  50.104
H  66.341  30.241  45.889
H  67.158  29.205  46.653
H  37.970  30.814  60.290
H  38.136  37.887  40.619
H  38.405  39.346  40.153
H  36.845  30.675  59.274
H  63.749  33.118  45.690
H  63.920  33.134  44.166
H  45.618  40.271  70.884
H  46.068  38.961  71.572
H  68.183  48.757  58.198
H  46.430  55.987  39.077
H  46.424  26.618  47.926
H  36.609  52.300  34.182
H  48.482  60.311  70.162
H  45.513  52.050  28.632
H  31.213  60.906  59.797
H  35.101  71.159  53.001
H  46.811  51.594  27.910
H  55.901  32.231  29.721
H  54.637  31.511  29.214
H  29.097  61.201  57.943
H  28.119  62.079  57.176
H  63.318  37.399  65.556
H  53.197  27.932  31.378
H  52.064  38.647  40.604
H  62.264  38.516  65.392
H  31.526  61.949  58.692
H  57.058  51.411  47.510
H  35.714  57.083  54.060
H  56.767  50.081  48.234
H  63.106  55.691  48.938
H  66.504  37.297  57.251
H  66.706  36.751  55.837
H  64.621  55.611  48.736
H  41.744  72.263  61.458
H  50.905  39.485  41.172
H  56.507  42.813  40.392
H  34.866  48.175  62.790
H  41.020  52.904  26.083
H  39.387  33.668  65.703
H  44.297  36.864  48.861
H  43.136  36.048  49.442
H  57.818  71.567  36.444
H  42.595  70.597  64.966
H  42.302  72.057  65.286
H  56.855  71.782  37.667
H  52.758  28.240  59.166
H  54.250  28.540  59.188
H  47.400  73.958  59.411
H  36.310  48.208  62.215
H  46.395  74.444  60.475
H  39.899  35.107  65.481
H  54.614  28.520  31.186
H  55.504  28.633  48.722
H  58.147  44.093  27.360
H  57.901  42.625  27.383
H  36.888  47.107  37.063
H  36.375  45.674  37.480
H  39.506  53.178  26.039
H  34.283  45.120  36.867
H  34.688  43.626  36.688
H  56.397  28.757  49.929
H  66.498  69.361  50.107
H  44.422  59.409  37.688
H  26.820  58.102  57.644
H  46.157  45.716  29.583
H  41.154  71.581  43.656
H  54.318  45.876  63.974
H  52.974  46.610  63.705
H  52.042  32.645  54.161
H  51.736  31.330  54.936
H  35.535  58.080  32.183
H  29.690  37.807  60.653
H  30.016  39.109  61.445
H  37.031  58.242  32.520
H  46.740  44.378  29.130
H  34.605  64.358  40.996
H  31.753  42.986  67.004
H  30.957  42.476  65.776
H  28.058  58.103  65.488
H  56.050  37.119  36.081
H  57.203  38.081  36.357
H  55.135  31.779  40.174
H  31.422  41.495  54.771
H  69.843  52.039  61.701
H  71.249  50.462  66.434
H  59.559  71.329  66.434
H  33.627  65.438  40.555
H  59.763  70.714  65.033
H  42.497  71.135  43.123
H  42.797  49.730  77.832
H  29.232  46.403  56.035
H  28.606  51.312  51.411
H  46.475  26.845  55.422
H  29.995  51.376  50.705
H  30.449  63.970  43.667
H  58.250  31.370  34.493
H  56.837  30.886  34.095
H  34.851  62.635  49.209
H  34.377  61.538  48.265
H  65.344  33.714  35.632
H  43.932  49.826  76.816
H  37.296  53.637  73.737
H  64.233  34.755  35.768
H  31.138  53.616  44.663
H  31.536  54.349  45.994
H  25.372  43.241  63.089
H  61.147  27.269  59.786
H  28.179  49.901  59.045
H  27.562  48.517  59.194
H  28.441  57.168  66.678
H  30.209  56.716  55.617
H  31.647  56.273  56.037
H  40.135  70.433  60.790
H  47.750  25.518  44.554
H  63.521  59.915  73.505
H  62.763  58.693  74.103
H  60.616  51.096  31.077
H  61.433  51.672  29.912
H  42.334  33.675  61.010
H  71.286  63.212  41.332
H  72.326  62.243  41.914
H  64.374  37.946  30.347
H  63.932  36.927  29.253
H  74.107  37.553  57.074
H  58.664  35.950  37.780
H  74.290  39.061  56.820
H  40.921  34.032  60.404
H  46.641  66.148  61.070
H  58.807  49.695  70.939
H  71.057  50.519  33.606
H  72.439  51.007  33.154
H  26.420  57.504  34.635
H  62.231  44.612  45.364
H  61.830  43.164  45.750
H  26.757  57.177  36.082
H  57.785  36.594  38.855
H  70.831  61.034  51.135
H  71.814  60.822  49.942
H  60.211  50.287  70.982
H  51.624  78.467  48.851
H  50.191  78.760  49.302
H  68.882  51.682  62.813
H  58.623  36.645  73.163
H  57.604  36.095  74.196
H  63.701  60.998  61.407
H  45.088  70.456  44.353
H  44.332  69.657  43.267
H  64.527  61.436  60.151
H  71.754  51.465  65.368
H  49.537  41.742  56.454
H  34.919  56.414  68.226
H  35.287  56.744  66.737
H  27.829  63.032  59.768
H  60.828  59.550  38.454
H  60.934  58.028  38.494
H  27.113  64.369  59.695
H  51.788  34.973  29.255
H  50.503  35.406  30.001
H  60.623  52.457  69.194
H  61.178  51.016  69.017
H  27.910  59.204  57.410
H  48.141  24.753  45.824
H  50.380  40.461  56.719
H  56.002  33.015  40.494
H  46.972  67.046  59.879
H  42.136  71.354  60.277
H  52.931  42.531  24.944
H  54.079  62.432  56.116
H  49.754  61.229  70.390
H  56.880  26.569  34.402
H  31.806  56.277  36.601
H  30.938  57.120  35.658
H  49.699  76.332  59.990
H  29.976  67.174  46.476
H  29.039  67.678  47.598
H  48.190  75.941  60.182
H  31.152  31.937  61.893
H  30.997  33.032  62.978
H  70.348  53.671  39.888
H  55.378  26.762  34.763
H  70.244  53.416  38.387
H  61.615  45.713  32.928
H  47.309  48.662  21.582
H  61.493  34.759  50.306
H  62.440  35.665  51.169
H  21.780  56.486  48.534
H  22.827  57.406  49.235
H  73.907  64.441  43.182
H  64.885  34.119  53.410
H  64.286  33.694  52.011
H  72.481  64.068  43.713
H  37.043  57.201  39.701
H  55.197  61.143  60.053
H  47.460  30.138  68.762
H  37.544  34.726  52.439
H  60.989  65.168  69.320
H  61.882  65.807  70.382
H  67.278  55.453  52.238
H  67.225  56.876  52.810
H  26.278  65.924  53.315
H  33.389  40.670  52.310
H  33.695  39.362  53.138
H  34.511  51.679  32.084
H  47.060  50.078  21.012
H  64.094  39.798  57.572
H  64.041  41.361  57.389
H  36.994  34.376  53.834
H  36.526  52.509  61.353
H  34.467  50.133  56.981
H  26.398  51.091  59.712
H  25.715  52.507  59.902
H  35.477  50.751  57.927
H  33.787  39.396  65.745
H  33.834  37.957  66.307
H  75.102  57.445  47.381
H  73.779  58.199  47.688
H  47.392  31.630  68.382
H  38.027  52.580  61.005
H  50.998  65.319  37.212
H  56.703  61.298  60.235
H  71.011  56.304  35.522
H  56.721  43.061  69.586
H  32.602  65.591  36.227
H  31.298  64.911  35.783
H  61.800  42.690  38.861
H  49.680  34.827  69.370
H  51.198  34.820  69.573
H  27.686  43.118  62.876
H  29.100  43.763  62.600
H  37.815  44.451  46.653
H  32.916  50.792  50.639
H  62.444  43.374  40.022
H  31.795  49.824  51.009
H  36.657  32.767  33.245
H  56.715  44.032  70.749
H  67.896  55.623  60.011
H  39.487  41.516  32.892
H  46.287  28.645  66.952
H  68.351  49.211  49.214
H  69.615  48.667  48.558
H  47.378  27.536  66.892
H  42.001  32.178  43.714
H  41.243  31.007  44.401
H  39.021  45.252  46.106
H  71.356  55.050  36.299
H  52.783  58.474  43.577
H  37.181  57.122  29.452
H  63.477  51.873  53.408
H  28.905  47.314  53.875
H  28.023  48.574  54.090
H  65.002  51.933  53.160
H  50.386  74.404  38.571
H  49.045  74.097  39.229
H  42.572  59.693  71.628
H  42.613  60.955  70.751
H  37.724  56.271  40.744
H  61.277  44.367  32.207
H  37.151  55.632  29.104
H  57.383  64.699  67.337
H  63.766  33.175  59.067
H  53.537  59.720  44.099
H  29.657  36.919  58.565
H  28.741  35.699  58.379
H  30.253  48.211  58.530
H  31.356  47.770  59.551
H  51.317  25.289  33.924
H  47.941  45.860  54.316
H  46.991  44.656  54.100
H  52.687  25.515  34.590
H  43.888  46.094  30.065
H  36.409  58.185  58.525
H  35.352  57.080  58.886
H  50.486  66.495  36.356
H  34.495  49.031  59.621
H  39.798  51.707  62.394
H  56.687  66.039  67.161
H  50.706  58.956  39.621
H  41.706  54.317  54.345
H  39.749  61.861  37.698
H  40.318  60.440  37.309
H  50.327  51.409  64.709
H  30.295  63.135  55.553
H  71.203  52.839  67.519
H  34.025  48.186  58.376
H  71.299  54.368  67.874
H  70.711  65.707  58.978
H  25.786  51.972  56.137
H  53.890  41.008  50.222
H  52.655  40.305  50.804
H  26.863  52.942  55.704
H  60.293  64.546  61.202
H  61.368  65.526  60.855
H  64.236  59.020  38.497
H  63.218  58.499  37.486
H  39.550  56.393  55.760
H  70.092  65.252  60.275
H  56.478  33.021  65.355
H  39.851  51.692  63.931
H  45.533  62.147  72.017
H  35.599  58.592  54.438
H  22.997  55.490  42.657
H  24.405  56.051  42.443
H  31.073  62.582  54.357
H  56.760  63.040  45.426
H  51.955  58.104  39.926
H  66.953  29.015  53.591
H  65.445  29.259  53.354
H  28.738  41.919  35.524
H  76.144  39.719  50.660
H  44.277  62.231  71.099
H  77.567  40.328  50.701
H  63.418  52.318  58.271
H  62.112  52.398  57.519
H  64.606  57.144  64.632
H  63.332  56.384  64.311
H  43.658  34.062  51.307
H  48.886  51.928  64.824
H  44.479  33.420  50.179
H  57.717  62.059  46.147
H  58.929  63.146  55.807
H  58.383  63.469  57.223
H  30.168  42.197  35.071
H  55.319  32.258  65.996
H  40.300  55.664  56.913
H  35.644  55.357  61.990
H  40.919  30.903  37.453
H  54.127  29.221  61.759
H  40.705  65.702  72.416
H  41.745  66.850  72.113
H  34.932  50.190  32.210
H  53.877  45.858  25.355
H  40.411  73.968  57.865
H  37.811  29.677  49.901
H  44.199  50.697  22.813
H  65.041  51.445  33.032
H  40.244  30.727  38.823
H  69.052  41.994  38.041
H  58.739  40.401  45.656
H  60.106  39.986  46.248
H  60.770  72.599  39.639
H  33.364  46.348  50.432
H  34.019  47.033  49.241
H  59.742  72.411  38.472
H  52.110  38.968  43.896
H  53.159  38.038  43.267
H  42.887  49.885  22.970
H  26.203  64.451  53.759
H  69.119  43.526  38.206
H  55.350  28.430  61.198
H  57.579  35.778  45.072
H  56.170  35.416  44.580
H  36.713  54.309  62.364
H  50.575  56.532  77.336
H  50.789  55.698  78.619
H  40.662  55.465  54.244
H  35.934  72.447  52.721
H  37.946  29.304  48.431
H  44.164  46.487  31.525
H  34.134  54.652  51.657
H  55.352  45.670  25.761
H  47.434  41.234  26.951
H  56.455  70.291  39.804
H  57.337  69.300  40.579
H  46.219  41.713  27.704
H  70.631  57.498  39.080
H  71.224  58.262  37.873
H  51.424  53.533  65.409
H  51.058  53.469  63.915
H  57.136  45.259  58.088
H  32.656  55.127  51.433
H  57.604  44.248  59.134
H  39.867  75.395  57.675
H  71.825  53.319  41.973
H  70.454  52.740  42.018
H  55.214  63.137  56.906
H  62.085  40.832  55.890
H  42.449  36.716  57.817
H  45.345  29.426  53.019
H  71.339  50.069  45.878
H  72.809  49.810  46.238
H  64.477  67.230  41.387
H  41.888  36.391  27.221
H  41.950  47.279  69.294
H  36.879  47.798  51.229
H  61.755  52.188  62.755
H  60.701  42.352  63.517
H  58.904  47.291  67.243
H  63.892  35.662  60.076
H  63.137  67.278  42.157
H  63.849  36.330  58.678
H  58.727  54.256  61.035
H  44.684  27.666  42.236
H  40.598  67.090  37.956
H  41.078  67.126  36.496
H  45.250  26.248  41.751
H  56.888  25.550  36.525
H  55.895  25.870  37.629
H  60.368  43.775  63.039
H  43.794  28.214  45.106
H  40.583  63.093  67.307
H  57.487  54.645  61.840
H  71.483  51.099  59.262
H  43.302  42.263  24.104
H  63.806  48.147  55.069
H  65.444  42.215  67.095
H  66.028  41.119  68.037
H  57.020  61.515  62.689
H  41.286  39.247  30.120
H  29.117  44.149  42.800
H  28.113  44.115  41.651
H  41.359  34.992  26.776
H  38.238  52.445  32.635
H  39.332  52.325  31.584
H  55.509  69.278  57.231
H  43.886  43.693  24.215
H  67.117  37.787  40.486
H  54.689  70.346  56.542
H  31.708  59.229  56.828
H  30.869  58.453  57.870
H  62.668  73.189  54.056
H  63.163  72.877  52.627
H  58.704  46.132  42.916
H  61.774  48.973  45.139
H  63.146  49.202  45.888
H  59.285  46.794  41.624
H  65.001  47.327  54.595
H  67.020  38.431  41.838
H  62.544  43.733  43.173
H  71.221  49.578  59.217
H  44.942  54.197  36.476
H  49.271  58.240  24.727
H  46.310  37.588  41.047
H  43.065  58.611  45.058
H  44.192  59.505  45.600
H  45.850  38.515  42.196
H  64.181  32.838  49.111
H  63.615  33.716  50.237
H  39.831  31.893  32.446
H  34.437  36.497  57.052
H  25.676  52.059  65.550
H  49.391  59.267  25.852
H  26.182  52.690  64.240
H  33.597  45.452  34.211
H  36.935  45.883  52.899
H  39.418  67.974  44.358
H  38.872  68.506  43.031
H  41.112  45.165  68.013
H  39.897  44.318  67.449
H  46.109  33.844  67.478
H  37.314  54.530  27.426
H  38.789  54.765  27.013
H  45.564  32.853  68.536
H  65.547  54.694  28.490
H  42.010  63.350  67.931
H  56.219  45.582  74.771
H  39.816  32.638  33.755
H  45.985  53.443  37.393
H  63.288  64.384  35.364
H  63.307  63.558  36.657
H  35.899  35.995  56.950
H  49.879  32.131  68.300
H  51.343  31.792  68.430
H  44.340  26.788  45.001
H  57.426  46.952  66.986
H  29.914  62.298  52.608
H  67.642  63.161  33.953
H  56.012  46.437  73.511
H  51.909  37.295  65.779
H  37.934  53.913  36.334
H  38.327  54.091  37.793
H  25.448  65.602  50.474
H  57.277  65.675  42.852
H  58.539  65.966  42.053
H  60.189  48.582  65.071
H  61.257  47.910  65.942
H  71.753  53.119  33.953
H  67.515  61.667  34.339
H  72.921  52.507  34.746
H  26.477  66.766  50.353
H  65.572  56.241  28.681
H  61.971  45.135  43.425
H  50.737  39.743  24.179
H  42.360  59.650  36.701
H  61.651  62.150  43.244
H  34.214  65.737  52.031
H  39.779  48.788  31.315
H  38.840  50.002  31.524
H  42.211  65.069  63.708
H  42.355  66.585  63.668
H  58.920  50.058  48.534
H  56.556  49.443  36.042
H  56.984  50.879  35.491
H  37.609  62.613  68.852
H  59.630  48.923  49.271
H  41.610  23.636  53.475
H  34.138  66.074  53.523
H  41.917  22.952  52.116
H  49.065  50.199  73.964
H  41.748  57.745  40.577
H  42.851  58.320  41.531
H  49.588  49.657  72.587
H  52.467  69.515  37.301
H  53.848  69.527  37.965
H  29.701  41.578  61.928
H  43.046  60.695  35.808
H  31.109  41.222  62.312
H  36.701  59.405  56.206
H  48.841  67.119  38.216
H  54.298  56.296  39.213
H  53.996  56.359  40.726
H  52.737  58.953  28.944
H  62.047  45.516  58.973
H  61.179  44.520  59.823
H  68.117  35.046  57.223
H  69.617  35.139  57.377
H  37.782  42.979  44.456
H  68.509  44.571  32.094
H  69.857  44.210  31.415
H  48.448  49.478  24.686
H  37.625  44.464  44.095
H  47.850  49.207  32.633
H  34.928  52.457  66.641
H  33.474  52.404  67.145
H  34.714  45.165  48.107
H  25.576  60.133  44.731
H  24.402  59.620  45.575
H  33.281  44.582  48.085
H  66.554  62.167  49.956
H  67.701  61.276  49.374
H  48.789  68.624  38.505
H  48.230  49.678  34.063
H  59.497  49.092  77.073
H  58.920  55.909  51.675
H  60.456  63.013  43.527
H  47.524  51.768  62.881
H  37.148  65.113  60.041
H  57.388  55.593  51.635
H  49.980  47.899  29.461
H  66.336  47.849  72.179
H  73.781  41.684  35.991
H  72.446  41.972  35.311
H  42.373  39.484  29.068
H  31.331  47.322  52.238
H  32.260  48.474  52.628
H  48.099  51.835  61.469
H  63.690  73.325  40.288
H  33.159  35.344  65.203
H  69.669  54.104  34.933
H  69.501  52.570  35.168
H  32.450  34.791  63.968
H  66.466  48.385  73.615
H  51.382  47.662  30.089
H  56.824  66.053  45.390
H  57.618  65.059  46.241
H  58.446  48.063  76.598
H  51.063  38.374  24.804
H  63.872  71.820  40.538
H  37.734  66.159  59.085
H  45.428  40.433  60.694
H  60.389  53.457  36.284
H  65.265  50.356  67.380
H  42.041  47.634  67.771
H  48.733  72.347  65.299
H  24.962  47.292  61.740
H  24.341  48.508  62.431
H  57.859  53.939  48.937
H  57.950  35.079  61.422
H  57.731  36.463  60.778
H  58.885  53.638  47.827
H  49.198  55.527  65.436
H  59.753  52.913  37.545
H  49.676  54.859  64.121
H  30.683  34.455  61.381
H  46.767  44.628  26.957
H  48.867  73.899  65.320
H  66.795  50.355  67.248
H  47.574  44.839  25.651
H  60.648  44.329  53.911
H  59.822  44.211  52.621
H  63.817  58.487  53.310
H  65.346  58.734  53.365
H  45.188  39.987  62.181
H  30.255  34.690  59.947
H  55.197  40.643  68.488
H  40.973  69.253  42.924
H  55.102  41.024  69.981
H  32.147  35.625  44.587
H  42.522  36.255  46.773
H  26.784  64.082  40.590
H  28.043  63.673  39.809
H  33.741  68.345  54.209
H  34.957  68.222  55.124
H  48.639  71.507  50.707
H  35.750  69.398  43.740
H  34.601  68.413  43.884
H  48.279  70.085  51.299
H  32.495  35.023  43.182
H  43.973  57.042  30.312
H  63.861  70.932  37.241
H  64.470  72.242  37.800
H  52.431  41.372  72.500
H  45.556  43.008  67.379
H  45.299  43.588  68.817
H  44.460  52.503  63.200
H  43.831  34.701  71.759
H  33.319  61.606  64.191
H  51.424  39.918  55.035
H  39.848  64.656  43.733
H  43.561  56.615  31.740
H  38.999  65.894  44.030
H  41.268  37.083  46.494
H  27.236  59.904  47.545
H  43.670  38.035  33.856
H  43.300  42.624  59.132
H  46.689  42.120  62.569
H  43.584  44.067  58.675
H  47.135  24.042  43.127
H  72.253  56.552  59.578
H  71.183  55.885  58.675
H  30.220  39.718  64.529
H  28.881  40.466  64.342
H  63.753  58.697  42.816
H  28.317  60.816  48.133
H  68.835  48.920  46.778
H  62.575  59.612  43.195
H  65.810  66.423  54.187
H  66.293  65.233  55.043
H  56.342  66.018  34.908
H  70.217  32.430  42.155
H  41.027  39.739  65.496
H  40.182  39.480  66.774
H  52.306  40.755  73.932
H  30.349  45.975  62.137
H  31.161  44.825  61.533
H  70.247  48.403  46.462
H  42.912  37.280  32.784
H  36.510  40.348  64.126
H  34.891  57.265  39.350
H  35.132  57.036  29.351
H  58.072  30.342  67.217
H  58.266  31.390  66.125
H  35.445  56.653  27.924
H  42.065  71.737  49.715
H  43.269  71.524  48.736
H  60.291  50.676  24.402
H  60.803  51.426  23.154
H  50.066  68.310  65.032
H  31.109  52.621  63.612
H  35.984  44.281  69.665
H  49.460  68.562  63.642
H  56.629  38.736  66.914
H  55.879  39.631  65.910
H  48.787  38.504  66.387
H  47.399  37.825  66.116
H  51.642  67.632  37.749
H  50.154  49.895  29.151
H  49.529  51.087  28.400
H  52.772  66.596  37.813
H  31.104  54.171  63.563
H  41.820  49.018  37.677
H  50.763  61.334  59.402
H  34.647  58.786  39.156
H  35.177  45.337  68.896
H  50.738  60.160  60.419
H  67.565  42.965  35.842
H  67.529  43.135  34.304
H  62.946  53.279  68.536
H  64.664  43.952  70.695
H  65.224  43.349  69.366
H  63.606  54.620  68.095
H  51.558  38.646  54.098
H  38.430  41.269  61.706
H  35.852  47.162  29.308
H  35.962  46.197  28.095
H  32.934  60.157  63.894
H  43.972  33.508  31.314
H  42.895  73.339  36.029
H  45.117  33.947  30.348
H  55.601  48.788  24.220
H  55.811  50.087  24.948
H  56.376  49.254  26.833
H  55.602  50.075  27.867
H  27.365  53.600  50.447
H  35.811  41.186  63.045
H  39.522  41.928  60.813
H  45.023  53.908  63.488
H  42.620  72.388  37.198
H  61.853  64.289  57.489
H  60.790  65.280  57.234
H  28.703  35.200  41.357
H  64.453  30.955  51.734
H  43.885  73.293  39.352
H  44.463  74.226  38.273
H  53.055  60.283  68.666
H  52.968  61.354  67.590
H  41.655  29.197  33.127
H  62.954  75.612  44.825
H  61.883  75.376  45.898
H  41.809  29.220  31.539
H  50.558  33.114  36.161
H  62.567  57.335  44.265
H  49.636  33.247  37.405
H  57.946  60.448  62.096
H  56.862  65.492  33.522
H  45.030  63.728  35.044
H  52.257  49.694  77.612
H  58.440  42.271  33.028
H  57.800  41.365  31.977
H  53.310  50.805  77.735
H  47.554  54.714  59.901
H  48.992  54.425  60.303
H  46.207  61.362  69.040
H  61.085  53.181  61.811
H  46.084  61.448  67.492
H  63.554  57.801  45.390
H  68.481  35.977  55.204
H  56.153  46.321  60.471
H  33.325  73.334  49.872
H  33.719  72.559  51.144
H  55.705  46.764  59.098
H  58.462  63.876  36.375
H  59.752  64.539  36.901
H  35.529  48.247  66.471
H  34.726  49.238  67.389
H  35.843  47.355  50.191
H  31.266  61.754  52.110
H  65.028  30.013  50.674
H  32.206  46.095  34.108
H  38.437  42.528  52.178
H  38.577  41.676  53.412
H  41.532  67.822  43.221
H  52.050  69.236  59.692
H  35.365  35.118  33.305
H  34.428  36.280  33.760
H  51.535  68.295  58.617
H  64.408  50.757  60.450
H  64.203  51.410  61.831
H  69.563  35.899  54.099
H  38.459  45.104  53.280
H  45.063  62.985  33.680
H  21.943  44.070  52.883
H  21.608  44.690  51.505
H  50.174  38.830  71.083
H  54.570  36.885  57.970
H  48.640  36.529  29.344
H  32.039  40.479  56.394
H  32.726  39.200  56.940
H  54.377  37.333  56.526
H  60.480  23.791  51.841
H  59.538  24.776  52.576
H  38.988  69.960  41.131
H  40.018  70.736  42.016
H  67.531  54.378  54.354
H  48.401  76.725  45.677
H  49.180  73.849  48.498
H  47.765  78.134  45.739
H  46.760  22.675  42.583
H  52.053  32.607  48.310
H  51.911  31.065  48.475
H  47.670  43.197  62.114
H  69.196  31.577  42.882
H  28.708  34.815  39.861
H  64.232  41.405  42.742
H  64.864  40.105  42.259
H  48.964  74.478  49.879
H  67.584  54.035  55.863
H  53.978  35.070  54.182
H  58.635  25.577  38.311
H  48.391  31.689  34.345
H  66.132  49.492  50.460
H  48.506  32.916  35.274
H  30.738  32.013  41.371
H  29.958  33.255  41.946
H  57.143  42.417  36.904
H  41.523  27.209  39.483
H  41.111  28.651  39.963
H  58.431  42.240  37.753
H  59.706  55.653  37.870
H  60.443  55.908  39.171
H  40.341  71.206  50.919
H  40.089  72.166  52.129
H  67.392  49.087  51.271
H  47.842  36.378  28.026
H  42.903  35.934  71.479
H  51.411  38.690  71.991
H  30.333  50.771  58.981
H  30.043  51.261  57.500
H  35.987  75.138  51.422
H  37.158  74.813  50.472
H  54.233  35.424  52.726
H  58.309  26.264  39.664
H  71.851  60.801  45.296
H  46.765  22.537  46.254
H  45.681  22.008  45.315
H  73.125  61.558  45.762
H  56.135  51.722  29.921
H  62.785  51.219  39.131
H  75.061  41.849  41.309
H  74.298  41.484  42.582
H  32.593  44.196  36.599
H  64.612  29.073  57.954
H  44.260  26.201  52.857
H  40.364  33.118  45.945
H  32.240  55.955  30.985
H  36.310  60.872  56.240
H  55.398  51.323  31.236
H  48.017  63.697  28.156
H  46.504  28.864  48.861
H  47.332  27.866  49.694
H  49.190  63.482  69.121
H  61.684  36.110  55.212
H  60.578  36.216  54.099
H  47.836  62.817  68.762
H  35.729  65.683  42.311
H  36.806  64.624  42.524
H  33.731  56.333  31.142
H  61.535  62.769  35.381
H  48.139  62.334  27.471
H  76.133  52.174  39.353
H  61.594  51.934  38.426
H  47.466  21.934  53.072
H  43.467  26.537  57.388
H  42.013  26.140  57.645
H  71.300  63.014  46.107
H  69.706  57.159  41.614
H  41.152  34.348  46.515
H  55.575  52.557  40.842
H  33.194  51.267  48.873
H  65.465  28.571  59.156
H  71.738  54.594  54.216
H  62.940  31.870  57.497
H  47.042  21.364  51.712
H  63.347  32.286  56.093
H  62.628  50.169  34.465
H  61.786  49.213  35.381
H  63.948  46.636  47.760
H  63.759  45.526  48.845
H  71.280  43.736  58.570
H  34.699  51.479  49.169
H  71.455  45.262  58.900
H  43.646  26.950  54.075
H  38.949  67.971  32.541
H  40.266  67.853  33.314
H  71.695  53.148  53.626
H  58.575  52.097  74.234
H  24.821  52.523  51.343
H  75.972  53.301  40.410
H  32.458  35.564  68.007
H  68.792  57.869  37.438
H  68.992  56.666  36.497
H  48.675  38.860  63.643
H  46.012  36.813  32.733
H  45.275  35.454  32.748
H  47.321  39.765  63.164
H  33.927  44.222  71.433
H  33.589  45.076  72.668
H  59.101  48.287  24.305
H  31.553  36.670  67.368
H  58.699  48.680  22.882
H  63.971  58.386  58.330
H  49.670  31.859  40.684
H  57.952  53.444  30.836
H  57.944  54.670  31.758
H  64.631  47.654  42.742
H  63.873  48.978  42.722
H  61.150  64.155  30.418
H  55.030  54.700  33.300
H  56.071  54.716  32.165
H  62.636  64.071  30.025
H  48.463  66.647  62.755
H  25.717  51.957  52.463
H  63.840  46.423  63.487
H  55.010  49.146  37.544
H  60.223  62.198  25.552
H  59.224  62.111  26.718
H  68.268  43.032  55.302
H  68.470  43.754  53.925
H  60.497  61.824  35.993
H  67.762  44.846  45.163
H  67.803  46.217  45.856
H  32.761  42.757  37.148
H  48.523  31.222  41.468
H  35.439  36.893  64.666
H  34.525  36.415  63.547
H  53.707  49.819  37.194
H  61.108  39.566  52.220
H  40.985  76.763  49.411
H  40.157  63.647  63.242
H  41.358  62.813  63.701
H  42.264  77.366  48.856
H  61.612  65.233  38.495
H  61.354  65.551  39.979
H  62.514  57.732  29.267
H  63.191  56.618  28.414
H  63.292  46.880  64.814
H  59.730  38.961  52.209
H  57.975  50.702  74.498
H  42.293  69.616  50.932
H  34.728  55.327  44.212
H  55.086  60.057  49.503
H  41.573  45.097  41.528
H  61.805  70.850  36.372
H  68.729  57.493  40.498
H  40.126  44.929  42.025
H  55.805  58.609  63.326
H  55.481  59.509  62.129
H  46.832  60.249  28.578
H  47.685  60.124  27.311
H  62.976  61.052  63.202
H  65.774  44.752  46.257
H  42.781  72.398  44.946
H  62.024  60.096  63.943
H  61.916  69.778  37.483
H  68.378  46.646  58.285
H  62.595  55.438  24.282
H  67.264  45.970  59.065
H  74.983  54.215  62.789
H  41.236  56.365  59.389
H  40.042  55.385  59.342
H  74.287  55.198  63.748
H  47.617  54.708  66.364
H  41.857  72.700  46.137
H  47.218  53.238  66.668
H  49.439  72.425  41.588
H  64.916  62.104  35.540
H  46.115  44.889  39.507
H  61.971  63.237  48.673
H  61.776  64.647  49.270
H  58.988  28.825  45.908
H  63.141  29.409  54.934
H  63.019  27.959  55.390
H  57.715  29.612  46.292
H  51.281  40.217  52.615
H  50.048  40.535  51.772
H  37.575  47.335  31.242
H  48.534  71.229  41.999
H  38.397  47.428  32.499
H  44.573  24.382  43.246
H  64.324  44.205  46.152
H  44.513  53.046  74.816
H  28.669  61.878  50.381
H  29.606  60.680  50.180
H  39.479  50.649  53.447
H  40.147  50.759  52.058
H  66.173  63.004  35.624
H  40.118  60.294  46.324
H  41.442  60.058  45.587
H  45.483  53.713  73.815
H  44.984  24.832  38.805
H  43.773  24.482  39.711
H  56.563  59.730  49.645
H  30.668  36.065  53.567
H  37.936  52.234  72.002
H  72.765  52.232  57.778
H  70.647  63.045  44.727
H  60.842  56.756  63.443
H  62.159  56.880  62.701
H  43.075  31.164  62.232
H  27.886  63.302  52.397
H  60.967  51.191  52.513
H  59.805  51.370  51.497
H  44.101  32.130  51.986
H  55.477  69.992  62.497
H  53.305  61.127  52.020
H  62.242  49.983  62.544
H  62.279  48.872  63.593
H  53.031  61.771  50.654
H  34.474  42.043  46.898
H  35.066  43.211  46.072
H  42.772  40.577  54.991
H  41.768  39.739  54.199
H  41.664  68.820  52.067
H  34.024  56.490  43.457
H  55.711  70.876  61.257
H  43.528  31.449  53.256
H  31.188  34.655  53.125
H  63.828  58.221  49.998
H  61.280  55.222  25.021
H  45.535  47.766  31.514
H  45.364  49.262  31.524
H  27.938  63.915  50.928
H  26.253  63.274  50.162
H  71.443  52.885  58.176
H  59.501  54.036  71.310
H  59.372  52.586  70.788
H  59.713  46.283  54.040
H  60.261  64.892  45.525
H  59.217  64.975  44.436
H  58.609  47.240  53.585
H  40.777  33.205  58.199
H  41.567  32.007  58.804
H  43.637  63.561  29.838
H  42.335  64.016  30.568
H  38.127  38.083  54.910
H  43.803  30.699  63.517
H  37.413  39.321  54.383
H  25.274  63.267  51.331
H  37.371  69.246  33.803
H  36.564  69.121  32.511
H  62.518  58.793  50.559
H  38.185  25.474  46.144
H  41.988  48.805  39.241
H  37.634  26.490  47.164
H  49.648  74.822  46.437
H  60.548  30.844  40.231
H  36.330  71.614  35.577
H  37.825  71.189  35.599
H  51.800  40.708  22.512
H  51.521  42.141  23.050
H  57.364  66.727  36.632
H  61.108  41.140  54.023
H  55.897  67.105  36.897
H  59.507  42.590  60.089
H  57.771  71.853  32.172
H  72.820  40.389  38.272
H  58.383  71.985  33.578
H  42.830  34.544  32.918
H  55.372  73.385  34.964
H  42.903  61.941  61.219
H  41.454  62.489  60.984
H  54.381  72.334  34.410
H  67.306  50.952  48.438
H  30.165  63.284  50.729
H  24.207  51.562  58.398
H  49.095  44.775  37.448
H  53.621  48.191  31.183
H  41.333  34.825  32.786
H  35.009  51.594  28.062
H  72.980  39.281  37.269
H  39.876  65.496  28.529
H  42.608  50.666  47.747
H  74.699  44.820  44.263
H  57.442  32.596  32.337
H  57.566  33.862  31.443
H  75.565  45.958  44.850
H  35.261  36.019  54.747
H  34.126  35.104  54.462
H  61.749  62.498  27.956
H  62.393  61.479  27.014
H  66.938  51.495  30.746
H  59.608  32.064  40.014
H  40.030  35.851  72.243
H  67.961  50.466  30.195
H  49.651  71.610  63.075
H  50.304  70.606  62.110
H  68.434  43.696  41.840
H  43.480  68.045  70.582
H  48.964  44.694  35.913
H  26.314  60.909  57.573
H  60.755  42.331  60.930
H  30.361  64.040  49.363
H  41.054  64.694  27.967
H  40.485  37.270  71.938
H  42.439  52.185  47.645
H  33.981  50.874  28.955
H  55.200  29.523  34.331
H  55.356  42.841  22.800
H  54.807  41.944  23.908
H  60.022  52.146  42.429
H  35.594  53.683  32.926
H  34.355  53.746  33.814
H  60.596  52.622  41.094
H  64.246  41.327  45.719
H  63.015  41.110  46.652
H  74.543  46.850  49.716
H  67.641  69.164  58.050
H  47.891  71.983  68.295
H  51.235  58.644  28.899
H  55.745  56.191  75.035
H  68.731  69.907  58.829
H  24.762  61.630  52.852
H  24.364  62.852  53.720
H  57.844  23.017  51.264
H  57.667  23.928  50.034
H  56.322  57.079  58.314
H  70.843  66.164  48.473
H  70.713  66.236  49.990
H  55.776  57.951  59.464
H  55.686  57.509  74.252
H  25.196  59.807  57.600
H  47.668  70.475  68.235
H  72.028  40.358  49.857
H  53.966  30.377  34.134
H  42.029  38.055  48.594
H  40.587  38.569  48.891
H  41.804  23.949  46.157
H  47.318  27.675  64.435
H  47.812  27.322  62.984
H  42.158  24.120  44.629
H  53.694  49.743  31.329
H  24.268  52.852  57.547
H  54.993  53.845  37.734
H  73.418  46.432  50.657
H  54.652  52.440  37.233
H  33.328  67.626  34.775
H  34.103  66.598  33.927
H  46.002  49.804  61.122
H  50.915  28.547  44.135
H  51.711  28.702  42.837
H  42.205  68.545  60.085
H  41.191  69.214  59.104
H  60.971  42.401  53.182
H  66.281  51.970  47.973
H  72.179  40.017  48.379
H  45.418  50.789  62.106
H  31.907  40.883  31.453
H  30.857  39.748  31.270
H  43.843  30.987  68.012
H  67.524  70.050  60.482
H  50.770  31.119  38.262
H  51.003  32.174  39.310
H  57.330  37.184  54.562
H  66.297  49.442  32.018
H  65.803  48.946  33.423
H  47.640  69.756  41.110
H  46.216  69.133  41.161
H  58.407  50.066  42.478
H  39.732  38.815  60.155
H  56.017  36.752  55.235
H  39.769  40.135  59.381
H  51.202  63.520  27.360
H  66.632  70.915  61.394
H  44.807  68.283  71.368
H  67.523  32.727  45.057
H  71.848  59.194  48.214
H  56.670  27.457  58.728
H  55.770  26.747  59.733
H  72.754  60.177  47.529
H  55.022  29.923  51.598
H  53.534  29.852  51.185
H  59.905  49.799  42.339
H  60.953  53.568  28.946
H  63.814  60.848  39.723
H  36.275  47.096  57.086
H  64.569  54.296  37.824
H  67.810  51.981  66.596
H  69.178  51.380  66.846
H  63.268  54.758  37.130
H  42.422  30.841  29.367
H  40.995  30.934  30.005
H  53.860  44.230  67.959
H  54.804  43.221  68.614
H  48.415  65.104  62.689
H  62.866  57.462  58.836
H  36.613  47.408  58.572
H  38.088  51.572  70.627
H  48.107  50.169  23.375
H  65.247  60.793  40.248
H  57.621  68.191  68.045
H  56.088  68.258  67.884
H  40.581  44.845  55.330
H  40.897  44.685  53.853
H  49.005  64.100  49.350
H  53.580  72.145  42.431
H  54.937  72.687  41.943
H  49.435  64.074  50.810
H  55.162  53.474  42.025
H  61.348  54.560  27.823
H  67.227  31.783  43.843
H  42.291  57.090  50.257
H  73.048  45.746  42.408
H  71.644  45.498  42.916
H  53.160  27.917  34.236
H  51.020  25.551  45.621
H  27.258  64.660  48.748
H  26.325  47.587  66.887
H  27.103  47.953  65.588
H  28.113  65.910  48.774
H  62.445  31.444  53.598
H  63.137  32.767  53.868
H  38.671  49.657  55.819
H  60.323  44.959  66.865
H  45.240  77.463  56.648
H  42.152  47.855  73.949
H  40.923  47.024  74.387
H  43.703  45.719  68.840
H  44.532  46.981  69.133
H  55.206  67.193  59.231
H  69.817  43.186  42.229
H  44.392  31.027  69.444
H  57.724  73.230  59.358
H  56.696  73.601  60.440
H  60.140  46.064  65.847
H  75.491  56.459  37.966
H  74.862  57.339  39.087
H  37.479  48.721  55.866
H  43.019  57.890  49.136
H  62.257  27.909  49.634
H  50.278  64.460  26.555
H  61.097  26.941  49.625
H  69.072  38.021  45.837
H  70.353  38.788  46.209
H  69.698  60.631  56.464
H  59.687  59.628  56.960
H  61.222  59.819  56.909
H  68.704  59.449  56.482
H  50.152  34.695  57.071
H  50.566  35.446  58.337
H  43.848  63.667  62.855
H  43.668  62.960  64.229
H  33.865  48.561  41.011
H  32.744  49.497  40.597
H  50.089  26.782  45.480
H  53.400  28.173  35.727
H  56.250  68.293  59.416
H  68.046  31.635  55.914
H  66.880  30.843  55.245
H  32.913  29.059  53.130
H  32.753  28.391  54.510
H  48.901  74.861  45.083
H  26.230  54.186  49.600
H  46.248  36.190  71.333
H  42.130  72.036  56.528
H  51.393  38.955  57.874
H  44.479  65.374  70.685
H  53.158  52.927  63.504
H  51.906  23.971  55.885
H  39.798  50.107  68.156
H  69.996  46.738  35.459
H  69.255  46.228  34.203
H  77.704  52.064  51.523
H  61.766  60.413  53.782
H  62.058  61.551  54.827
H  51.421  37.806  56.773
H  60.967  44.373  37.790
H  55.223  39.025  54.462
H  36.788  38.238  63.767
H  38.025  38.516  62.929
H  53.985  38.213  54.055
H  41.340  49.970  68.036
H  52.386  22.540  56.180
H  39.707  38.474  36.342
H  38.426  37.768  35.797
H  68.062  48.645  55.928
H  29.583  49.286  55.821
H  62.134  44.420  36.735
H  29.106  50.709  55.488
H  49.681  76.627  48.509
H  45.745  53.264  60.827
H  35.197  27.621  48.441
H  30.779  40.573  43.763
H  33.377  68.329  58.949
H  38.453  71.069  47.096
H  37.663  70.974  48.437
H  58.715  76.559  53.900
H  39.488  61.399  34.479
H  40.729  60.476  34.420
H  57.622  75.690  53.253
H  45.455  44.806  77.813
H  45.155  53.466  59.420
H  46.599  45.802  77.458
H  34.599  48.249  54.970
H  61.324  32.110  45.142
H  32.128  68.074  58.073
H  33.767  28.185  48.129
H  60.730  31.273  43.978
H  52.180  39.900  29.428
H  51.551  38.643  30.147
H  37.929  60.195  58.676
H  37.617  60.508  60.139
H  48.161  76.641  48.779
H  34.890  46.756  54.820
H  64.967  67.609  39.100
H  66.537  48.650  56.134
H  66.312  46.223  43.380
H  40.146  37.950  69.136
H  40.515  36.536  68.595
H  30.089  69.231  53.535
H  39.591  46.001  63.130
H  31.820  41.330  44.610
H  68.593  62.023  46.796
H  39.793  49.104  24.071
H  36.499  33.594  43.962
H  47.534  43.556  70.719
H  52.596  35.630  56.499
H  30.519  67.873  54.141
H  52.696  36.311  55.113
H  53.522  21.575  45.373
H  54.338  72.566  37.267
H  55.319  61.118  40.618
H  56.752  60.582  40.607
H  53.005  72.827  36.514
H  69.635  46.457  47.290
H  68.420  46.507  48.277
H  36.819  32.211  43.387
H  62.559  42.880  57.715
H  46.581  47.935  71.595
H  54.019  22.921  44.758
H  67.297  47.444  43.522
H  42.997  61.718  31.650
H  46.601  54.841  71.090
H  37.008  74.548  59.534
H  38.313  73.864  59.100
H  41.902  66.942  45.548
H  78.794  52.205  50.440
H  47.643  50.238  76.508
H  47.860  49.886  77.993
H  40.525  47.228  62.941
H  57.476  35.349  57.512
H  58.174  34.339  56.577
H  55.697  71.481  31.739
H  42.764  61.261  33.088
H  36.424  68.482  41.896
H  54.329  72.127  32.000
H  70.778  55.435  65.142
H  71.948  54.555  64.616
H  34.901  34.330  58.827
H  35.567  33.427  57.738
H  39.399  60.441  51.969
H  65.952  67.388  56.822
H  66.697  68.021  55.603
H  40.373  61.611  51.753
H  46.093  56.018  70.193
H  37.208  67.173  42.050
H  45.784  65.801  69.977
H  53.583  54.270  64.086
H  47.417  50.925  67.083
H  33.200  30.711  51.522
H  31.810  30.923  52.116
H  37.574  56.371  47.848
H  34.665  53.896  59.030
H  36.102  53.471  59.059
H  38.510  57.179  46.953
H  50.521  49.064  22.457
H  50.577  49.004  20.921
H  68.746  58.265  65.096
H  68.920  59.607  64.372
H  39.756  64.606  34.198
H  58.013  67.918  30.661
H  57.112  67.986  29.408
H  39.808  59.469  32.465
H  27.909  67.733  56.805
H  28.709  67.834  55.495
H  69.240  37.803  40.960
H  70.071  36.610  40.463
H  31.876  65.605  53.469
H  62.093  63.313  70.027
H  62.159  62.507  68.716
H  31.620  65.944  54.930
H  51.872  41.165  37.047
H  60.757  40.675  24.595
H  38.389  59.465  32.881
H  50.817  70.950  31.653
H  33.198  36.950  58.917
H  32.184  36.075  58.130
H  33.584  41.932  53.703
H  33.517  43.217  54.586
H  63.524  47.090  50.683
H  39.442  62.468  60.059
H  39.191  63.979  59.761
H  64.822  47.432  49.927
H  47.993  28.246  60.289
H  51.051  37.439  49.896
H  48.094  54.248  40.206
H  51.887  29.626  56.932
H  41.680  73.776  39.626
H  39.967  71.610  34.638
H  40.704  71.946  35.921
H  40.936  72.438  39.758
H  64.766  68.078  37.193
H  63.461  67.510  36.576
H  46.288  51.414  65.083
H  46.369  49.908  64.872
H  51.852  36.921  48.710
H  51.645  71.781  32.657
H  53.224  30.349  56.824
H  40.699  65.109  33.058
H  52.041  35.810  67.600
H  59.673  70.873  35.481
H  47.478  50.482  70.764
H  66.328  67.281  39.755
H  41.869  26.023  46.700
H  39.439  28.937  43.002
H  40.058  28.337  41.712
H  43.143  68.548  39.383
H  44.141  67.843  40.350
H  47.043  52.331  31.842
H  60.410  40.395  74.318
H  61.399  41.217  73.455
H  64.856  56.716  67.264
H  45.828  52.830  31.002
H  63.963  30.612  59.945
H  42.736  26.482  47.870
H  65.209  31.456  59.944
H  32.043  45.428  38.416
H  63.436  65.157  40.189
H  63.958  63.774  40.522
H  33.232  45.058  39.353
H  43.428  64.370  60.537
H  44.516  65.458  60.500
H  48.668  51.773  67.236
H  46.134  50.414  71.530
H  23.947  40.000  51.727
H  32.801  59.428  42.778
H  53.421  35.834  68.343
H  58.677  69.850  34.937
H  53.314  41.342  36.478
H  46.581  54.190  40.447
H  40.839  28.851  57.319
H  40.197  30.071  56.699
H  44.762  51.013  74.253
H  46.110  51.134  75.013
H  26.552  40.416  43.164
H  56.488  50.181  40.378
H  55.921  50.458  38.951
H  25.999  39.905  44.500
H  56.722  55.129  46.312
H  56.398  56.560  46.604
H  73.703  45.390  39.861
H  74.312  46.346  40.910
H  50.720  27.165  35.517
H  65.665  57.204  59.934
H  66.945  57.869  60.418
H  49.597  27.171  36.614
H  45.526  44.944  62.396
H  46.731  45.230  61.514
H  52.430  65.475  70.354
H  52.094  64.153  71.124
H  44.095  62.097  55.006
H  50.382  37.367  41.911
H  45.087  60.949  54.826
H  58.931  75.109  50.902
H  37.635  70.394  62.771
H  47.806  63.694  36.528
H  49.955  42.158  68.108
H  25.488  54.010  53.147
H  26.041  54.631  54.469
H  47.072  63.045  37.759
H  42.219  64.592  42.097
H  40.846  63.999  41.805
H  62.336  26.204  41.533
H  63.605  26.431  40.672
H  49.035  73.340  56.521
H  29.758  39.415  38.781
H  35.060  25.799  52.759
H  28.482  40.103  38.291
H  54.408  25.686  64.831
H  37.267  54.006  44.629
H  36.183  54.529  45.582
H  57.975  67.940  34.627
H  56.769  69.172  54.708
H  28.248  38.068  39.677
H  26.119  53.778  46.264
H  27.034  52.566  46.461
H  34.610  27.246  52.793
H  27.474  36.764  39.676
H  49.907  74.529  56.062
H  39.418  57.775  53.748
H  64.622  50.915  57.345
H  56.419  47.472  30.621
H  68.054  43.792  39.877
H  67.587  45.179  39.603
H  64.115  35.285  43.083
H  27.565  60.434  64.040
H  28.447  61.589  64.583
H  64.840  34.981  44.431
H  38.377  58.727  73.037
H  39.240  57.914  73.984
H  53.668  51.884  29.395
H  35.047  46.584  35.428
H  65.107  49.681  58.112
H  50.534  43.593  68.177
H  70.901  46.155  40.493
H  37.478  71.901  63.190
H  61.709  48.886  23.522
H  61.879  47.333  23.648
H  24.961  40.902  47.032
H  23.997  39.822  46.540
H  52.230  52.113  28.807
H  37.990  57.508  54.275
H  33.886  47.584  35.314
H  56.466  48.055  29.137
H  71.596  42.787  37.283
H  46.071  45.806  70.523
H  63.478  52.097  66.552
H  34.497  43.833  57.018
H  38.813  52.623  55.624
H  39.553  53.954  55.479
H  47.209  42.558  30.406
H  46.215  41.639  31.156
H  67.198  39.875  47.962
H  55.990  73.179  54.634
H  55.906  71.656  54.877
H  68.196  39.490  49.114
H  62.620  51.285  67.501
H  41.469  35.656  58.432
H  48.366  32.919  56.666
H  58.167  46.578  63.945
H  45.564  66.145  72.742
H  46.769  66.813  72.077
H  41.264  66.246  30.955
H  70.494  44.657  40.538
H  34.500  57.449  46.284
H  38.191  69.543  45.176
H  64.680  44.428  42.267
H  63.753  45.654  42.302
H  48.188  31.479  56.087
H  71.917  44.242  37.678
H  33.587  44.895  56.365
H  61.461  54.787  41.139
H  45.581  44.700  71.429
H  62.087  37.587  52.616
H  59.377  67.540  35.139
H  62.940  36.656  53.545
H  55.715  26.475  64.789
H  54.211  62.917  46.828
H  54.771  61.664  47.601
H  55.464  48.002  32.430
H  55.425  47.082  33.626
H  30.899  49.207  29.920
H  61.949  54.697  42.580
H  47.654  56.960  24.918
H  31.356  47.743  29.735
H  36.208  54.316  52.285
H  36.871  53.994  50.931
H  30.726  53.037  49.131
H  57.615  70.392  55.116
H  45.585  58.489  56.196
H  44.132  58.525  55.694
H  59.668  46.612  63.688
H  51.863  54.395  40.937
H  52.457  53.430  39.921
H  47.252  55.629  24.265
H  67.694  67.706  63.663
H  67.154  66.261  63.501
H  67.181  39.379  45.660
H  26.898  62.037  46.568
H  36.906  34.430  48.031
H  45.169  46.029  57.702
H  45.489  44.725  57.000
H  35.478  34.995  48.012
H  36.752  51.315  37.996
H  35.565  52.261  38.197
H  63.915  41.094  70.371
H  47.624  38.429  23.520
H  41.113  65.238  56.945
H  25.503  62.449  46.051
H  41.936  65.189  58.258
H  50.880  46.002  25.234
H  69.616  70.921  43.771
H  48.848  27.171  47.035
H  48.658  28.681  47.298
H  67.004  42.709  42.661
H  66.238  43.774  43.457
H  66.426  57.630  31.466
H  27.235  36.903  57.464
H  28.517  37.365  56.731
H  65.379  58.784  31.376
H  32.444  58.098  38.420
H  31.918  58.699  39.737
H  38.577  61.162  55.397
H  65.463  41.139  70.307
H  58.237  76.277  50.134
H  62.473  49.868  57.589
H  62.198  48.949  56.339
H  48.574  39.003  24.593
H  36.090  66.149  35.713
H  36.589  66.568  34.317
H  63.414  44.127  58.002
H  48.804  42.940  70.057
H  73.122  36.526  53.395
H  54.923  25.276  43.171
H  39.764  60.214  55.417
H  63.870  57.826  67.778
H  74.130  62.574  48.938
H  74.099  61.028  48.759
H  42.981  34.975  42.689
H  39.471  72.227  57.099
H  39.260  70.949  57.912
H  34.692  70.317  39.283
H  34.578  71.848  38.996
H  42.983  54.815  74.508
H  55.582  26.256  42.141
H  42.340  56.237  74.390
H  43.165  34.321  41.322
H  31.177  61.826  65.937
H  53.038  54.882  37.426
H  32.445  60.990  66.209
H  37.112  40.058  35.511
H  38.380  40.613  34.895
H  70.889  41.922  40.698
H  72.170  42.728  40.764
H  48.388  47.563  26.041
H  33.533  57.990  35.572
H  34.041  56.743  36.318
H  47.134  47.369  25.219
H  54.309  29.857  54.602
H  54.005  28.671  53.656
H  26.210  44.846  48.504
H  40.533  47.800  24.503
H  29.208  53.038  49.238
H  65.671  39.518  45.826
H  28.617  55.604  39.181
H  70.869  66.018  43.765
H  69.361  65.809  44.093
H  28.909  56.960  39.852
H  44.580  32.353  55.707
H  45.251  32.191  54.332
H  50.403  25.814  61.279
H  49.825  27.185  60.851
H  42.815  66.408  46.638
H  62.748  56.157  38.959
H  62.768  57.169  40.042
H  25.132  45.811  47.959
H  57.611  40.750  47.530
H  51.787  25.775  59.463
H  52.400  25.872  58.032
H  56.673  40.144  46.511
H  39.069  35.051  58.961
H  39.293  34.965  57.496
H  45.608  69.620  49.856
H  44.129  69.968  49.883
H  68.299  60.877  45.819
H  72.884  36.782  54.883
H  51.842  44.843  25.549
H  68.736  69.915  44.592
H  62.258  47.976  48.505
H  61.158  48.274  47.484
H  53.780  56.093  36.838
H  37.701  45.976  42.308
H  69.191  54.514  29.669
H  68.186  55.188  28.697
H  38.629  47.029  42.912
H  37.701  39.068  50.312
H  38.458  39.939  51.323
H  52.343  43.584  70.994
H  51.092  42.920  70.394
H  45.209  47.784  71.004
H  62.418  42.267  55.548
H  66.370  44.561  62.205
H  48.078  29.049  61.640
H  44.667  51.893  38.517
H  72.488  38.319  61.250
H  66.496  54.260  47.753
H  58.763  34.243  65.905
H  32.077  54.343  35.742
H  29.457  49.324  48.737
H  28.243  50.183  49.106
H  62.317  25.283  50.447
H  39.183  45.013  73.299
H  30.872  38.505  43.483
H  44.048  52.986  39.393
H  29.501  37.854  43.704
H  50.747  47.864  61.324
H  47.592  73.543  51.196
H  27.416  33.054  43.297
H  27.002  33.677  44.657
H  46.235  74.292  51.104
H  52.220  31.679  34.751
H  52.892  32.909  35.481
H  72.271  36.965  41.459
H  71.393  37.852  42.272
H  65.616  53.669  66.377
H  49.878  46.625  61.624
H  64.043  36.299  46.709
H  72.773  37.904  62.711
H  58.834  59.695  53.659
H  51.025  24.784  52.577
H  38.931  62.260  41.406
H  40.190  61.586  40.873
H  40.306  44.560  74.269
H  44.736  66.535  68.203
H  59.771  33.431  65.100
H  37.530  44.092  36.078
H  37.666  42.568  36.252
H  54.318  48.620  76.821
H  25.424  46.283  39.067
H  59.340  60.872  52.767
H  24.754  47.566  38.525
H  29.529  57.930  47.796
H  29.647  57.162  49.126
H  58.514  43.160  54.466
H  59.087  41.761  54.725
H  40.786  54.088  60.948
H  62.742  24.505  51.720
H  39.765  53.717  61.965
H  45.510  66.913  66.952
H  49.906  52.210  36.719
H  50.257  50.813  37.248
H  54.800  48.815  75.386
H  42.441  43.825  52.067
H  62.699  35.585  46.440
H  51.036  72.856  55.421
H  35.737  41.676  69.208
H  36.051  40.340  68.483
H  47.494  63.163  54.658
H  27.886  55.415  62.640
H  26.444  55.701  62.276
H  67.062  36.869  44.856
H  38.958  52.884  52.601
H  71.106  61.176  54.498
H  66.444  42.282  61.510
H  26.992  46.376  44.224
H  45.987  62.951  54.502
H  23.924  39.230  53.069
H  66.787  60.444  36.710
H  34.925  40.873  37.996
H  35.714  39.651  37.542
H  58.462  52.826  40.266
H  44.616  69.307  54.556
H  45.089  70.799  54.797
H  59.378  53.691  39.375
H  38.708  59.760  40.038
H  37.206  59.543  39.925
H  28.492  46.451  44.507
H  67.736  60.556  37.909
H  65.136  52.687  67.442
H  49.434  41.232  23.206
H  65.722  40.059  38.306
H  51.742  71.629  54.763
H  48.765  60.306  57.925
H  49.233  61.768  57.955
H  33.156  53.255  35.809
H  36.522  36.912  71.611
H  66.889  40.898  60.976
H  66.295  42.029  45.862
H  46.579  67.935  64.862
H  39.091  54.393  52.740
H  35.693  50.413  62.804
H  48.145  41.062  22.349
H  64.005  55.636  45.352
H  36.600  50.765  64.032
H  36.411  59.569  50.706
H  36.141  59.047  52.131
H  39.252  32.839  43.785
H  38.386  33.402  44.938
H  63.334  59.965  46.689
H  45.173  68.498  64.888
H  62.959  61.498  46.613
H  72.517  61.333  55.057
H  66.638  39.189  39.225
H  65.442  56.171  45.166
H  65.579  37.317  33.475
H  66.209  38.541  34.211
H  38.146  28.341  37.767
H  42.431  60.270  40.707
H  40.952  33.318  30.674
H  62.037  40.101  36.214
H  62.870  40.903  37.252
H  23.187  48.424  46.452
H  44.149  73.107  57.526
H  45.406  73.479  58.379
H  21.798  48.294  45.781
H  32.070  68.380  40.332
H  32.677  69.324  39.250
H  43.842  60.206  40.113
H  39.613  48.339  70.706
H  47.228  60.245  42.499
H  48.874  60.327  49.500
H  47.778  61.264  49.042
H  47.401  61.741  42.316
H  35.358  51.102  70.997
H  34.429  51.416  69.803
H  42.842  47.184  33.881
H  43.151  48.211  32.760
H  36.824  54.005  68.348
H  33.614  57.695  53.517
H  40.767  49.225  70.091
H  32.684  56.510  53.558
H  67.136  63.980  50.902
H  51.081  29.089  39.441
H  62.341  43.144  47.763
H  62.015  41.915  48.639
H  41.984  73.472  56.031
H  73.332  51.812  60.346
H  72.887  53.203  59.919
H  26.207  53.034  35.465
H  25.667  51.610  35.239
H  45.114  36.825  72.197
H  43.680  31.282  45.244
H  44.849  30.966  44.319
H  65.898  64.768  50.377
H  59.119  59.460  64.658
H  58.436  58.442  65.610
H  40.247  44.422  34.548
H  39.026  45.384  34.805
H  63.353  48.473  39.944
H  42.035  28.823  38.211
H  42.839  29.205  36.957
H  63.847  47.163  39.294
H  41.481  70.934  32.583
H  40.163  70.252  32.222
H  50.433  28.009  40.357
H  39.517  33.752  30.827
H  36.668  54.355  66.869
H  43.903  76.817  57.108
H  37.236  63.828  67.971
H  43.361  43.860  53.299
H  59.597  54.360  68.787
H  62.121  74.903  51.869
H  37.759  36.569  72.481
H  59.910  54.057  67.316
H  49.826  72.320  35.716
H  50.333  72.865  37.037
H  52.915  62.991  63.176
H  53.462  64.050  64.187
H  57.530  47.626  72.814
H  32.333  51.483  36.337
H  46.761  61.986  35.520
H  57.460  47.831  71.286
H  60.915  75.596  52.598
H  62.231  31.572  50.957
H  50.524  25.979  53.481
H  61.503  32.513  51.954
H  68.531  53.844  48.115
H  36.371  37.290  49.916
H  35.693  36.850  48.609
H  68.194  53.192  46.773
H  38.296  29.840  37.928
H  46.196  60.661  35.019
H  54.388  46.119  66.968
H  53.812  47.011  68.070
H  49.175  46.405  74.989
H  33.682  49.324  61.355
H  44.196  35.796  69.555
H  36.400  40.144  32.997
H  36.120  38.649  33.141
H  58.788  44.108  29.401
H  49.381  67.607  50.680
H  48.260  68.023  49.709
H  57.774  44.650  30.424
H  44.680  40.230  73.173
H  43.303  40.782  72.714
H  21.190  47.324  51.914
H  22.301  46.635  51.069
H  34.646  33.320  49.264
H  43.753  35.966  68.089
H  30.978  52.165  36.444
H  34.243  32.992  47.808
H  37.398  57.258  68.267
H  38.123  57.607  69.588
H  49.451  43.190  75.646
H  49.849  43.356  77.098
H  49.767  47.520  74.055
H  52.332  69.067  50.489
H  52.777  70.161  51.469
H  39.619  46.363  49.089
H  67.640  44.171  62.967
H  43.442  55.322  38.607
H  31.846  50.621  38.287
H  24.324  58.879  52.572
H  25.347  59.945  52.199
H  66.968  36.044  50.857
H  44.816  38.532  64.404
H  48.221  25.491  56.759
H  51.266  67.655  52.555
H  50.289  68.799  52.329
H  44.561  39.989  64.031
H  70.592  46.252  51.841
H  69.282  46.604  52.639
H  25.432  58.075  38.453
H  59.603  41.648  47.837
H  46.412  23.983  48.642
H  52.595  33.837  27.104
H  53.938  34.593  26.705
H  46.919  22.538  48.659
H  64.096  74.638  46.790
H  58.422  59.663  75.206
H  57.758  58.468  74.498
H  65.562  74.107  46.941
H  40.690  66.900  52.014
H  39.489  67.867  52.244
H  60.248  41.588  49.228
H  48.445  24.225  57.592
H  47.634  34.900  72.380
H  26.814  57.433  38.264
H  56.027  77.620  48.740
H  64.476  45.569  51.981
H  28.786  57.364  37.423
H  45.410  40.725  55.287
H  46.438  41.484  54.400
H  58.820  42.436  41.912
H  40.316  70.774  63.023
H  40.945  69.434  63.381
H  57.613  41.835  42.694
H  74.401  49.086  43.154
H  47.498  33.789  73.417
H  73.894  47.609  43.149
H  26.206  46.197  54.338
H  71.676  37.589  38.030
H  55.588  25.682  47.897
H  49.710  35.915  62.127
H  48.481  35.753  61.174
H  66.108  34.876  51.302
H  58.400  44.662  47.716
H  58.963  44.849  46.295
H  41.244  46.333  51.885
H  39.707  46.269  51.918
H  24.748  46.640  54.480
H  29.776  44.097  47.605
H  60.410  49.039  37.895
H  29.137  54.056  54.298
H  56.926  35.721  65.239
H  54.754  68.710  69.786
H  54.658  68.984  71.315
H  60.209  27.570  39.086
H  61.550  27.842  39.749
H  28.165  60.535  38.506
H  51.055  21.875  48.196
H  49.502  40.135  68.112
H  27.634  61.459  39.660
H  67.345  55.051  35.357
H  57.599  37.760  46.688
H  66.802  55.231  33.895
H  38.947  51.468  37.071
H  48.741  36.843  68.098
H  42.590  74.068  53.993
H  43.317  72.726  53.721
H  47.691  35.721  68.045
H  43.565  74.019  48.065
H  43.977  75.502  48.007
H  50.406  39.719  66.953
H  43.294  34.775  53.728
H  59.666  41.690  24.994
H  38.065  50.505  36.206
H  61.636  48.168  37.530
H  58.739  37.974  45.663
H  30.602  40.835  67.436
H  28.751  55.218  53.408
H  33.270  49.077  44.489
H  71.933  31.077  50.874
H  70.487  30.573  51.070
H  32.489  49.677  45.674
H  66.299  49.663  40.775
H  65.572  48.665  39.806
H  38.872  56.995  32.186
H  39.022  55.826  31.215
H  59.075  30.867  49.265
H  56.783  34.914  66.516
H  64.120  49.458  50.701
H  60.378  30.499  50.001
H  40.505  69.088  49.265
H  41.356  67.830  49.111
H  55.828  34.055  55.708
H  54.949  35.173  56.235
H  62.105  28.778  44.545
H  23.338  47.622  40.395
H  50.011  36.576  40.652
H  52.269  22.432  48.980
H  32.062  40.487  66.988
H  64.024  50.851  51.434
H  30.667  42.998  48.181
H  57.509  77.945  48.752
H  47.130  49.247  29.263
H  76.534  40.896  44.525
H  76.159  40.260  43.197
H  65.788  62.976  66.649
H  65.080  61.662  66.884
H  62.372  44.395  65.795
H  66.363  52.160  45.136
H  64.815  52.408  45.335
H  62.046  44.089  64.311
H  35.473  64.837  61.335
H  35.172  65.314  62.753
H  32.808  51.699  43.813
H  50.509  26.460  42.375
H  33.991  52.074  39.842
H  53.410  39.945  52.797
H  56.811  29.441  60.042
H  51.573  59.648  58.002
H  50.598  58.610  57.440
H  53.438  44.081  64.768
H  52.494  43.701  63.603
H  48.243  43.233  56.618
H  64.429  52.577  55.992
H  65.591  53.296  55.287
H  52.012  26.333  42.056
H  47.552  41.820  56.759
H  65.198  53.275  30.549
H  32.520  50.827  42.575
H  42.369  54.468  39.300
H  52.927  35.696  59.790
H  52.972  34.957  58.462
H  52.281  52.233  36.545
H  52.947  51.127  35.757
H  38.310  47.167  49.321
H  25.595  56.743  53.892
H  25.852  58.254  54.175
H  68.260  37.287  43.938
H  56.569  30.969  59.740
H  44.972  72.144  64.898
H  66.529  54.016  30.778
H  68.060  47.584  69.117
H  67.542  48.326  67.882
H  32.501  30.029  55.922
H  43.159  70.966  46.454
H  44.644  70.617  46.520
H  33.107  28.995  56.886
H  62.905  63.843  46.356
H  64.003  63.902  47.451
H  25.777  49.369  36.420
H  24.450  49.431  37.201
H  44.741  71.540  63.488
H  61.519  45.713  48.880
H  61.524  45.624  47.311
H  27.303  50.856  53.906
H  72.681  36.879  37.061
H  68.905  60.010  51.754
H  33.335  28.348  40.421
H  32.830  45.532  63.119
H  32.193  44.970  64.422
H  47.800  27.684  44.938
H  46.590  27.496  43.980
H  53.920  57.652  27.656
H  58.696  46.138  51.611
H  59.030  47.609  51.387
H  68.724  61.068  52.897
H  55.164  58.111  28.457
H  37.206  61.016  65.383
H  29.607  58.472  38.103
H  22.784  48.962  40.990
H  63.895  46.740  52.789
H  38.619  62.696  66.682
H  39.057  62.234  65.271
H  60.641  28.581  44.042
H  65.742  72.017  55.643
H  66.193  70.581  55.923
H  47.362  50.468  30.160
H  54.774  26.691  47.073
H  47.938  63.457  33.756
H  47.455  64.677  34.533
H  33.748  61.873  58.322
H  27.977  52.275  53.632
H  58.652  66.419  61.822
H  63.215  28.682  52.115
H  61.693  28.337  52.334
H  58.487  66.990  63.253
H  68.853  50.432  45.562
H  69.354  51.603  46.430
H  72.453  38.822  43.828
H  73.410  38.862  44.993
H  34.424  53.042  40.925
H  54.766  40.457  52.243
H  65.493  54.556  46.627
H  65.743  41.838  44.404
H  32.260  60.328  43.917
H  34.696  27.830  40.952
H  37.218  59.506  65.167
H  49.177  25.707  38.569
H  48.103  26.719  38.991
H  34.155  69.159  46.861
H  44.908  63.400  50.624
H  45.397  62.619  49.395
H  33.591  70.328  47.684
H  34.847  61.239  57.465
H  31.324  49.199  38.573
H  36.141  45.726  62.250
H  50.940  45.142  22.844
H  44.142  40.654  42.544
H  38.761  27.524  57.736
H  47.277  27.953  57.600
H  60.550  34.883  31.983
H  58.008  56.624  66.037
H  58.882  55.414  66.182
H  73.388  33.790  46.164
H  70.785  38.178  65.100
H  55.101  56.948  33.137
H  54.297  57.783  34.175
H  67.849  35.513  39.241
H  39.842  26.700  58.417
H  52.050  71.561  35.113
H  73.122  38.813  51.384
H  51.606  65.883  39.783
H  51.895  64.735  40.808
H  40.144  66.547  59.861
H  71.175  36.738  64.683
H  39.509  54.068  45.543
H  72.807  40.128  52.173
H  39.563  67.722  58.997
H  69.267  38.609  37.649
H  69.697  37.119  37.712
H  53.209  70.582  35.318
H  61.478  46.286  35.096
H  57.053  57.726  44.458
H  50.322  37.791  44.591
H  70.663  47.565  53.808
H  33.891  50.676  47.130
H  41.834  42.338  70.540
H  41.328  43.560  69.720
H  63.412  55.626  50.891
H  63.387  55.174  52.389
H  65.010  28.412  48.362
H  45.515  68.462  34.776
H  46.114  59.472  32.411
H  36.553  68.063  44.951
H  49.284  36.678  44.342
H  36.343  66.643  44.300
H  44.883  60.326  32.804
H  62.598  55.519  74.748
H  61.122  55.505  74.366
H  64.608  49.930  64.875
H  35.803  32.123  52.664
H  36.942  32.447  51.656
H  68.856  30.232  47.591
H  69.010  31.714  47.481
H  48.016  26.849  58.322
H  55.948  58.749  44.624
H  65.197  51.346  65.090
H  41.170  30.386  69.188
H  60.018  46.147  34.646
H  39.782  53.517  44.100
H  65.889  38.568  66.895
H  41.032  36.711  36.652
H  32.285  39.622  42.326
H  51.172  56.289  64.561
H  67.951  40.483  41.936
H  67.132  40.438  43.249
H  57.750  44.590  67.964
H  56.382  44.614  67.289
H  46.658  43.399  33.805
H  47.493  43.948  34.985
H  66.032  38.103  68.351
H  70.115  45.856  38.019
H  71.555  46.324  38.199
H  35.375  59.155  66.426
H  37.746  65.846  29.845
H  37.816  64.303  29.779
H  49.406  66.617  28.730
H  36.651  58.789  62.039
H  36.328  57.362  61.649
H  65.122  62.028  48.065
H  29.272  65.478  53.272
H  28.271  66.397  54.015
H  33.432  39.314  41.357
H  71.946  33.522  46.650
H  41.609  55.089  30.461
H  42.493  58.974  73.572
H  75.105  35.336  51.995
H  61.245  36.235  32.274
H  50.545  57.668  64.256
H  41.148  35.213  36.913
H  38.585  68.801  39.158
H  54.222  77.810  46.074
H  54.749  78.864  47.060
H  75.864  45.237  60.124
H  41.890  55.190  68.179
H  41.101  54.403  67.132
H  42.943  55.505  29.862
H  76.709  46.350  60.787
H  72.390  33.513  49.660
H  57.311  62.871  49.648
H  38.109  70.147  38.594
H  35.607  60.000  67.686
H  61.888  50.577  64.881
H  46.726  55.465  30.738
H  45.692  56.090  29.760
H  58.081  62.196  50.788
H  63.040  51.479  64.427
H  43.867  58.483  74.016
H  73.901  33.456  49.368
H  65.411  60.541  47.961
H  41.593  31.851  69.110
H  28.687  57.557  34.335
H  37.804  52.622  47.067
H  37.146  51.511  47.925
H  48.047  25.310  60.616
H  37.290  63.403  56.595
H  35.802  63.380  56.866
H  46.668  24.686  60.719
H  54.468  65.477  39.588
H  53.584  64.192  39.259
H  45.160  40.495  58.018
H  51.721  77.385  46.408
H  61.174  51.612  35.361
H  61.768  30.255  56.466
H  58.712  38.893  57.740
H  65.886  40.228  29.445
H  30.297  54.417  56.648
H  31.065  53.933  55.362
H  53.531  53.020  74.559
H  48.475  34.084  58.849
H  47.651  32.866  59.393
H  46.850  26.215  37.433
H  48.847  35.467  39.038
H  47.551  35.859  39.767
H  60.556  30.712  57.328
H  36.001  50.776  60.245
H  66.285  43.245  37.996
H  65.067  43.127  36.983
H  50.068  41.000  35.161
H  49.921  53.843  57.471
H  66.513  27.424  45.777
H  61.019  34.018  47.871
H  62.200  33.273  47.215
H  63.848  73.148  50.290
H  60.450  72.483  62.032
H  59.224  72.334  61.122
H  62.835  72.169  50.834
H  57.926  47.136  33.041
H  62.262  51.778  36.423
H  58.965  46.232  32.278
H  38.614  40.341  68.013
H  53.735  52.888  73.034
H  51.999  44.062  37.159
H  49.195  59.737  30.823
H  44.495  63.239  67.476
H  44.328  63.919  68.847
H  54.138  74.835  51.538
H  35.366  40.376  43.052
H  35.524  39.353  44.205
H  54.800  76.219  51.505
H  46.806  47.350  62.076
H  34.278  49.213  47.377
H  66.641  38.887  29.560
H  34.568  51.406  60.411
H  34.134  47.067  52.149
H  69.286  56.067  43.494
H  68.000  55.646  42.743
H  59.387  38.481  54.079
H  32.954  54.828  48.686
H  50.844  43.364  36.403
H  45.549  61.956  41.767
H  70.332  50.798  55.338
H  47.521  27.598  41.668
H  37.817  28.062  51.733
H  58.839  45.807  70.345
H  45.413  39.307  58.934
H  70.615  58.798  46.373
H  69.249  58.581  47.015
H  30.564  47.880  33.245
H  66.775  54.724  26.832
H  67.124  53.319  27.386
H  43.731  70.940  52.256
H  39.129  28.787  52.081
H  44.275  72.074  51.381
H  71.753  48.143  52.881
H  29.240  58.563  35.313
H  51.387  63.842  49.357
H  66.277  39.110  59.065
H  58.618  44.713  71.367
H  69.160  50.732  56.348
H  40.632  32.906  71.148
H  41.686  33.891  70.587
H  33.868  53.691  49.159
H  48.199  60.577  29.974
H  57.138  64.576  52.202
H  58.341  63.979  52.912
H  59.671  38.427  56.639
H  65.229  37.988  58.873
H  50.348  78.086  46.322
H  52.878  64.258  48.958
H  33.350  46.111  53.079
H  46.781  28.409  40.610
H  45.665  62.607  40.359
H  61.563  46.801  29.598
H  57.407  59.395  57.870
H  35.358  53.742  28.233
H  34.712  54.525  27.084
H  57.771  60.881  57.504
H  47.497  41.626  76.466
H  46.111  41.422  77.184
H  60.427  45.703  29.785
H  39.672  56.279  39.509
H  40.940  55.930  38.638
H  68.438  34.837  40.478
H  45.432  69.167  33.426
H  71.100  44.063  64.649
H  41.374  55.343  41.145
H  31.534  59.861  51.466
H  69.275  57.665  61.894
H  56.148  35.822  50.925
H  54.714  33.763  47.002
H  54.676  35.264  46.869
H  64.962  26.306  44.388
H  29.389  50.513  44.842
H  30.376  49.936  45.838
H  63.642  26.653  45.061
H  45.838  57.142  48.885
H  70.332  57.429  60.750
H  40.084  23.193  47.935
H  57.316  36.147  28.490
H  64.510  43.691  48.350
H  36.985  32.495  65.946
H  75.865  47.098  48.136
H  74.682  46.443  47.427
H  38.396  59.408  67.534
H  62.034  55.578  60.228
H  60.586  55.644  59.741
H  62.001  49.336  42.351
H  63.408  62.510  50.105
H  34.064  52.930  46.504
H  44.400  56.519  48.839
H  27.756  49.134  44.464
H  70.314  30.048  45.216
H  69.331  31.254  45.196
H  47.590  53.664  27.566
H  49.042  24.387  62.413
H  49.764  24.991  63.642
H  48.175  39.137  74.304
H  47.076  54.984  27.008
H  54.347  64.546  45.050
H  54.961  65.411  46.184
H  47.159  39.762  73.356
H  42.573  55.497  42.108
H  51.146  38.071  35.476
H  58.591  36.212  27.646
H  41.428  23.164  48.679
H  55.658  66.210  48.028
H  54.992  67.416  47.422
H  48.777  65.689  29.787
H  31.389  59.500  49.972
H  42.136  46.251  25.501
H  40.627  45.792  25.551
H  56.205  36.114  52.467
H  26.732  48.519  43.467
H  51.202  39.565  35.729
H  28.251  50.734  65.065
H  35.531  52.380  46.377
H  36.763  33.741  65.046
H  37.237  73.909  55.732
H  44.010  73.646  43.435
H  36.086  32.905  62.618
H  35.464  32.278  61.355
H  45.455  73.158  43.401
H  48.260  39.688  39.350
H  48.399  39.020  37.944
H  66.529  46.140  70.137
H  72.244  41.818  54.010
H  37.949  34.209  38.964
H  59.525  28.999  53.331
H  72.151  42.967  64.610
H  48.182  29.925  54.297
H  49.726  29.766  54.427
H  45.968  47.390  65.862
H  66.984  46.294  35.850
H  66.751  44.853  35.388
H  47.147  47.395  66.829
H  58.076  58.828  38.703
H  56.735  58.911  39.437
H  51.733  28.309  52.838
H  44.599  65.111  52.791
H  72.674  40.480  54.656
H  61.119  60.977  65.776
H  53.774  57.308  61.009
H  75.673  38.596  44.979
H  55.088  57.326  61.768
H  60.427  61.724  64.623
H  46.632  77.537  42.927
H  45.927  76.395  42.120
H  61.776  47.832  42.474
H  22.438  47.789  57.962
H  21.945  47.327  56.572
H  64.885  44.493  40.334
H  66.809  33.148  65.851
H  67.950  33.783  65.021
H  60.247  30.116  52.541
H  38.561  58.131  66.737
H  64.359  42.477  49.297
H  75.922  37.396  45.895
H  38.640  60.461  27.807
H  28.020  43.589  49.635
H  27.798  42.172  49.116
H  57.499  55.691  76.622
H  40.039  59.983  28.257
H  62.005  34.083  65.094
H  62.663  35.393  64.651
H  58.353  56.707  75.850
H  66.663  45.358  71.442
H  27.611  49.950  66.230
H  63.814  61.006  50.378
H  66.184  68.768  52.723
H  52.769  58.407  25.653
H  62.233  53.891  35.373
H  60.462  74.166  43.990
H  59.546  75.122  44.784
H  61.613  55.331  35.433
H  62.742  40.858  64.035
H  62.383  41.991  64.964
H  30.663  39.456  47.542
H  29.130  39.585  47.596
H  58.210  38.068  49.061
H  58.842  39.255  48.261
H  56.803  38.719  52.662
H  56.309  62.688  54.509
H  57.439  61.954  53.680
H  44.662  41.001  53.395
H  57.657  51.951  38.049
H  54.714  44.526  62.264
H  57.096  52.935  37.067
H  43.384  68.291  52.852
H  56.060  38.061  51.445
H  60.256  77.145  46.842
H  39.698  43.191  41.022
H  43.898  40.583  52.111
H  38.956  42.595  39.783
H  33.173  60.694  38.865
H  65.452  43.428  64.631
H  40.117  33.554  41.565
H  33.312  62.181  38.488
H  43.566  66.843  53.340
H  51.779  61.815  70.325
H  52.128  62.033  71.818
H  56.087  44.038  62.776
H  48.823  32.911  30.382
H  50.007  33.300  31.265
H  45.618  42.086  25.000
H  33.138  39.338  36.823
H  66.651  43.744  65.536
H  33.442  37.933  37.360
H  47.095  41.702  24.586
H  56.492  47.743  45.613
H  57.620  46.688  45.709
H  30.632  35.955  63.370
H  47.793  52.111  75.597
H  47.959  52.185  74.091
H  59.976  75.727  47.365
H  59.479  53.252  63.777
H  29.682  34.966  64.088
H  60.592  54.285  64.035
H  49.924  72.957  53.266
H  69.979  46.533  66.516
H  33.532  52.960  62.371
H  74.217  36.459  51.461
H  40.011  29.156  46.214
H  54.935  37.329  24.242
H  54.947  36.372  25.453
H  44.039  28.482  39.993
H  44.191  74.716  41.328
H  45.650  46.342  37.155
H  73.406  54.794  50.231
H  74.784  55.083  49.596
H  43.423  75.839  42.058
H  43.887  56.001  34.571
H  42.841  36.037  35.167
H  44.016  54.474  34.248
H  38.026  49.219  58.162
H  38.621  65.206  50.284
H  44.623  46.169  38.282
H  38.155  62.286  45.767
H  50.101  61.890  36.386
H  64.613  43.397  39.307
H  36.811  33.220  38.874
H  67.548  68.122  52.934
H  23.436  49.993  56.948
H  23.391  51.040  55.784
H  37.445  50.436  57.434
H  44.319  36.262  34.727
H  41.221  28.199  46.353
H  52.049  45.303  67.272
H  66.159  71.824  49.929
H  66.143  73.371  49.714
H  42.377  63.900  70.228
H  58.649  64.152  40.034
H  59.034  65.502  39.415
H  41.520  62.733  70.705
H  71.344  45.851  66.439
H  33.722  53.918  63.560
H  46.169  54.422  32.980
H  67.273  58.646  35.461
H  65.947  59.051  34.756
H  56.271  60.641  66.274
H  42.147  37.778  70.433
H  42.295  38.861  71.504
H  57.719  60.250  66.001
H  41.919  32.158  32.785
H  39.144  33.043  40.463
H  43.373  32.149  33.292
H  45.458  53.060  33.271
H  37.986  65.466  51.670
H  29.853  48.369  31.973
H  43.866  26.933  39.725
H  51.429  44.617  66.038
H  67.760  43.898  30.033
H  50.798  54.917  67.934
H  50.994  53.383  67.975
H  66.366  44.033  29.362
H  77.169  47.641  50.320
H  59.693  71.419  43.490
H  58.900  72.659  43.956
H  39.260  33.206  52.649
H  39.991  34.301  51.876
H  51.736  43.487  31.396
H  50.253  43.432  31.119
H  66.886  37.901  36.935
H  49.668  22.572  46.003
H  48.710  22.716  47.240
H  58.214  39.164  29.016
H  41.513  74.707  42.064
H  66.587  51.674  54.580
H  26.412  48.852  61.899
H  45.522  45.578  34.790
H  34.190  69.191  56.826
H  44.625  46.728  34.347
H  41.529  30.043  60.311
H  46.695  32.640  50.945
H  46.234  33.641  52.015
H  41.134  31.196  61.262
H  46.378  62.412  58.614
H  68.003  51.068  54.450
H  44.935  62.833  58.811
H  58.084  40.153  27.864
H  24.140  44.963  50.936
H  32.867  53.735  60.020
H  35.147  32.689  54.876
H  36.667  32.342  54.789
H  55.954  58.494  72.152
H  57.813  26.762  46.610
H  58.339  26.718  48.079
H  50.923  27.381  65.003
H  57.490  58.628  72.174
H  40.953  55.518  64.328
H  26.628  48.833  47.942
H  75.957  48.582  50.304
H  65.943  60.818  44.422
H  55.699  57.995  22.744
H  40.239  36.412  33.647
H  42.057  31.063  40.198
H  41.784  30.958  41.726
H  40.549  37.804  34.213
H  60.499  37.858  63.150
H  60.601  39.187  63.914
H  24.209  43.419  49.064
H  53.659  51.841  57.678
H  24.109  45.474  52.427
H  42.292  55.449  63.618
H  48.333  58.398  40.546
H  56.915  57.943  36.666
H  53.754  67.393  68.385
H  47.780  51.985  34.165
H  62.153  68.652  39.789
H  62.007  70.196  39.835
H  27.136  50.048  61.317
H  58.284  58.636  36.731
H  70.245  37.069  59.078
H  70.590  38.468  58.578
H  48.298  35.727  31.224
H  62.531  43.502  61.618
H  62.487  60.726  59.425
H  49.043  52.316  33.369
H  25.293  49.334  58.872
H  31.912  40.710  47.325
H  46.987  39.661  36.252
H  47.761  40.838  36.822
H  33.016  40.695  48.424
H  49.372  35.454  32.269
H  72.145  39.475  40.582
H  44.851  25.602  35.740
H  60.689  42.598  66.469
H  60.968  41.121  66.368
H  69.733  42.290  65.305
H  24.243  48.689  59.756
H  54.394  66.463  69.432
H  66.419  48.905  44.959
H  64.909  65.908  35.268
H  60.456  72.957  41.852
H  32.989  64.397  49.844
H  31.842  65.353  50.300
H  61.868  72.352  41.743
H  36.732  24.077  49.865
H  37.537  24.253  48.553
H  51.737  56.466  62.044
H  69.088  38.624  54.413
H  67.753  38.122  54.946
H  41.100  66.820  55.105
H  65.026  65.735  33.750
H  44.063  54.930  72.838
H  55.513  65.849  61.650
H  56.723  64.944  61.778
H  57.721  53.347  22.869
H  65.996  67.103  44.257
H  64.639  66.719  43.860
H  35.187  50.331  55.069
H  41.522  65.637  54.185
H  66.695  50.127  45.850
H  51.523  55.742  60.694
H  34.224  50.678  53.627
H  58.197  53.737  24.280
H  47.902  56.974  40.999
H  51.751  27.094  47.403
H  49.295  61.425  25.114
H  46.470  59.429  75.278
H  59.510  52.311  25.691
H  59.910  53.663  26.352
H  52.442  68.784  31.785
H  68.735  30.120  52.412
H  69.067  31.365  53.251
H  53.613  69.752  32.147
H  45.319  58.481  75.605
H  31.759  57.081  45.647
H  32.472  58.412  45.427
H  52.519  32.696  66.946
H  23.227  53.950  54.851
H  27.595  45.461  65.388
H  40.929  57.488  33.896
H  56.403  48.875  43.020
H  29.326  47.690  36.137
H  25.358  55.596  44.654
H  26.596  56.194  43.993
H  47.165  46.629  51.192
H  49.736  72.792  44.247
H  48.391  72.735  45.004
H  73.323  51.749  51.983
H  68.941  48.612  44.347
H  51.685  43.978  54.904
H  62.536  29.668  48.711
H  43.632  25.617  43.338
H  48.080  71.226  39.387
H  45.541  41.965  64.896
H  48.855  71.241  38.059
H  49.850  52.937  74.079
H  33.935  40.075  62.086
H  33.059  39.446  61.027
H  24.891  55.818  48.166
H  73.231  60.637  53.205
H  72.635  61.696  52.307
H  57.722  36.807  70.986
H  53.513  32.996  65.791
H  55.884  74.571  49.142
H  48.836  46.891  65.755
H  22.531  43.213  47.589
H  42.400  62.232  43.958
H  44.592  52.011  76.726
H  68.280  49.330  43.180
H  40.637  56.565  51.706
H  40.505  58.109  51.429
H  51.513  44.272  21.747
H  34.690  47.366  70.958
H  34.701  48.655  70.124
H  49.088  48.389  66.100
H  43.480  54.514  26.812
H  42.083  54.214  27.404
H  72.784  51.172  53.346
H  64.800  62.016  69.030
H  46.353  45.733  43.701
H  29.630  47.333  60.807
H  34.532  43.594  67.757
H  34.533  44.004  66.292
H  63.794  38.668  35.142
H  46.601  31.304  31.800
H  46.365  32.801  31.523
H  53.142  36.650  35.297
H  40.186  38.784  52.290
H  65.537  61.429  70.249
H  54.489  58.306  23.634
H  26.583  50.046  46.987
H  39.506  45.262  59.784
H  49.415  27.491  65.242
H  39.273  43.802  60.172
H  52.637  25.852  47.525
H  49.525  33.222  64.976
H  49.482  33.269  66.485
H  49.939  61.921  26.419
H  43.845  28.292  32.917
H  45.162  28.667  32.313
H  39.588  58.069  34.451
H  29.019  48.356  61.753
H  67.539  68.705  42.456
H  67.722  68.054  43.876
H  33.133  29.725  45.463
H  31.755  30.173  44.878
H  53.232  44.142  55.038
H  41.587  37.525  43.950
H  40.296  38.045  44.619
H  52.611  52.161  47.495
H  47.000  37.987  56.155
H  72.924  41.245  44.224
H  72.589  42.241  43.086
H  45.542  37.624  55.814
H  40.308  40.312  52.387
H  52.203  35.482  35.576
H  63.407  37.182  35.202
H  25.643  43.333  49.601
H  30.763  48.175  36.278
H  62.291  35.967  27.688
H  61.796  41.332  51.266
H  62.768  40.758  50.205
H  62.691  37.408  27.293
H  40.281  30.442  63.358
H  50.747  44.325  61.889
H  49.405  44.106  61.212
H  30.014  53.848  38.990
H  73.354  40.433  40.756
H  44.076  63.773  53.353
H  49.335  30.244  28.376
H  69.263  40.849  65.642
H  52.086  76.092  50.212
H  59.352  38.474  70.450
H  55.667  57.920  52.031
H  54.556  58.605  52.821
H  45.678  55.191  68.020
H  44.612  56.176  67.492
H  65.238  31.208  48.529
H  46.308  45.406  31.773
H  38.962  47.293  35.819
H  47.879  45.462  31.999
H  77.977  43.047  47.264
H  66.633  30.534  48.581
H  62.781  50.061  27.853
H  63.991  32.968  67.423
H  33.725  43.017  33.308
H  32.265  43.481  33.512
H  38.469  50.675  25.515
H  45.241  75.374  55.069
H  53.424  76.737  49.826
H  56.189  28.795  40.350
H  56.262  31.810  48.407
H  38.559  39.889  69.493
H  62.521  51.544  27.648
H  57.126  59.112  34.394
H  77.125  41.918  46.615
H  44.371  74.242  55.510
H  53.497  61.722  39.414
H  37.138  44.856  59.394
H  35.921  45.636  59.871
H  51.989  61.911  39.224
H  46.328  72.469  38.746
H  47.305  73.608  38.420
H  55.587  60.443  68.483
H  69.418  44.884  61.354
H  36.067  28.923  45.750
H  66.648  29.093  40.218
H  60.583  39.005  69.733
H  41.915  60.021  63.653
H  68.174  29.341  40.359
H  50.362  31.931  56.580
H  50.202  31.802  58.074
H  55.046  59.275  67.667
H  47.059  53.561  35.496
H  48.277  54.552  34.781
H  71.976  47.823  43.810
H  45.726  27.217  37.542
H  47.734  68.937  43.249
H  48.057  48.215  61.857
H  40.698  60.893  63.315
H  70.697  49.740  51.236
H  56.234  59.308  33.177
H  42.590  74.656  58.105
H  51.976  69.294  39.409
H  51.245  70.494  38.773
H  51.647  49.672  60.651
H  28.320  48.617  63.647
H  52.828  49.417  61.610
H  57.029  34.162  63.543
H  38.283  45.773  64.723
H  43.293  26.571  37.655
H  37.743  44.345  65.050
H  42.700  25.299  37.087
H  32.133  28.270  49.615
H  53.621  30.725  38.215
H  35.606  50.080  50.305
H  29.554  47.771  63.991
H  61.597  46.752  62.868
H  37.801  50.188  24.206
H  48.761  41.815  35.014
H  29.023  35.247  54.357
H  28.292  35.079  55.657
H  33.781  65.139  56.838
H  35.059  65.836  56.355
H  65.930  26.463  46.801
H  54.522  31.961  38.303
H  58.741  39.273  55.222
H  29.039  34.540  43.530
H  52.640  30.120  60.847
H  43.420  75.551  59.044
H  54.842  31.267  48.137
H  57.150  39.604  62.166
H  55.652  39.835  62.054
H  71.317  36.524  44.024
H  54.899  28.091  40.757
H  37.437  56.155  75.682
H  70.012  36.381  44.806
H  37.853  56.166  74.208
H  32.892  39.342  44.803
H  29.994  35.782  43.239
H  33.745  38.059  44.535
H  71.423  63.543  57.722
H  71.936  62.580  56.603
H  48.967  59.264  51.595
H  64.274  33.618  66.039
H  76.742  53.837  43.942
H  75.729  53.993  42.805
H  56.241  34.023  62.233
H  51.792  30.371  62.112
H  58.320  55.462  40.363
H  56.824  55.620  40.790
H  49.496  59.036  53.054
H  36.956  63.747  63.448
H  70.176  43.751  60.594
H  69.693  50.392  50.280
H  43.559  56.377  72.693
H  47.839  53.926  72.449
H  70.737  48.753  44.015
H  47.055  52.596  72.235
H  46.809  73.375  53.718
H  55.533  63.034  73.847
H  69.485  57.252  49.785
H  68.118  56.685  50.219
H  60.129  57.254  40.710
H  29.737  36.761  49.704
H  42.050  46.459  39.227
H  30.963  36.611  48.799
H  58.642  57.588  40.566
H  48.252  39.436  53.866
H  49.516  40.077  54.446
H  56.536  26.091  44.806
H  40.505  55.756  28.368
H  39.276  55.599  29.248
H  34.143  49.805  65.286
H  34.063  51.208  64.635
H  38.219  63.979  64.285
H  55.454  26.598  53.267
H  56.313  27.607  44.918
H  49.851  64.025  41.190
H  43.739  25.999  34.732
H  57.225  41.859  71.572
H  54.893  34.185  69.409
H  53.759  33.220  69.063
H  63.355  44.615  62.230
H  38.988  47.851  34.400
H  36.695  64.315  70.710
H  45.243  67.292  42.303
H  71.932  43.859  44.274
H  70.660  43.012  44.131
H  37.885  65.080  70.118
H  57.836  50.600  64.690
H  58.483  40.996  71.332
H  49.714  46.487  35.097
H  50.306  47.723  34.437
H  61.267  57.491  65.955
H  61.798  58.309  67.167
H  54.384  26.191  62.399
H  42.825  45.109  39.119
H  53.806  26.872  61.099
H  43.898  67.741  42.811
H  42.909  68.626  47.738
H  44.426  68.716  47.735
H  61.632  59.528  59.003
H  58.327  51.995  65.054
H  48.925  62.808  41.055
H  55.329  27.550  52.019
H  45.478  73.244  53.014
H  62.188  43.577  70.009
H  66.549  48.669  35.455
H  62.212  45.078  70.504
H  65.255  48.151  36.147
H  29.234  54.030  43.681
H  29.049  52.725  42.883
H  71.445  53.197  51.402
H  30.254  57.310  67.929
H  29.646  56.089  68.689
H  40.013  56.195  61.971
H  71.205  54.723  51.467
H  33.533  35.119  49.916
H  34.971  70.518  56.857
H  23.016  41.522  44.320
H  23.457  41.918  45.750
H  40.168  60.858  70.398
H  74.151  46.422  61.427
H  73.323  46.647  60.199
H  41.890  73.388  42.734
H  40.134  62.170  69.534
H  35.644  27.502  46.096
H  34.974  35.359  50.340
H  41.083  57.300  62.038
H  45.650  41.392  37.769
H  70.106  50.938  69.101
H  69.258  51.431  70.288
H  54.734  62.356  72.693
H  44.762  58.412  33.730
H  35.711  51.840  30.451
H  49.127  68.880  42.515
H  51.845  77.106  54.562
H  52.643  75.772  54.638
H  69.376  54.012  53.157
H  37.240  34.491  56.077
H  37.903  35.720  55.416
H  68.483  53.276  52.125
H  37.192  72.736  56.731
H  37.213  52.081  30.609
H  59.196  56.245  46.699
H  43.607  58.406  34.703
H  59.312  56.354  45.184
H  58.720  56.307  60.111
H  43.762  51.467  31.394
H  44.860  51.023  30.413
H  44.188  58.191  52.716
H  58.472  57.532  59.203
H  57.372  44.223  34.631
H  57.731  45.709  34.460
H  44.615  59.414  51.877
H  49.384  30.979  29.758
H  50.695  66.569  49.149
H  31.709  58.042  31.552
H  30.741  59.080  30.940
H  51.259  73.046  42.024
H  61.739  41.593  68.517
H  36.460  48.290  33.453
H  53.036  45.173  52.533
H  62.890  63.045  64.723
H  32.198  71.099  58.509
H  34.550  63.524  55.176
H  35.045  62.074  54.963
H  47.351  65.579  52.085
H  35.308  48.057  37.834
H  70.692  63.199  53.770
H  34.266  47.203  38.620
H  39.233  50.182  33.783
H  37.705  50.177  33.997
H  46.704  44.643  59.169
H  59.155  70.357  48.283
H  47.702  43.530  59.529
H  61.226  52.375  72.673
H  50.964  41.177  28.425
H  51.239  42.383  29.416
H  64.331  63.170  65.217
H  60.968  53.266  73.892
H  46.964  65.277  53.590
H  28.968  38.209  53.575
H  69.168  63.190  54.086
H  38.599  34.447  34.499
H  34.322  50.570  36.641
H  62.334  53.945  33.367
H  62.316  53.147  32.031
H  48.057  44.693  64.005
H  54.045  44.078  52.941
H  26.749  55.236  56.480
H  34.925  36.125  41.863
H  42.900  30.454  56.959
H  35.252  47.717  32.717
H  53.180  32.377  46.258
H  51.455  74.286  41.085
H  53.103  32.792  44.779
H  54.658  44.978  23.035
H  33.669  37.346  42.075
H  68.922  62.539  36.755
H  69.790  61.627  35.820
H  53.930  53.712  24.844
H  44.141  30.875  57.776
H  55.138  53.408  23.931
H  55.888  60.771  55.893
H  40.528  39.855  38.645
H  40.496  41.367  38.574
H  62.247  40.379  69.259
H  44.907  40.460  35.676
H  30.003  38.041  52.460
H  33.256  32.242  63.117
H  66.994  34.648  54.764
H  29.327  53.559  29.564
H  29.779  52.128  29.913
H  35.451  34.506  61.093
H  44.338  77.793  47.282
H  43.115  77.300  46.487
H  66.599  33.280  55.376
H  69.041  50.588  39.960
H  67.993  49.588  39.420
H  35.308  35.889  61.695
H  55.618  25.199  58.098
H  33.403  54.840  70.321
H  32.786  55.069  71.723
H  24.196  52.764  43.784
H  24.101  51.323  44.354
H  58.099  42.707  45.856
H  73.239  48.884  51.400
H  39.402  65.412  66.186
H  72.494  48.515  50.121
H  56.810  43.318  46.419
H  35.028  53.641  43.300
H  56.670  25.235  56.966
H  33.524  53.538  43.456
H  58.287  71.198  49.233
H  31.252  29.205  48.777
H  42.862  69.561  30.638
H  52.693  33.217  60.670
H  59.686  42.516  44.276
H  55.147  48.546  61.034
H  62.396  64.904  63.461
H  39.632  66.771  66.882
H  52.265  56.340  38.738
H  50.797  56.221  39.173
H  62.865  63.794  62.499
H  47.542  44.950  73.100
H  49.037  44.997  72.795
H  49.678  54.502  24.441
H  45.851  30.253  41.599
H  46.107  77.944  52.357
H  49.900  55.958  23.992
H  31.964  39.886  59.481
H  33.120  40.717  58.911
H  47.504  78.397  51.831
H  55.458  47.032  36.062
H  56.802  47.292  36.786
H  54.553  48.191  62.376
H  38.571  36.878  61.038
H  37.872  38.143  60.509
H  44.927  30.660  40.401
H  45.202  39.126  34.953
H  33.928  49.429  37.616
H  51.982  61.638  47.254
H  34.931  56.492  33.822
H  59.608  50.380  45.924
H  72.575  50.027  35.064
H  68.446  37.607  48.847
H  73.662  49.855  36.052
H  60.477  50.200  47.199
H  70.419  47.870  42.219
H  69.348  48.062  41.162
H  51.009  31.950  44.191
H  61.022  49.148  32.761
H  33.889  55.523  34.504
H  59.824  48.344  32.289
H  36.983  51.458  55.920
H  43.641  69.737  41.069
H  42.964  41.509  63.150
H  41.659  41.922  62.438
H  47.857  45.227  47.958
H  37.053  51.687  41.742
H  65.557  45.701  55.628
H  66.557  46.400  56.544
H  61.240  55.610  68.862
H  36.372  52.671  57.054
H  51.614  51.017  33.446
H  62.601  56.332  68.671
H  51.988  30.869  43.628
H  44.948  66.638  37.609
H  52.790  48.435  27.778
H  49.346  56.703  61.093
H  49.619  57.400  59.769
H  28.921  53.194  62.697
H  70.150  54.269  46.862
H  71.309  53.627  46.093
H  37.934  54.241  59.619
H  48.941  50.786  58.317
H  36.381  67.649  65.832
H  35.298  68.549  66.531
H  45.821  65.342  37.570
H  27.094  65.502  56.424
H  33.970  58.732  62.586
H  34.679  58.273  63.866
H  50.210  50.669  34.041
H  55.562  68.326  34.508
H  54.202  67.999  33.951
H  50.948  63.316  38.552
H  46.017  64.115  56.725
H  46.687  64.961  57.802
H  50.646  53.788  47.433
H  49.403  63.225  38.532
H  42.364  70.586  41.264
H  57.827  27.803  42.040
H  31.035  45.330  54.266
H  38.504  52.143  41.852
H  60.842  39.493  44.358
H  60.986  40.524  43.217
H  47.600  46.122  63.837
H  38.368  72.132  42.710
H  37.537  73.149  43.555
H  50.910  28.763  49.706
H  68.629  50.453  35.680
H  67.305  51.020  35.109
H  54.780  53.137  35.052
H  34.148  33.157  63.949
H  33.253  70.848  59.640
H  27.452  34.240  47.383
H  67.760  62.361  56.653
H  59.349  47.187  36.969
H  25.413  54.733  57.098
H  47.819  59.191  77.218
H  48.848  59.984  76.388
H  58.780  45.745  37.052
H  53.705  53.323  33.956
H  50.685  62.181  47.876
H  69.911  60.345  39.168
H  68.735  59.427  39.542
H  67.681  63.811  57.179
H  62.890  65.311  42.472
H  62.047  64.775  43.643
H  56.218  32.856  58.313
H  32.028  44.402  53.499
H  49.390  54.150  48.604
H  59.981  36.674  51.290
H  58.513  36.377  51.623
H  58.037  26.326  41.763
H  60.728  35.188  44.868
H  61.825  34.965  43.780
H  41.768  51.996  35.193
H  52.906  54.028  51.528
H  33.372  67.427  63.435
H  51.372  52.042  76.195
H  28.997  41.430  42.613
H  28.502  40.433  43.642
H  50.619  30.191  50.252
H  59.485  58.588  60.944
H  60.535  59.483  61.630
H  52.033  50.906  25.007
H  53.323  51.750  25.101
H  47.812  34.408  64.227
H  48.067  35.924  64.597
H  54.725  32.533  58.330
H  75.990  56.047  56.016
H  75.774  55.816  54.482
H  42.346  68.708  31.805
H  54.246  50.612  71.899
H  28.716  33.492  46.901
H  57.320  30.582  64.311
H  45.211  59.907  43.677
H  62.147  50.452  25.650
H  63.150  49.699  24.773
H  61.228  41.255  58.943
H  36.192  61.253  33.267
H  44.164  60.891  43.197
H  34.993  60.499  33.805
H  60.872  40.061  58.025
H  30.434  70.349  46.404
H  31.141  69.900  47.715
H  57.331  53.300  54.771
H  38.810  65.673  38.628
H  43.301  72.737  40.997
H  34.523  51.250  44.499
H  67.281  39.517  69.578
H  68.176  40.512  68.827
H  66.909  35.706  61.096
H  30.202  38.074  41.321
H  54.822  56.263  64.825
H  29.551  39.465  41.278
H  43.946  58.829  64.084
H  35.382  50.060  44.163
H  64.565  69.997  44.280
H  60.331  61.092  70.053
H  44.595  66.232  63.708
H  69.077  44.463  51.978
H  66.737  64.980  43.971
H  70.039  66.224  55.999
H  36.160  45.191  31.246
H  34.871  45.921  30.858
H  70.503  64.813  55.680
H  47.398  64.017  64.573
H  46.256  63.917  63.557
H  56.025  59.235  55.955
H  26.785  36.766  59.954
H  46.530  44.415  48.578
H  42.674  45.995  62.938
H  25.815  37.804  59.309
H  49.867  25.128  47.812
H  44.517  61.540  63.019
H  43.756  60.261  62.762
H  44.715  67.512  62.858
H  68.741  43.205  51.154
H  58.132  65.086  58.489
H  59.530  65.190  59.102
H  43.582  46.279  64.135
H  35.688  43.313  42.438
H  35.728  42.366  43.624
H  42.113  52.930  34.052
H  56.366  41.305  63.532
H  49.506  71.132  56.955
H  60.525  60.972  68.544
H  56.418  23.322  54.908
H  55.613  23.564  56.248
H  46.346  24.549  58.689
H  32.387  63.939  52.237
H  66.561  36.516  36.353
H  45.487  43.657  60.667
H  52.667  26.699  56.158
H  53.456  59.693  72.448
H  36.865  31.283  57.026
H  53.929  67.737  66.278
H  32.668  51.684  34.300
H  38.488  30.180  34.077
H  35.341  31.447  56.959
H  36.186  72.199  41.024
H  38.449  66.737  39.659
H  39.079  48.618  29.318
H  38.014  29.613  35.471
H  54.362  60.444  71.440
H  37.094  71.113  40.392
H  57.197  67.172  57.343
H  52.285  25.788  54.948
H  44.952  42.402  61.390
H  52.970  67.186  65.195
H  32.945  63.470  53.574
H  38.109  45.225  56.384
H  34.216  51.336  34.538
H  46.789  37.516  53.522
H  46.249  38.919  53.423
H  57.716  68.543  56.953
H  56.688  37.340  58.396
H  56.114  38.091  59.572
H  38.636  49.469  28.109
H  67.981  35.204  60.137
H  49.193  71.703  58.328
H  44.852  24.429  58.446
H  39.519  48.659  50.378
H  36.733  44.954  57.024
H  63.388  39.056  54.224
H  65.943  63.926  46.547
H  50.452  66.915  41.525
H  50.876  68.024  40.593
H  65.668  65.383  46.024
H  51.013  54.714  43.011
H  51.321  55.975  43.837
H  39.296  48.684  51.903
H  54.131  56.485  63.493
H  30.232  41.753  37.197
H  29.771  42.482  38.431
H  61.902  38.753  54.374
H  55.123  42.027  62.961
H  67.937  64.234  43.377
H  37.965  45.000  27.890
H  45.185  24.537  46.837
H  44.589  24.149  45.472
H  65.020  56.419  26.363
H  30.378  61.096  45.165
H  31.383  62.228  44.879
H  63.577  55.872  26.288
H  55.328  39.738  38.820
H  47.070  70.465  36.468
H  43.341  57.435  63.956
H  61.276  36.698  66.633
H  71.126  30.899  53.481
H  60.339  35.526  66.944
H  37.993  65.908  56.247
H  38.485  65.010  57.404
H  69.271  64.368  49.847
H  48.107  69.338  36.497
H  45.805  63.590  27.652
H  49.950  51.452  76.069
H  53.382  44.446  22.380
H  39.990  34.886  34.943
H  37.868  44.024  38.457
H  54.620  45.175  70.408
H  69.628  62.928  50.368
H  51.994  62.340  41.744
H  72.096  32.125  53.293
H  55.569  38.656  37.727
H  56.512  68.423  32.512
H  58.000  68.865  32.551
H  56.986  31.497  63.105
H  31.024  36.499  35.180
H  32.582  36.715  35.138
H  42.058  38.387  38.200
H  67.311  38.102  60.866
H  68.234  37.721  59.722
H  67.923  45.566  64.921
H  27.766  63.937  46.304
H  54.430  63.035  41.597
H  69.305  45.016  64.585
H  56.589  45.923  28.107
H  71.487  48.015  33.284
H  72.943  48.521  33.335
H  59.024  31.609  45.819
H  58.339  32.831  45.146
H  51.238  33.657  60.706
H  60.198  43.954  44.497
H  28.681  65.215  46.489
H  45.408  62.155  27.241
H  55.587  63.238  40.554
H  40.568  37.937  38.169
H  52.475  63.317  42.812
H  53.152  45.669  70.342
H  49.255  68.955  61.473
H  45.332  72.929  46.047
H  46.216  74.026  46.640
H  35.397  40.519  54.910
H  32.326  54.190  26.642
H  35.763  41.879  54.243
H  77.305  43.646  44.167
H  77.205  44.154  42.712
H  60.914  46.810  45.346
H  49.522  64.671  56.677
H  50.804  63.803  56.430
H  75.502  43.474  45.697
H  62.333  46.971  44.790
H  63.596  50.644  44.395
H  43.046  69.574  35.066
H  52.826  38.903  48.378
H  44.561  71.882  41.249
H  53.973  39.934  48.338
H  55.182  50.903  54.440
H  50.168  66.165  32.925
H  50.740  64.789  33.097
H  48.340  24.749  48.018
H  37.966  45.018  26.321
H  64.462  50.943  43.153
H  38.798  44.902  39.286
H  54.027  38.732  67.119
H  54.023  37.822  68.325
H  50.493  68.205  61.057
H  68.862  49.103  54.107
H  47.592  47.830  73.626
H  46.984  49.225  73.606
H  49.590  77.419  51.621
H  53.389  39.425  45.893
H  53.773  37.945  45.884
H  49.942  78.856  51.999
H  45.943  58.605  66.284
H  68.934  49.273  52.614
H  44.439  58.410  66.231
H  30.812  45.878  48.603
H  31.855  46.902  48.141
H  42.704  69.634  36.575
H  46.258  72.236  49.507
H  45.442  71.625  48.321
H  61.100  34.312  29.074
H  60.388  34.142  27.712
H  32.773  53.217  27.789
H  74.805  42.553  44.673
H  59.159  37.594  67.331
H  58.067  37.511  68.436
H  65.385  68.900  43.502
H  55.698  44.756  27.635
H  51.373  53.186  73.825
H  27.880  52.095  62.487
H  52.053  49.685  28.347
H  56.371  76.804  46.471
H  51.504  56.167  47.563
H  25.809  57.483  59.595
H  27.271  57.645  60.074
H  46.656  49.618  27.071
H  27.473  58.920  45.619
H  27.418  57.436  45.258
H  48.021  48.915  27.321
H  49.915  68.777  47.979
H  61.548  73.274  45.468
H  65.288  57.113  56.283
H  49.390  69.935  48.820
H  33.082  41.489  35.311
H  33.745  40.872  34.069
H  45.929  59.221  40.267
H  72.725  45.158  62.703
H  72.284  46.430  63.447
H  45.333  57.881  40.713
H  65.935  56.583  37.171
H  54.629  58.552  65.390
H  56.151  58.363  65.649
H  64.752  57.106  36.352
H  48.892  54.115  56.054
H  35.952  41.995  51.857
H  30.410  67.063  51.817
H  74.817  55.214  58.403
H  56.558  66.483  40.642
H  69.471  60.307  43.722
H  56.543  66.390  39.089
H  55.891  50.156  67.069
H  32.953  35.379  60.977
H  37.485  41.623  38.282
H  33.105  36.906  61.279
H  57.608  51.320  56.203
H  54.717  45.303  50.573
H  55.915  45.913  49.750
H  74.363  57.729  59.141
H  54.175  74.482  46.749
H  69.822  51.779  48.717
H  53.710  75.952  46.821
H  53.179  42.655  57.248
H  22.136  54.471  57.374
H  22.961  55.595  56.736
H  51.681  43.025  57.317
H  40.656  62.974  46.229
H  41.692  62.069  46.916
H  74.095  56.743  60.346
H  74.915  53.740  58.810
H  71.112  51.461  47.875
H  56.621  34.775  37.655
H  61.561  72.093  46.415
H  65.577  56.505  57.682
H  36.063  66.240  50.739
H  39.232  66.381  35.094
H  38.732  66.934  36.447
H  35.472  67.487  50.091
H  55.361  47.123  65.265
H  30.000  50.515  41.319
H  29.503  50.821  39.890
H  66.307  58.174  38.581
H  24.428  63.252  48.278
H  23.929  62.131  49.187
H  27.945  54.089  60.500
H  61.965  65.977  46.272
H  34.100  58.935  56.096
H  55.023  48.346  66.122
H  63.252  66.013  45.373
H  53.384  59.921  63.545
H  52.620  58.589  63.790
H  49.988  54.647  50.908
H  50.557  63.103  43.413
H  50.990  61.944  44.361
H  69.210  41.836  62.063
H  27.533  55.334  59.645
H  34.580  57.678  56.834
H  73.663  59.747  58.396
H  57.171  50.965  67.124
H  49.855  73.456  60.440
H  74.645  59.431  57.233
H  70.615  61.305  43.540
H  41.565  57.804  45.786
H  42.535  56.896  46.598
H  50.116  50.208  56.307
H  55.590  69.180  50.641
H  38.238  36.556  48.039
H  54.465  69.241  49.578
H  71.810  49.309  41.310
H  52.899  37.134  52.660
H  50.986  73.062  59.462
H  52.351  37.931  51.474
H  54.687  39.756  26.023
H  54.039  38.362  26.244
H  63.841  25.358  55.150
H  39.761  36.185  48.033
H  70.773  48.695  38.063
H  71.060  48.426  39.552
H  46.539  35.005  36.005
H  36.935  67.848  36.938
H  37.384  69.302  36.672
H  46.365  33.545  35.603
H  71.857  50.872  41.252
H  41.842  24.663  50.589
H  42.974  23.610  50.442
H  29.393  66.244  51.012
H  40.007  47.457  39.075
H  71.627  58.975  64.683
H  51.913  59.297  61.669
H  66.501  54.517  57.895
H  65.686  53.801  58.950
H  34.350  67.149  47.609
H  74.000  64.010  40.701
H  73.830  62.643  39.985
H  60.965  53.800  48.588
H  74.714  41.833  57.658
H  71.319  60.380  65.222
H  49.343  55.628  41.710
H  46.728  70.231  63.643
H  75.157  40.595  58.482
H  75.755  46.760  55.021
H  76.751  45.623  54.712
H  46.367  42.353  36.767
H  62.343  53.181  48.852
H  55.956  46.118  62.374
H  52.047  29.417  32.971
H  71.522  47.646  68.794
H  70.084  47.865  69.273
H  47.605  71.493  63.709
H  57.503  46.022  62.274
H  39.220  46.804  40.229
H  59.358  56.496  69.820
H  50.388  66.513  47.624
H  62.569  65.805  55.379
H  45.645  49.848  33.330
H  62.000  66.927  54.520
H  69.596  54.071  43.925
H  68.184  70.470  41.880
H  67.400  70.581  40.541
H  51.854  29.406  53.884
H  57.049  62.142  69.803
H  56.955  60.855  70.663
H  60.070  57.295  68.681
H  42.125  53.129  31.463
H  28.058  40.385  55.186
H  29.292  40.346  54.240
H  45.542  49.267  34.741
H  34.781  41.982  28.646
H  34.886  43.413  29.154
H  62.957  42.116  41.582
H  51.611  61.733  36.372
H  43.379  53.777  32.068
H  61.482  42.095  41.875
H  50.514  58.649  61.843
H  38.458  63.776  45.569
H  24.235  49.910  48.469
H  23.104  50.262  49.490
H  61.324  27.757  36.504
H  64.874  27.092  49.166
H  60.741  48.021  62.524
H  34.577  48.928  50.559
H  53.286  53.496  53.798
H  55.944  33.464  38.140
H  49.561  33.515  61.530
H  53.916  28.522  45.026
H  40.707  62.630  28.784
H  55.236  29.274  45.079
H  50.260  32.524  62.504
H  51.211  70.699  43.054
H  61.517  75.058  41.251
H  40.656  62.010  27.392
H  49.840  30.312  42.999
H  49.519  29.347  41.868
H  32.749  47.314  62.005
H  50.747  52.030  51.112
H  65.388  66.903  59.033
H  66.627  67.755  59.366
H  33.370  47.151  60.629
H  63.174  31.200  47.804
H  64.094  31.656  46.679
H  60.081  75.114  40.693
H  45.754  35.610  50.808
H  56.229  33.586  42.901
H  55.112  33.557  43.962
H  57.581  54.961  38.335
H  61.113  29.282  36.516
H  56.918  56.361  38.422
H  51.307  30.123  34.117
H  50.411  56.532  41.073
H  34.569  66.570  46.195
H  37.220  34.781  60.109
H  69.203  52.624  44.117
H  34.705  62.523  60.773
H  33.834  61.338  61.199
H  57.812  30.786  37.084
H  57.298  32.248  36.797
H  36.864  36.068  59.357
H  38.049  61.565  71.405
H  37.080  62.363  72.336
H  62.102  38.402  57.538
H  47.416  69.945  46.222
H  51.168  70.459  41.546
H  46.591  71.228  46.030
H  63.061  37.449  56.760
H  51.395  51.303  30.551
H  51.743  49.848  30.641
H  46.123  37.041  51.330
H  55.229  54.561  54.828
H  53.009  49.692  71.901
H  56.091  54.944  63.718
H  55.665  54.858  70.555
H  42.666  26.854  41.867
H  25.348  38.919  54.744
H  26.563  38.463  53.938
H  66.985  62.840  60.039
H  24.806  47.856  57.356
H  24.625  46.434  56.788
H  68.488  62.490  59.768
H  42.068  46.283  27.740
H  54.391  44.451  36.030
H  54.500  44.001  37.492
H  36.719  63.381  59.155
H  41.610  45.718  29.104
H  59.157  44.944  75.293
H  54.021  69.948  67.889
H  35.512  54.650  55.045
H  56.193  70.085  58.805
H  66.700  62.389  39.035
H  35.459  37.084  37.811
H  35.581  37.446  36.319
H  57.013  71.104  59.608
H  72.959  65.102  47.846
H  73.872  55.078  40.717
H  59.484  45.442  76.718
H  75.222  55.389  41.334
H  35.778  62.169  59.187
H  41.223  26.628  42.303
H  56.429  50.264  33.493
H  23.994  51.338  40.869
H  62.147  67.620  32.722
H  76.985  53.445  49.146
H  77.450  54.511  48.120
H  63.100  68.383  31.790
H  67.369  52.512  69.260
H  67.339  53.692  70.229
H  53.393  49.279  46.891
H  53.526  62.505  29.738
H  50.297  56.603  48.767
H  48.486  32.586  43.211
H  51.794  52.468  32.125
H  49.301  42.697  73.221
H  47.560  44.433  50.794
H  46.769  59.234  48.916
H  32.556  43.722  30.523
H  60.561  67.339  60.395
H  54.924  69.517  66.732
H  45.363  70.621  66.586
H  40.064  57.761  28.313
H  39.329  58.003  26.955
H  54.543  63.218  30.672
H  54.888  50.138  33.490
H  72.103  65.300  46.558
H  72.180  43.700  52.302
H  29.014  51.491  46.942
H  62.559  25.218  43.605
H  29.785  52.524  46.100
H  31.357  61.692  39.771
H  26.443  51.634  44.313
H  27.855  52.158  44.582
H  29.897  61.329  39.498
H  74.695  56.841  51.743
H  76.212  56.815  51.972
H  61.567  26.398  43.640
H  51.133  54.506  55.492
H  27.133  64.256  57.365
H  50.332  30.180  46.523
H  29.365  50.483  37.415
H  37.015  55.447  59.294
H  47.533  50.517  57.288
H  57.887  76.581  46.486
H  64.785  53.617  61.082
H  64.135  54.756  60.250
H  62.506  25.996  54.673
H  63.573  65.801  57.624
H  63.559  66.970  56.661
H  65.680  27.892  42.475
H  73.309  42.816  51.714
H  45.264  73.880  62.701
H  35.041  30.459  41.702
H  45.805  39.839  26.618
H  38.636  76.416  50.027
H  39.276  75.426  49.015
H  52.674  54.066  57.399
H  46.131  39.055  25.350
H  46.861  74.600  48.958
H  47.577  74.911  47.585
H  65.891  63.558  39.680
H  28.068  44.709  56.875
H  26.614  45.228  57.061
H  46.362  72.855  62.459
H  60.324  68.619  61.207
H  49.907  45.622  50.864
H  77.574  46.874  42.483
H  29.052  51.992  37.168
H  49.974  31.657  46.772
H  45.032  52.072  26.088
H  44.332  50.854  25.457
H  64.240  28.339  42.793
H  33.862  31.282  42.265
H  60.163  69.751  52.811
H  59.494  68.546  53.468
H  37.121  54.196  54.587
H  22.492  51.598  41.129
H  58.313  38.907  64.383
H  57.561  40.179  64.818
H  61.686  47.939  26.654
H  41.316  53.666  50.811
H  41.611  54.661  51.942
H  60.155  47.593  26.795
H  45.768  43.181  74.573
H  47.155  43.748  74.763
H  42.094  54.644  24.839
H  42.246  54.263  23.371
H  36.904  72.314  38.202
H  37.163  73.724  38.739
H  44.469  37.253  62.279
H  30.895  35.124  46.173
H  67.499  40.312  64.614
H  30.698  33.944  45.226
H  39.181  42.216  70.295
H  38.298  42.728  69.132
H  51.255  55.806  51.154
H  38.288  40.591  37.538
H  57.455  54.736  64.331
H  44.971  35.595  62.293
H  53.517  51.057  54.500
H  51.482  62.414  34.081
H  66.708  41.640  64.562
H  52.494  73.190  53.315
H  66.474  59.537  39.275
H  73.447  48.512  39.307
H  54.450  55.268  71.428
H  70.499  41.772  34.516
H  69.816  41.331  35.811
H  42.008  44.042  27.277
H  42.368  43.245  25.986
H  41.628  49.521  58.777
H  45.550  54.139  23.295
H  44.915  54.441  21.920
H  40.248  48.933  58.484
H  53.485  71.319  60.133
H  70.478  42.277  62.840
H  53.681  70.493  58.838
H  70.893  51.301  37.156
H  69.587  50.690  37.608
H  64.167  52.563  72.672
H  34.850  71.325  42.977
H  34.064  72.631  42.615
H  63.421  51.292  73.103
H  36.083  59.126  48.043
H  48.207  30.578  63.695
H  74.432  49.620  38.825
H  22.937  46.763  47.840
H  48.479  31.279  62.366
H  31.008  63.788  33.261
H  30.781  62.601  32.292
H  23.651  47.593  48.887
H  48.751  29.749  52.222
H  59.175  39.964  40.649
H  54.611  62.194  35.281
H  55.665  63.278  34.933
H  44.262  71.645  66.964
H  55.056  59.891  35.790
H  62.466  70.349  59.084
H  61.865  71.170  57.934
H  42.573  50.682  33.014
H  43.092  48.555  71.719
H  49.651  28.593  51.723
H  42.887  47.029  71.683
H  68.768  64.843  37.437
H  53.629  59.717  35.276
H  67.244  64.609  37.336
H  47.199  67.061  34.728
H  53.288  52.342  31.765
H  47.527  58.931  47.605
H  50.698  42.365  72.760
H  42.773  58.095  60.973
H  43.246  56.640  60.900
H  76.265  47.673  42.345
H  43.791  50.416  34.004
H  59.425  39.500  42.100
H  44.012  49.452  26.893
H  44.520  49.609  28.318
H  55.865  60.255  24.605
H  57.062  59.282  24.801
H  53.667  72.915  52.355
H  50.684  48.417  46.038
H  50.950  60.653  73.837
H  51.512  59.348  74.435
H  41.301  39.108  61.440
H  52.830  61.712  34.253
H  42.809  39.055  61.750
H  34.485  68.728  61.191
H  58.079  40.517  68.952
H  59.460  40.823  68.280
H  35.024  70.139  61.446
H  41.227  36.839  31.394
H  43.173  61.494  29.595
H  42.769  60.019  29.859
H  40.042  37.789  31.150
H  34.771  43.096  52.464
H  33.748  44.250  31.379
H  33.281  66.340  62.351
H  48.056  66.956  36.023
H  47.855  31.762  44.360
H  47.981  52.971  58.523
H  34.594  58.806  48.223
H  34.647  45.577  62.037
H  50.363  59.909  46.337
H  35.239  72.720  55.316
H  52.385  54.227  30.235
H  35.557  46.373  64.497
H  35.472  45.925  65.968
H  55.212  30.018  42.667
H  40.224  40.518  42.016
H  53.113  54.923  31.416
H  40.951  39.972  40.796
H  55.370  31.294  43.540
H  63.512  38.210  60.074
H  38.673  59.368  36.314
H  76.971  55.670  41.840
H  73.834  42.718  38.824
H  49.408  46.406  49.392
H  52.979  41.703  41.491
H  70.200  59.979  61.661
H  53.378  56.079  29.281
H  54.487  55.029  29.177
H  70.864  60.504  62.909
H  54.939  42.791  31.517
H  64.461  39.394  49.997
H  65.432  40.400  49.449
H  54.974  42.153  30.113
H  38.029  39.408  26.839
H  59.629  55.469  35.340
H  77.320  55.983  40.332
H  54.357  49.423  51.375
H  72.466  56.988  49.404
H  31.883  56.372  40.159
H  30.941  55.812  39.132
H  72.507  56.525  47.951
H  66.829  56.705  69.893
H  67.092  56.065  68.501
H  53.268  48.157  50.898
H  28.758  47.090  48.731
H  30.159  38.645  67.031
H  27.549  47.029  49.708
H  61.055  32.328  67.698
H  27.464  45.322  34.370
H  74.651  43.961  38.530
H  62.341  38.947  60.722
H  65.175  66.787  62.978
H  64.394  65.968  61.912
H  46.035  60.438  25.254
H  51.596  51.759  62.315
H  52.529  52.005  61.089
H  60.517  33.399  68.691
H  62.356  38.517  31.658
H  61.392  37.880  30.599
H  28.903  52.818  39.289
H  54.123  49.518  68.520
H  58.980  56.823  35.788
H  39.000  65.099  41.489
H  70.464  35.614  51.019
H  69.168  35.197  50.342
H  57.995  69.677  51.840
H  60.702  56.882  57.016
H  61.802  56.012  56.386
H  57.579  68.376  51.125
H  33.362  47.077  64.931
H  65.153  45.947  58.471
H  63.611  61.425  43.869
H  33.690  58.430  51.661
H  36.119  69.617  58.321
H  35.989  48.990  35.502
H  57.613  65.587  71.496
H  57.996  66.478  72.652
H  59.917  57.846  74.346
H  46.087  33.218  46.433
H  46.869  33.647  45.197
H  37.405  48.455  35.659
H  69.666  65.100  64.255
H  60.653  57.887  72.978
H  69.017  65.806  65.490
H  50.292  28.696  31.300
H  36.679  29.559  39.783
H  39.761  28.843  61.142
H  38.822  68.978  57.289
H  28.428  64.715  61.991
H  37.920  64.447  40.595
H  53.845  50.043  48.954
H  39.600  28.582  62.648
H  53.053  53.461  27.153
H  53.668  54.828  27.239
H  47.117  68.312  70.307
H  28.575  54.236  35.957
H  29.966  54.830  35.791
H  53.043  40.610  42.568
H  32.002  47.781  65.149
H  29.479  63.861  61.219
H  38.281  58.712  37.666
H  51.300  68.400  56.244
H  51.930  69.695  56.841
H  29.153  38.286  65.946
H  46.692  50.784  53.233
H  38.868  55.311  66.765
H  40.010  56.356  66.932
H  40.909  49.698  63.410
H  52.377  35.919  24.975
H  51.603  36.473  26.183
H  41.417  49.033  62.098
H  40.320  68.884  56.928
H  28.710  46.662  58.466
H  33.177  33.172  52.111
H  53.484  48.430  69.442
H  76.799  47.094  39.964
H  75.716  47.448  38.938
H  26.163  44.618  42.708
H  63.051  47.003  57.290
H  63.251  45.690  56.518
H  51.426  69.753  53.874
H  77.035  51.868  53.896
H  76.526  50.453  53.533
H  52.774  69.076  54.231
H  27.956  41.613  57.771
H  36.949  68.831  59.343
H  49.661  22.465  56.592
H  26.622  41.517  57.000
H  64.771  45.471  33.987
H  27.076  61.063  51.473
H  47.270  69.444  71.339
H  65.856  33.374  46.342
H  59.233  33.815  58.230
H  59.437  34.410  59.633
H  62.657  47.157  71.536
H  58.489  59.090  45.167
H  51.651  56.794  25.048
H  49.890  22.157  58.082
H  58.077  60.481  44.670
H  26.300  43.954  44.092
H  47.176  41.179  59.565
H  31.792  58.969  68.951
H  69.030  34.758  46.584
H  53.592  50.102  44.484
H  44.786  66.666  46.561
H  45.721  65.472  46.890
H  45.295  34.977  56.526
H  25.068  36.336  46.151
H  26.608  36.565  46.050
H  45.522  35.640  57.909
H  41.334  58.170  58.136
H  48.405  40.802  60.443
H  41.132  59.228  57.032
H  70.307  56.719  56.189
H  65.934  46.289  33.463
H  29.045  64.828  56.408
H  39.221  67.233  49.311
H  30.785  44.388  41.582
H  38.059  67.764  50.233
H  36.585  39.810  27.267
H  67.408  54.148  65.055
H  67.560  52.718  64.456
H  53.962  51.734  46.463
H  71.473  56.959  55.214
H  33.935  34.503  52.449
H  64.038  46.676  71.033
H  34.417  40.434  31.214
H  49.201  47.137  23.813
H  57.586  49.483  58.406
H  65.268  69.567  40.434
H  64.830  70.116  41.787
H  57.730  47.972  58.233
H  40.952  57.462  37.527
H  40.829  58.414  36.372
H  42.606  65.690  43.587
H  57.099  73.697  39.303
H  58.104  72.670  39.852
H  52.743  33.163  56.609
H  52.384  51.204  43.835
H  49.394  49.582  63.145
H  44.654  60.293  25.970
H  28.881  45.830  34.590
H  46.053  46.170  74.230
H  49.139  52.309  53.848
H  37.518  38.546  31.765
H  38.735  38.764  32.732
H  45.147  46.511  73.029
H  38.667  56.646  51.260
H  37.362  57.388  51.592
H  50.751  49.137  63.697
H  34.022  41.885  31.573
H  52.273  32.852  58.028
H  66.142  42.333  55.824
H  51.037  50.948  45.952
H  39.927  36.303  41.023
H  41.242  35.580  40.694
H  40.762  52.839  41.506
H  38.912  54.324  48.841
H  33.244  56.104  65.701
H  33.113  56.844  64.354
H  42.262  52.619  41.233
H  30.693  37.379  46.576
H  32.015  37.423  45.819
H  48.916  45.780  23.209
H  40.947  53.400  29.688
H  52.125  55.786  26.132
H  66.751  32.600  47.340
H  27.795  60.929  52.809
H  43.985  66.086  44.211
H  30.743  45.804  42.160
H  31.894  53.541  37.921
H  47.583  63.247  71.131
H  32.881  54.647  38.287
H  51.973  49.511  44.144
H  66.045  43.782  56.417
H  66.199  40.218  53.294
H  50.634  27.249  31.761
H  44.472  51.078  44.384
H  65.438  44.415  50.344
H  78.223  48.462  46.559
H  47.979  41.957  39.000
H  48.087  57.313  26.841
H  54.743  61.629  65.417
H  37.419  41.112  43.147
H  57.243  51.716  61.256
H  58.347  51.561  62.296
H  54.936  48.695  53.435
H  44.565  64.363  41.354
H  51.844  74.801  52.120
H  64.012  37.613  44.355
H  43.424  64.997  40.533
H  32.140  37.820  64.436
H  31.792  38.229  63.038
H  54.926  36.375  61.960
H  24.585  42.542  54.577
H  24.779  43.703  55.598
H  50.444  74.596  51.561
H  52.400  54.405  49.118
H  58.340  51.434  69.140
H  56.923  52.006  68.963
H  47.861  64.640  46.027
H  56.029  37.435  61.778
H  37.153  26.004  52.230
H  65.275  37.537  45.191
H  25.744  48.630  54.505
H  72.435  52.469  39.404
H  48.859  42.547  37.868
H  39.569  69.081  54.880
H  28.017  42.930  33.749
H  48.571  72.512  52.658
H  28.100  43.657  32.394
H  60.545  64.580  41.918
H  47.908  41.425  72.346
H  47.190  42.687  72.772
H  59.266  63.786  42.218
H  66.946  37.209  48.797
H  55.134  51.659  60.834
H  33.758  58.753  50.172
H  52.003  56.859  49.110
H  70.770  62.008  59.443
H  70.936  60.956  58.325
H  65.428  66.733  50.997
H  72.890  34.398  53.280
H  72.619  33.873  51.857
H  65.950  65.848  52.136
H  40.599  50.271  36.103
H  41.951  50.051  35.326
H  55.305  53.195  60.666
H  50.483  52.801  48.897
H  38.244  24.880  52.197
H  53.301  62.087  65.350
H  54.259  36.882  71.862
H  34.916  66.286  59.529
H  35.367  62.854  67.135
H  58.581  43.098  65.103
H  34.092  61.996  67.166
H  57.997  58.034  49.520
H  59.392  57.688  50.088
H  59.694  57.519  24.000
H  48.560  47.005  52.152
H  66.362  55.144  50.071
H  55.214  36.586  70.713
H  66.915  53.753  50.167
H  37.994  43.098  61.952
H  36.635  43.615  62.448
H  66.000  51.669  71.183
H  44.009  32.105  41.375
H  44.718  32.744  42.570
H  71.741  42.679  47.756
H  71.842  43.747  48.871
H  35.119  63.078  31.049
H  33.684  63.394  30.604
H  48.224  39.285  56.983
H  65.671  50.338  71.942
H  48.015  65.757  47.052
H  59.975  65.209  34.794
H  51.794  74.848  62.149
H  46.967  67.942  52.463
H  38.482  41.853  42.273
H  47.328  57.259  28.200
H  45.837  68.847  51.910
H  44.473  75.807  52.632
H  61.008  64.268  72.694
H  54.021  40.180  60.660
H  60.110  65.443  72.229
H  45.906  75.885  53.116
H  36.875  49.614  71.652
H  51.633  73.305  62.380
H  37.249  48.111  71.475
H  70.402  33.545  58.479
H  70.365  33.045  59.934
H  32.038  58.965  54.414
H  36.721  71.536  50.575
H  43.023  39.420  44.845
H  42.782  39.400  46.379
H  31.129  60.238  54.491
H  42.508  36.940  63.490
H  42.484  38.335  64.097
H  61.140  66.149  34.384
H  47.151  52.829  56.982
H  52.647  70.048  64.607
H  52.082  71.317  64.043
H  72.091  51.018  39.046
H  51.582  69.742  46.233
H  47.708  55.999  47.282
H  46.469  56.143  46.394
H  52.492  69.600  45.041
H  26.681  49.254  41.484
H  26.780  50.602  42.295
H  46.477  32.275  39.787
H  33.746  38.892  29.140
H  58.613  27.089  53.155
H  59.578  49.399  68.227
H  52.694  48.151  59.261
H  64.378  29.318  36.681
H  32.977  43.686  41.244
H  34.505  43.716  41.069
H  70.510  59.191  41.255
H  70.634  60.703  41.643
H  38.866  43.428  54.829
H  56.948  48.448  62.879
H  56.789  49.983  62.762
H  37.465  43.111  55.369
H  67.967  37.303  63.235
H  48.159  51.336  46.612
H  64.663  29.717  38.125
H  67.470  36.017  63.911
H  30.869  34.360  50.256
H  53.774  47.969  58.161
H  66.776  44.550  51.155
H  45.308  35.742  64.750
H  34.464  64.022  33.845
H  27.900  61.001  35.846
H  26.673  60.720  36.773
H  45.086  35.880  66.278
H  47.749  31.596  39.226
H  44.430  51.312  46.126
H  58.508  60.221  42.438
H  59.309  61.221  41.601
H  31.936  33.361  49.781
H  36.008  28.264  39.383
H  55.935  60.944  44.469
H  37.470  67.441  63.539
H  37.332  66.007  64.131
H  55.181  61.183  43.190
H  69.721  37.179  52.296
H  35.527  71.965  49.726
H  70.886  37.558  53.224
H  47.566  53.082  44.883
H  38.720  46.971  26.208
H  39.271  48.386  26.365
H  64.538  47.340  26.970
H  42.181  44.770  33.277
H  50.044  43.668  33.985
H  49.567  44.994  33.331
H  46.960  50.690  44.536
H  46.300  61.456  56.528
H  46.909  60.090  56.819
H  63.295  46.458  27.154
H  37.712  56.095  57.215
H  36.263  55.647  57.186
H  77.390  47.248  47.017
H  25.242  49.991  54.963
H  41.112  69.122  54.674
H  53.331  55.179  56.233
H  50.723  53.874  38.811
H  57.489  27.793  37.814
H  52.418  60.344  41.197
H  41.300  50.004  74.951
H  42.365  51.057  75.352
H  53.469  59.213  40.971
H  54.247  36.104  40.307
H  45.539  58.386  70.631
H  44.090  57.984  70.895
H  54.859  37.476  39.984
H  35.433  42.115  71.809
H  36.532  42.634  70.859
H  58.647  28.758  37.705
H  60.989  46.942  50.918
H  61.445  45.602  51.575
H  45.034  57.390  44.980
H  31.298  52.801  40.442
H  45.426  48.499  67.592
H  43.992  49.050  67.588
H  31.299  53.071  41.950
H  34.837  65.018  58.685
H  66.700  46.484  67.138
H  60.194  49.839  66.899
H  58.709  26.869  51.606
H  65.420  45.716  66.645
H  35.607  64.863  33.150
H  53.827  38.796  58.905
H  43.934  73.572  60.488
H  42.816  74.449  61.043
H  53.489  37.836  60.070
H  64.357  38.700  51.827
H  64.111  40.198  52.116
H  44.873  49.740  45.464
H  50.575  54.890  28.627
H  51.459  53.786  37.477
H  50.086  53.448  28.548
H  45.997  58.393  45.652
H  36.502  58.161  44.430
H  36.273  56.635  44.697
H  31.378  59.669  67.624
H  45.158  56.441  65.086
H  38.417  35.660  45.396
H  37.135  34.899  45.927
H  58.734  39.800  31.107
H  60.164  39.425  31.599
H  43.932  62.402  25.413
H  31.946  27.453  46.923
H  33.276  27.005  46.305
H  27.867  48.756  57.225
H  27.352  47.586  56.398
H  26.770  52.704  42.158
H  67.111  31.051  58.309
H  26.308  52.125  40.813
H  42.827  62.492  26.501
H  59.555  50.638  39.611
H  58.233  73.893  46.425
H  68.255  32.060  60.362
H  68.142  30.695  61.057
H  47.072  53.452  24.917
H  34.542  44.019  59.042
H  33.016  44.277  59.067
H  46.526  52.347  24.006
H  65.935  31.388  57.402
H  55.000  64.007  52.823
H  55.638  63.408  51.539
H  56.965  74.124  45.591
H  48.840  59.698  37.204
H  64.613  39.256  64.358
H  55.620  43.149  54.836
H  51.037  40.184  63.693
H  59.620  39.200  59.949
H  61.853  62.701  33.332
H  60.630  63.629  33.383
H  58.128  39.083  59.983
H  32.433  61.325  56.008
H  65.125  52.212  27.338
H  56.531  52.282  63.301
H  55.046  52.299  63.053
H  60.304  32.604  56.403
H  65.631  38.092  64.611
H  22.422  55.562  52.556
H  60.268  33.924  55.576
H  56.746  27.311  63.082
H  57.405  28.662  62.743
H  39.852  46.955  53.979
H  39.733  48.454  54.397
H  47.403  60.123  37.171
H  57.615  43.446  50.455
H  64.231  52.799  28.464
H  44.842  43.126  55.252
H  58.693  49.408  39.871
H  23.849  55.708  53.124
H  49.844  41.108  64.070
H  37.558  66.448  32.662
H  30.588  65.393  58.331
H  33.870  38.278  33.819
H  47.782  42.019  41.150
H  46.878  40.975  40.475
H  45.266  52.488  69.440
H  64.283  61.795  31.044
H  62.827  62.281  31.296
H  45.867  51.076  69.307
H  42.692  58.044  24.505
H  41.764  56.823  24.220
H  63.743  39.860  62.264
H  59.420  42.220  39.526
H  64.891  40.770  62.620
H  41.486  43.706  61.624
H  41.601  43.199  60.196
H  55.165  38.616  41.710
H  66.412  33.696  58.025
H  66.370  35.234  58.196
H  55.606  25.161  50.419
H  56.353  26.308  49.716
H  32.690  28.248  43.356
H  36.450  68.777  39.539
H  35.480  67.607  39.872
H  56.641  38.974  41.822
H  40.895  69.445  45.756
H  60.466  41.231  39.064
H  51.791  32.111  41.649
H  29.257  65.089  59.063
H  40.550  68.205  46.643
H  35.365  38.226  30.834
H  35.563  36.753  31.016
H  47.073  32.780  28.686
H  47.237  34.196  29.283
H  38.270  65.339  31.895
H  48.125  40.233  70.627
H  49.238  41.141  69.960
H  46.288  73.396  34.928
H  52.686  33.148  40.930
H  34.292  38.685  35.230
H  33.687  41.881  42.019
H  32.187  42.015  42.273
H  37.348  46.783  47.297
H  54.509  47.240  23.548
H  53.749  47.962  22.376
H  36.874  47.865  48.320
H  38.404  59.873  63.090
H  39.020  58.504  62.763
H  49.886  57.725  22.614
H  48.603  58.381  22.034
H  46.023  74.843  35.449
H  29.434  69.717  51.110
H  29.887  70.991  51.861
H  56.575  42.296  50.668
H  59.932  30.287  62.953
H  33.725  61.577  53.153
H  38.970  50.673  65.277
H  57.625  44.381  41.704
H  56.574  43.696  42.636
H  33.596  60.383  52.180
H  37.824  44.079  74.909
H  38.061  45.597  75.096
H  65.426  68.224  46.112
H  64.949  69.524  46.849
H  34.884  69.037  35.877
H  53.370  54.920  42.327
H  23.998  54.531  58.952
H  54.310  55.152  43.513
H  32.638  40.256  68.757
H  66.789  51.570  56.905
H  67.771  52.439  57.710
H  29.454  56.211  44.829
H  69.366  67.556  61.335
H  66.674  58.340  45.516
H  66.739  54.161  44.757
H  67.414  55.459  45.360
H  24.634  54.642  60.386
H  66.753  57.548  46.815
H  34.270  69.353  37.275
H  55.983  53.830  73.456
H  36.660  47.503  25.577
H  44.760  39.829  43.667
H  50.074  27.569  54.586
H  48.576  27.385  54.817
H  31.629  49.961  60.785
H  59.859  73.994  56.553
H  58.985  72.808  57.069
H  31.623  51.502  60.876
H  64.796  53.225  63.685
H  63.753  54.332  63.903
H  37.947  55.859  61.169
H  51.423  49.600  67.362
H  35.158  47.439  26.074
H  39.772  49.712  66.188
H  55.855  60.254  76.188
H  60.427  28.901  63.413
H  26.326  45.864  63.284
H  27.161  47.062  62.906
H  66.555  51.945  60.195
H  67.794  52.877  60.134
H  37.797  56.412  62.599
H  54.776  54.774  73.693
H  50.317  50.569  66.869
H  45.409  26.420  50.954
H  44.636  26.558  49.665
H  74.712  53.835  53.355
H  35.284  64.277  35.965
H  47.459  34.016  39.221
H  48.741  33.219  39.494
H  36.391  34.422  41.868
H  37.369  34.968  40.806
H  52.642  65.308  53.470
H  27.274  37.934  47.628
H  26.216  39.060  47.750
H  52.564  63.806  53.752
H  43.615  50.920  59.428
H  51.861  72.826  44.978
H  42.463  51.796  59.901
H  61.047  60.254  48.372
H  45.863  62.787  61.350
H  54.898  70.781  64.783
H  56.366  70.726  65.282
H  46.309  43.224  55.774
H  55.620  58.718  76.093
H  54.569  42.209  54.130
H  32.240  62.830  56.292
H  41.058  51.322  73.088
H  41.219  51.374  71.514
H  62.199  60.569  49.288
H  52.354  74.238  45.373
H  34.578  64.646  37.261
H  63.267  45.653  67.548
H  75.881  53.939  52.363
H  49.030  42.882  27.866
H  28.835  55.221  45.838
H  48.743  44.172  28.686
H  33.377  39.290  69.696
H  43.735  61.233  52.656
H  42.763  61.774  51.614
H  25.643  43.269  46.830
H  26.992  42.601  46.499
H  36.523  51.422  52.017
H  68.803  68.516  56.381
H  69.673  69.195  55.315
H  37.939  50.455  52.147
H  61.718  38.291  42.539
H  61.266  36.871  42.691
H  33.051  68.554  42.571
H  68.217  67.056  60.418
H  55.656  35.349  30.675
H  54.840  34.153  30.131
H  46.724  61.939  62.292
H  53.355  54.401  68.721
H  54.898  54.374  68.294
H  64.118  44.453  68.030
H  33.770  27.394  42.625
H  41.712  27.404  60.966
H  69.661  37.989  61.266
H  53.610  40.635  62.075
H  61.515  58.168  47.273
H  32.728  48.337  27.154
H  33.954  49.244  27.205
H  60.027  58.177  46.934
H  37.940  35.599  29.583
H  39.235  36.311  29.947
H  44.072  66.938  58.870
H  40.305  51.492  24.241
H  35.039  59.440  60.154
H  33.576  59.498  59.687
H  36.047  30.194  37.313
H  53.018  46.624  33.995
H  62.849  55.434  66.061
H  53.473  46.319  35.449
H  61.839  69.364  64.858
H  61.927  70.650  63.991
H  45.873  53.368  50.564
H  39.339  63.977  71.876
H  48.604  36.930  36.414
H  53.377  39.699  55.985
H  65.912  56.041  65.707
H  41.249  69.671  66.195
H  61.509  54.851  66.582
H  27.984  35.517  61.568
H  41.713  51.623  23.543
H  46.769  51.879  50.240
H  32.669  32.331  55.376
H  67.421  43.736  48.486
H  33.074  31.492  54.116
H  45.434  52.869  53.663
H  73.077  45.697  32.770
H  71.888  45.997  33.713
H  53.694  24.560  48.519
H  51.437  68.170  63.025
H  52.806  68.820  62.933
H  52.801  24.879  49.712
H  34.660  30.554  37.868
H  49.263  50.820  31.779
H  55.389  43.507  64.632
H  48.993  52.274  31.304
H  52.208  30.321  36.898
H  51.437  28.968  37.104
H  48.308  35.467  36.777
H  40.392  62.997  72.504
H  41.620  45.050  71.198
H  56.375  35.825  48.331
H  46.921  53.662  54.171
H  68.146  43.837  47.096
H  56.326  44.648  65.031
H  40.853  45.973  72.144
H  28.240  36.936  62.170
H  22.927  54.135  50.323
H  53.023  58.375  36.871
H  61.559  34.755  60.615
H  30.997  34.488  56.617
H  73.036  37.740  49.413
H  72.478  36.466  49.980
H  51.997  57.250  36.811
H  40.874  60.469  49.347
H  42.259  60.558  50.044
H  45.874  67.937  30.572
H  45.914  54.377  52.906
H  60.473  35.732  61.147
H  61.401  29.724  65.730
H  46.317  67.800  32.059
H  64.558  60.104  29.484
H  66.023  60.362  29.035
H  48.859  30.110  66.154
H  48.287  31.538  65.870
H  38.897  49.311  62.044
H  52.711  52.816  45.854
H  68.747  36.223  47.002
H  30.134  65.853  56.111
H  45.651  54.970  65.179
H  60.168  28.811  65.921
H  40.687  70.912  66.894
H  31.807  33.500  57.511
H  60.981  35.565  38.049
H  21.429  53.958  50.591
H  47.958  53.238  51.964
H  64.770  65.076  37.223
H  38.482  48.467  38.012
H  65.195  65.280  38.659
H  43.345  52.050  71.918
H  35.517  61.250  41.381
H  35.482  61.022  39.887
H  44.823  52.212  72.243
H  60.137  53.690  33.477
H  60.412  34.166  38.478
H  59.002  53.371  34.407
H  63.013  53.917  44.345
H  44.138  24.099  55.951
H  44.923  25.333  56.366
H  40.914  51.411  65.863
H  48.372  70.811  54.684
H  67.412  55.916  65.972
H  64.594  59.282  55.660
H  49.112  70.356  53.409
H  64.898  60.554  54.868
H  58.853  33.045  62.928
H  39.830  49.156  37.768
H  56.501  40.469  58.109
H  56.596  39.401  57.017
H  57.910  36.013  48.433
H  65.232  32.260  63.956
H  43.133  62.986  56.904
H  45.325  51.838  51.241
H  50.134  67.931  30.769
H  64.053  69.750  64.547
H  65.203  68.932  65.248
H  61.231  45.281  27.688
H  53.617  24.381  56.877
H  53.836  23.559  58.161
H  60.222  44.676  26.717
H  36.799  50.341  45.870
H  56.035  34.628  27.191
H  56.846  35.078  25.945
H  46.036  52.962  44.009
H  58.117  31.504  30.729
H  59.201  30.397  30.720
H  58.063  23.352  53.252
H  44.566  47.552  26.398
H  45.392  46.289  26.030
H  57.111  24.487  52.891
H  36.551  48.840  46.048
H  66.125  33.446  63.475
H  50.694  69.273  30.305
H  61.953  54.122  55.953
H  29.698  50.615  62.409
H  48.343  47.076  43.997
H  60.364  60.622  32.502
H  58.878  60.204  47.782
H  58.928  42.972  57.328
H  57.958  41.836  57.753
H  46.757  46.957  46.454
H  57.323  60.276  47.828
H  43.841  57.011  56.906
H  42.446  56.700  56.376
H  23.842  48.936  52.704
H  61.996  48.124  73.353
H  30.057  50.664  63.865
H  61.021  47.577  74.424
H  63.961  46.830  59.368
H  62.528  52.547  43.839
H  61.651  45.881  75.774
H  60.775  61.596  31.406
H  36.052  54.836  38.140
H  34.844  54.429  38.950
H  24.047  50.357  52.108
H  41.682  35.126  66.536
H  42.399  36.380  66.055
H  32.820  44.948  45.606
H  62.960  45.521  75.045
H  60.500  54.366  55.507
H  31.638  45.076  46.604
H  64.770  50.227  47.682
H  57.453  31.470  54.576
H  58.753  32.197  55.042
H  62.504  69.980  61.942
H  39.189  36.259  38.519
H  56.877  52.360  43.187
H  58.187  51.657  43.625
H  38.010  37.136  37.950
H  71.263  36.427  56.154
H  70.164  37.402  56.610
H  46.046  53.363  45.723
H  61.687  70.951  61.103
H  24.653  52.070  47.741
H  24.838  53.012  48.903
H  32.606  48.100  67.076
H  42.922  40.033  66.804
H  43.936  41.094  67.273
H  31.175  47.904  67.567
H  67.332  32.708  51.090
H  66.205  32.681  50.059
H  43.736  64.314  56.344
H  41.372  52.308  67.019
H  54.594  40.172  56.874
H  53.085  28.485  66.304
H  47.572  58.880  55.209
H  54.527  27.971  66.486
H  47.271  57.446  54.644
H  37.306  49.443  67.369
H  35.737  55.629  50.030
H  36.568  56.886  49.813
H  38.295  48.305  67.612
H  69.869  67.952  50.197
H  69.228  69.320  49.990
H  65.861  60.474  45.910
H  31.221  45.103  66.628
H  69.799  53.194  31.517
H  69.581  52.011  30.536
H  71.953  40.213  64.449
H  40.766  52.385  38.621
H  40.833  50.974  39.232
H  70.688  40.405  63.608
H  62.839  34.746  67.270
H  32.643  45.563  66.883
H  62.460  34.972  68.773
H  52.074  49.687  53.116
H  65.804  36.953  53.380
H  67.232  36.459  53.216
H  37.791  50.348  61.745
H  63.270  50.205  48.032
H  52.421  47.983  53.056
H  53.514  48.649  64.140
H  41.920  27.724  59.465
H  58.794  44.630  65.167
H  33.690  54.095  30.860
H  67.161  64.021  64.379
H  70.764  56.970  67.338
H  64.197  63.357  33.460
H  58.322  61.680  67.657
H  38.883  25.463  42.701
H  56.537  29.269  57.226
H  38.737  25.760  41.190
H  57.622  30.358  57.417
H  48.779  75.349  54.268
H  43.093  60.407  56.803
H  44.628  32.355  28.381
H  41.943  61.081  56.034
H  41.615  43.431  64.472
H  40.398  44.362  64.828
H  53.860  44.853  77.509
H  38.003  36.320  42.861
H  51.941  64.924  58.221
H  53.431  64.643  58.575
H  73.235  54.900  37.864
H  32.692  42.260  64.350
H  31.991  43.163  63.331
H  72.545  56.262  37.560
H  50.142  75.541  53.574
H  67.254  32.853  41.172
H  32.002  51.838  30.527
H  35.949  51.951  25.587
H  36.845  36.299  32.487
H  57.824  46.106  25.154
H  63.063  63.983  32.605
H  43.160  32.816  28.532
H  69.788  56.480  68.413
H  27.834  39.777  60.450
H  28.037  39.515  58.918
H  68.361  63.336  64.971
H  44.868  38.096  69.043
H  54.433  46.059  76.677
H  34.693  51.058  25.521
H  45.551  39.487  68.684
H  48.560  74.580  35.952
H  49.771  74.868  35.040
H  32.603  38.346  54.761
H  69.751  67.946  58.582
H  71.282  68.203  58.616
H  32.314  37.086  53.903
H  38.505  72.982  40.389
H  35.452  59.027  36.852
H  35.283  60.206  35.880
H  59.522  61.875  66.722
H  38.700  74.377  40.970
H  38.257  35.852  32.944
H  67.732  33.331  42.553
H  57.404  74.779  48.910
H  40.962  40.249  75.922
H  54.373  72.247  49.799
H  33.068  64.396  59.746
H  31.863  63.464  60.022
H  49.809  68.736  45.002
H  68.577  41.591  56.982
H  68.224  40.496  55.869
H  56.577  65.610  29.973
H  56.804  64.234  30.674
H  49.828  34.289  44.476
H  42.451  53.031  56.563
H  51.351  34.461  44.351
H  38.692  30.741  52.889
H  40.245  30.648  52.858
H  41.562  27.276  64.003
H  63.947  57.890  61.594
H  51.473  45.185  46.575
H  64.592  56.932  62.638
H  36.438  64.946  46.998
H  74.894  49.630  54.743
H  74.024  48.731  53.833
H  41.388  52.100  55.937
H  40.494  27.951  64.867
H  39.496  36.684  43.035
H  33.281  36.641  31.923
H  38.683  62.200  62.371
H  65.449  33.094  33.146
H  66.771  33.771  33.573
H  44.969  43.681  26.412
H  32.515  38.006  31.569
H  37.616  65.906  47.036
H  43.326  40.269  37.420
H  42.209  41.344  37.321
H  54.634  30.872  64.568
H  36.882  62.304  53.785
H  37.765  63.536  54.090
H  37.356  62.386  61.598
H  48.106  43.098  45.520
H  63.811  32.132  39.446
H  63.812  31.004  40.489
H  41.897  30.537  35.350
H  42.463  30.119  46.734
H  43.826  30.039  47.458
H  53.612  52.140  70.331
H  75.305  50.036  51.915
H  40.608  30.545  34.614
H  76.077  50.925  50.890
H  54.970  52.699  70.756
H  53.600  30.331  63.532
H  40.918  53.036  48.712
H  52.326  50.524  74.232
H  53.894  67.787  40.065
H  57.993  36.296  41.646
H  62.627  61.246  36.821
H  63.948  61.199  37.644
H  32.240  42.760  56.973
H  58.504  37.546  40.893
H  24.272  57.898  57.036
H  56.262  36.139  68.935
H  45.066  67.522  49.885
H  41.435  49.622  41.503
H  53.191  68.861  47.374
H  59.978  53.727  45.526
H  45.522  72.175  36.700
H  40.112  53.389  36.183
H  38.797  63.216  36.676
H  75.884  61.421  52.166
H  74.965  62.413  52.916
H  39.620  64.472  36.794
H  52.891  56.122  66.155
H  48.447  55.818  69.037
H  53.236  54.665  66.433
H  31.001  43.465  56.430
H  47.157  71.235  34.461
H  40.507  54.589  35.331
H  47.116  71.458  32.922
H  58.526  54.236  45.486
H  58.515  27.399  59.543
H  41.944  47.128  30.713
H  40.942  46.650  31.746
H  54.317  34.173  34.611
H  44.181  34.577  36.591
H  42.989  34.485  37.619
H  44.599  70.960  36.968
H  54.949  67.988  63.448
H  45.190  66.487  51.004
H  30.885  51.069  31.259
H  56.761  34.763  68.602
H  73.961  48.058  37.219
H  44.524  28.342  35.017
H  63.444  48.029  66.623
H  24.443  56.829  58.135
H  23.292  59.310  54.940
H  23.271  57.784  54.670
H  64.835  48.642  66.492
H  75.318  53.775  47.012
H  74.174  52.782  46.633
H  73.125  47.152  36.289
H  58.886  26.300  58.547
H  42.806  50.238  41.148
H  44.252  29.753  35.522
H  66.536  42.378  58.810
H  63.278  70.060  52.060
H  63.848  70.020  50.644
H  70.028  40.865  47.487
H  57.466  47.626  25.243
H  75.209  39.221  41.389
H  57.893  30.291  50.995
H  70.781  41.112  46.171
H  51.565  49.480  73.389
H  66.410  31.256  53.051
H  36.871  44.363  72.160
H  60.797  56.768  30.080
H  59.936  55.704  29.415
H  54.196  41.255  65.114
H  41.981  63.235  34.745
H  68.378  34.066  62.534
H  41.363  62.951  33.387
H  38.130  43.785  71.482
H  48.765  38.816  34.543
H  47.528  39.321  33.742
H  69.170  49.593  62.653
H  31.401  44.549  49.919
H  31.145  45.376  51.227
H  40.609  53.779  47.431
H  54.539  69.070  40.627
H  68.653  32.586  62.729
H  61.862  69.392  55.927
H  62.697  69.384  54.646
H  69.799  71.263  55.070
H  66.000  41.105  58.123
H  49.600  55.636  70.014
H  71.401  46.875  60.492
H  69.908  47.222  60.635
H  51.364  40.054  59.872
H  33.314  63.187  36.144
H  52.738  74.562  38.533
H  56.594  30.668  50.260
H  50.370  62.681  29.431
H  53.608  42.265  66.118
H  49.828  61.611  28.479
H  74.242  38.031  41.515
H  37.661  51.825  49.834
H  38.012  50.331  50.062
H  68.306  71.751  55.054
H  29.484  42.298  68.897
H  29.195  43.495  67.975
H  60.194  45.049  23.611
H  68.422  31.992  39.257
H  68.868  33.472  38.957
H  61.023  45.325  24.886
H  30.762  59.611  33.770
H  30.513  60.856  34.619
H  53.205  72.004  50.690
H  40.399  55.706  70.444
H  46.979  41.603  47.106
H  44.851  38.577  51.679
H  75.357  51.055  37.396
H  67.853  47.760  60.686
H  67.045  47.840  61.985
H  50.576  27.345  56.734
H  70.342  55.794  48.440
H  73.967  51.567  37.848
H  70.041  54.669  49.397
H  50.645  28.278  57.969
H  42.783  47.426  77.564
H  44.307  47.109  77.682
H  59.037  30.415  59.338
H  53.713  45.571  44.982
H  31.176  63.965  38.106
H  32.985  70.152  52.673
H  47.899  65.187  39.072
H  56.639  61.511  36.389
H  57.017  43.548  24.914
H  57.322  48.111  42.072
H  56.996  38.065  70.496
H  73.593  54.589  42.817
H  69.535  31.190  57.443
H  35.418  58.940  29.675
H  32.568  64.605  38.008
H  36.191  60.135  30.283
H  59.098  31.869  58.856
H  50.578  47.459  43.293
H  55.253  23.228  60.151
H  30.455  47.531  44.107
H  31.155  46.272  44.605
H  54.784  24.696  60.366
H  57.551  57.202  28.520
H  57.285  58.606  29.125
H  52.375  45.349  42.537
H  34.377  55.373  41.276
H  57.565  72.353  52.963
H  32.924  54.854  41.190
H  53.115  42.767  61.618
H  41.165  32.251  51.593
H  38.186  56.384  34.103
H  42.191  31.266  51.016
H  59.676  45.270  39.324
H  58.326  44.542  39.221
H  58.910  72.207  53.686
H  51.279  31.619  64.399
H  32.251  70.598  53.939
H  53.932  52.071  67.746
H  58.168  61.347  36.296
H  53.685  50.937  66.696
H  38.645  55.829  35.463
H  47.073  64.192  72.222
H  36.296  42.580  30.841
H  37.623  43.030  30.239
H  51.548  75.406  48.302
H  31.846  53.562  61.174
H  32.787  67.011  38.440
H  33.860  66.894  37.412
H  43.112  41.303  34.202
H  56.920  73.263  50.462
H  32.869  37.015  50.414
H  32.196  36.433  51.671
H  42.851  39.921  33.513
H  45.346  37.610  38.508
H  51.096  74.065  47.587
H  46.817  37.721  38.962
H  53.697  46.302  30.014
H  52.425  45.576  30.581
H  64.048  35.054  62.853
H  43.453  52.326  77.716
H  61.252  61.949  72.357
H  23.389  44.322  46.937
H  44.062  42.334  64.774
H  41.525  61.445  42.919
H  61.859  48.597  30.786
H  62.846  49.166  29.704
H  55.963  72.233  51.039
H  67.581  56.530  63.517
H  47.929  20.621  49.534
H  59.804  61.680  72.738
H  67.596  55.038  63.235
H  58.879  65.604  50.860
H  57.543  55.467  26.258
H  58.255  54.394  27.138
H  59.837  66.799  50.670
H  47.542  65.290  68.551
H  48.088  66.608  67.982
H  23.786  52.664  54.234
H  62.937  29.895  50.193
H  39.226  58.436  60.647
H  51.532  55.584  21.404
H  40.293  59.154  59.803
H  67.971  54.013  67.245
H  69.107  53.910  68.288
H  64.590  30.809  62.547
H  72.993  54.714  44.253
H  69.674  30.712  58.904
H  62.742  34.384  62.377
H  33.980  72.081  54.568
H  26.445  44.522  64.918
H  48.681  21.638  50.438
H  52.035  55.460  22.853
H  64.492  29.644  63.567
H  42.082  49.015  25.792
H  42.083  50.463  25.287
H  49.367  65.038  39.442
H  32.030  50.431  56.535
H  44.955  57.714  58.695
H  44.086  58.951  58.504
H  30.001  63.341  63.650
H  29.165  61.074  41.801
H  29.607  62.401  42.371
H  32.129  49.267  57.551
H  56.746  29.066  65.763
H  55.475  28.871  64.909
H  44.722  42.145  47.905
H  43.420  38.865  57.163
H  29.346  58.026  52.891
H  58.444  56.706  31.218
H  30.586  57.204  53.331
H  60.149  61.263  50.744
H  60.685  62.681  50.855
H  44.214  42.639  27.215
H  28.975  64.089  37.805
H  50.254  67.085  54.746
H  29.249  65.492  38.388
H  46.549  67.774  39.390
H  49.597  70.224  44.553
H  56.956  57.053  31.095
H  43.866  38.370  50.489
H  31.052  62.238  64.026
H  31.017  64.368  40.329
H  45.660  66.543  39.470
H  30.998  63.184  41.271
H  49.531  68.425  54.929
H  43.597  44.178  47.121
H  58.047  55.509  72.947
H  59.456  56.164  73.025
H  44.530  43.295  33.441
H  43.700  31.977  35.344
H  42.703  33.087  35.686
H  44.525  43.499  31.857
H  42.703  38.384  55.879
H  42.043  54.877  36.464
H  70.743  40.718  43.593
H  69.704  40.475  44.693
H  42.052  57.815  66.519
H  42.143  56.346  66.075
H  38.742  55.898  44.391
H  48.435  64.361  43.277
H  48.603  63.430  44.450
H  38.937  57.425  44.406
H  57.551  43.307  23.507
H  44.741  45.676  45.544
H  42.535  56.321  36.410
H  40.532  31.889  63.825
H  39.907  55.325  24.796
H  63.724  40.229  67.552
H  65.302  49.362  28.962
H  53.859  48.778  54.814
H  53.916  59.894  58.841
H  28.011  43.839  37.432
H  53.142  58.838  59.618
H  58.488  44.835  56.517
H  35.869  56.601  37.483
H  36.752  57.052  36.277
H  57.914  45.247  55.194
H  63.599  32.108  34.580
H  64.988  49.608  30.455
H  63.137  31.616  35.973
H  46.809  46.039  48.958
H  55.063  37.761  43.955
H  54.914  36.751  42.780
H  53.251  34.497  37.685
H  60.308  49.227  72.906
H  60.044  49.879  74.263
H  33.956  62.347  40.863
H  51.675  42.796  61.091
H  52.592  44.245  44.658
H  52.092  32.887  64.062
H  27.341  44.976  36.621
H  43.099  54.236  64.926
H  59.111  48.370  47.076
H  53.052  33.540  38.860
H  52.673  47.912  37.640
H  53.760  46.817  37.776
H  59.092  34.680  29.756
H  58.696  57.378  63.363
H  59.084  55.884  63.005
H  59.292  33.174  30.194
H  38.945  68.475  61.340
H  50.097  45.773  43.042
H  37.515  67.919  61.396
H  39.588  52.912  29.226
H  66.063  29.848  60.831
H  66.581  28.495  61.372
H  51.838  26.641  62.560
H  40.479  40.129  71.529
H  40.881  41.378  72.296
H  52.924  26.886  63.648
H  67.618  39.954  50.986
H  62.975  42.689  28.846
H  62.136  41.401  28.815
H  66.698  38.794  51.395
H  63.706  38.704  67.452
H  38.793  54.538  24.107
H  33.378  62.703  42.257
H  40.050  40.077  74.676
H  50.848  59.400  44.967
H  54.801  34.339  36.079
H  48.672  43.237  23.939
H  46.620  70.548  53.200
H  46.298  68.896  56.164
H  47.761  69.036  56.625
H  54.141  30.595  31.873
H  52.772  26.980  39.369
H  53.560  27.614  38.174
H  54.284  51.134  53.022
H  55.623  31.026  31.879
H  73.460  62.913  59.419
H  72.353  63.867  59.949
H  48.597  62.074  31.892
H  64.638  52.215  50.080
H  60.168  48.969  28.794
H  56.408  41.438  26.306
H  41.749  49.392  28.502
H  64.372  53.583  50.736
H  42.573  48.152  28.949
H  50.738  23.189  43.959
H  66.754  59.054  49.020
H  48.765  43.880  49.647
H  69.417  55.048  57.523
H  73.187  48.743  63.070
H  58.919  49.564  29.521
H  71.651  48.708  63.246
H  49.657  63.209  31.814
H  67.318  59.728  47.748
H  43.821  62.842  46.907
H  46.641  51.521  47.455
H  45.462  35.577  39.871
H  60.033  49.734  60.824
H  58.686  49.116  61.183
H  51.255  46.973  69.457
H  45.284  45.726  67.007
H  46.518  44.856  67.327
H  55.691  28.949  37.672
H  71.922  55.102  33.295
H  41.669  43.338  33.058
H  51.704  47.919  70.582
H  54.736  29.449  36.575
H  38.560  34.969  63.481
H  37.774  35.686  64.600
H  46.153  49.116  47.170
H  30.224  53.523  52.515
H  30.383  52.202  53.275
H  60.483  25.740  55.617
H  39.657  53.410  72.723
H  55.053  42.105  26.496
H  49.227  23.537  44.178
H  71.681  56.264  32.262
H  43.401  62.173  48.248
H  65.117  35.196  48.719
H  49.900  29.547  35.806
H  69.930  62.416  62.899
H  45.241  75.644  49.892
H  45.923  76.986  50.380
H  31.008  49.345  43.590
H  62.148  32.887  42.295
H  58.786  47.192  48.010
H  47.239  42.999  65.036
H  31.441  48.924  42.181
H  49.468  53.610  62.239
H  50.869  53.801  61.620
H  53.253  56.348  78.253
H  48.353  42.564  65.997
H  41.377  48.321  47.934
H  25.752  54.803  40.782
H  30.583  31.614  49.428
H  70.514  63.795  62.887
H  47.905  44.725  76.373
H  52.244  56.123  71.992
H  51.992  54.863  72.863
H  43.722  69.337  56.483
H  61.658  52.886  25.792
H  42.023  60.599  59.797
H  40.336  49.436  47.835
H  49.315  30.878  36.337
H  53.905  57.387  77.315
H  48.797  45.778  77.175
H  66.373  34.408  49.213
H  53.284  43.382  49.178
H  53.172  43.323  50.717
H  32.247  61.526  48.505
H  31.487  61.042  47.269
H  45.867  64.616  44.519
H  46.423  65.764  43.645
H  37.109  60.341  42.431
H  34.961  50.188  39.373
H  36.357  50.026  40.033
H  43.301  69.387  57.963
H  38.506  60.303  43.050
H  55.760  50.567  57.622
H  59.996  61.893  39.107
H  46.443  71.579  52.074
H  68.027  55.791  57.547
H  67.532  40.826  53.847
H  38.895  54.027  50.355
H  42.881  52.720  64.826
H  63.468  33.364  41.747
H  39.630  42.417  36.598
H  40.385  41.585  35.542
H  60.734  63.135  39.680
H  45.341  34.204  40.608
H  58.846  59.844  34.811
H  39.051  43.441  31.622
H  28.235  63.766  54.890
H  76.811  41.222  54.427
H  27.156  41.234  39.988
H  27.001  62.873  54.913
H  61.561  63.487  66.720
H  62.881  62.685  66.774
H  46.759  48.996  51.976
H  54.111  58.351  38.763
H  54.608  59.791  38.778
H  69.532  41.500  52.858
H  43.805  35.994  59.448
H  48.213  53.784  22.434
H  55.846  41.796  65.960
H  69.748  40.079  53.463
H  28.937  42.685  45.352
H  29.543  41.305  45.735
H  49.444  54.634  21.966
H  63.118  38.445  41.197
H  64.173  38.636  40.066
H  53.389  59.788  25.974
H  63.935  62.954  43.836
H  29.159  45.341  59.123
H  57.004  42.626  66.541
H  26.364  39.986  39.571
H  51.438  49.953  50.698
H  33.424  53.062  29.740
H  69.373  67.436  53.951
H  59.441  56.210  24.784
H  28.024  64.950  43.467
H  27.840  66.467  43.179
H  45.959  56.916  32.454
H  68.069  64.400  46.568
H  47.786  29.239  36.895
H  46.917  28.364  35.990
H  47.470  57.216  32.366
H  40.567  58.352  64.516
H  49.041  38.411  57.928
H  39.356  59.200  64.986
H  49.695  38.095  52.554
H  49.156  36.890  51.746
H  52.863  46.894  43.221
H  29.534  47.348  38.363
H  43.744  56.585  25.794
H  45.279  56.248  25.758
H  29.418  45.889  37.979
H  53.615  61.775  70.003
H  54.752  62.751  70.237
H  60.367  32.709  62.749
H  69.377  64.740  45.837
H  44.248  58.518  28.703
H  68.240  66.626  54.615
H  43.990  57.273  27.819
H  42.123  28.586  42.818
H  38.816  65.740  54.085
H  35.440  62.084  62.880
H  36.011  60.827  63.596
H  34.927  39.761  28.682
H  34.321  35.661  39.038
H  38.701  50.181  40.215
H  37.943  48.905  40.631
H  33.802  36.945  39.762
H  39.516  66.107  62.807
H  43.345  29.354  42.268
H  38.467  65.456  61.889
H  37.880  39.572  65.804
H  39.592  54.904  73.040
H  38.642  40.767  65.222
H  71.319  60.235  35.918
H  59.834  49.905  35.841
H  58.865  51.107  36.007
H  70.238  59.964  36.959
H  69.178  65.250  52.820
H  37.652  66.388  53.316
H  60.225  27.220  55.283
H  48.860  49.582  48.302
H  38.773  44.599  32.582
H  68.075  66.079  52.090
H  60.064  59.517  35.725
H  59.755  28.478  48.704
H  41.679  74.996  47.862
H  40.773  73.754  47.882
H  49.167  49.607  68.686
H  58.676  33.904  48.085
H  57.336  34.086  47.273
H  47.986  48.669  69.030
H  59.182  28.635  50.104
H  44.639  33.453  61.979
H  45.003  32.627  60.730
H  44.510  65.624  58.191
H  41.634  41.563  30.720
H  42.244  41.750  32.093
H  65.310  30.839  35.361
H  50.303  60.552  67.796
H  49.597  59.237  68.072
H  49.206  48.715  50.330
H  66.637  31.409  34.943
H  45.214  42.638  41.676
H  46.224  43.104  42.725
H  75.932  42.142  55.323
H  47.747  44.686  43.698
H  44.513  34.928  60.275
H  73.033  44.161  46.480
H  49.849  44.178  24.202
H  73.003  45.524  45.717
H  47.310  58.114  58.303
H  59.390  55.888  42.956
H  34.695  44.530  43.705
H  33.772  43.411  44.238
H  68.362  56.351  30.807
H  59.745  39.428  38.262
H  68.257  56.273  32.367
H  59.358  38.011  37.707
H  29.403  37.903  63.884
H  35.435  34.156  36.916
H  70.268  69.197  52.437
H  55.371  37.407  65.843
H  45.120  44.806  64.427
H  44.531  44.325  65.758
H  62.543  29.745  46.304
H  64.898  58.597  47.386
H  63.939  57.518  47.829
H  47.774  29.541  45.644
H  60.986  52.834  65.513
H  60.029  52.078  66.464
H  50.662  48.371  76.205
H  47.832  29.654  44.113
H  49.710  35.765  25.307
H  29.164  69.254  48.644
H  48.241  36.262  25.462
H  55.243  36.086  66.588
H  63.148  53.287  25.717
H  60.873  41.771  35.348
H  34.627  42.541  48.793
H  65.365  47.029  45.165
H  35.661  62.028  37.589
H  36.867  61.115  37.937
H  65.518  47.022  46.732
H  52.724  62.853  60.814
H  52.997  61.338  60.856
H  68.941  37.994  32.951
H  41.905  51.162  50.488
H  59.741  54.394  43.009
H  38.434  70.837  54.454
H  35.319  32.815  37.662
H  62.661  47.095  68.939
H  48.391  61.431  64.726
H  49.528  62.407  64.385
H  61.519  46.895  67.915
H  52.384  41.444  31.928
H  51.292  41.075  32.966
H  69.126  69.924  53.106
H  27.110  62.309  43.517
H  26.782  62.341  42.013
H  28.900  68.246  49.837
H  33.545  42.934  49.820
H  49.407  48.365  77.095
H  63.357  43.336  51.108
H  52.605  54.376  35.429
H  32.814  69.553  62.215
H  52.683  67.746  48.303
H  60.005  62.061  58.760
H  59.123  60.976  59.435
H  73.621  64.940  57.015
H  53.743  67.167  62.976
H  28.381  45.703  52.021
H  47.313  59.717  72.009
H  72.278  65.694  57.078
H  51.571  55.495  35.180
H  46.209  60.312  71.136
H  34.258  62.081  35.640
H  64.384  48.157  62.340
H  64.944  47.044  61.386
H  31.752  66.336  61.009
H  31.645  43.897  43.788
H  30.611  42.770  43.752
H  30.840  67.184  60.112
H  59.270  49.767  63.015
H  60.360  50.686  63.555
H  39.096  55.083  69.901
H  52.202  41.067  58.993
H  62.366  43.617  52.280
H  42.083  42.951  67.297
H  50.150  64.389  73.354
H  70.534  38.061  49.622
H  60.314  38.397  28.443
H  67.918  37.135  33.730
H  60.257  36.895  28.728
H  69.746  38.441  50.868
H  24.146  44.803  58.045
H  23.047  44.741  56.961
H  40.696  51.280  49.559
H  47.785  40.465  29.364
H  31.775  39.262  40.045
H  48.668  64.713  73.675
H  66.480  32.741  53.468
H  36.742  30.838  46.886
H  38.219  31.058  47.186
H  29.495  45.131  52.842
H  71.714  59.090  56.700
H  71.348  58.437  58.055
H  43.453  53.344  29.496
H  28.914  38.467  35.181
H  44.856  53.993  29.379
H  28.668  37.229  36.059
H  40.935  42.014  66.871
H  31.537  68.752  62.018
H  59.425  42.332  35.430
H  30.732  56.438  33.341
H  32.239  56.014  33.194
H  52.557  74.732  58.284
H  53.712  73.739  58.521
H  39.329  54.131  40.354
H  64.167  54.694  57.196
H  63.968  55.024  55.671
H  39.266  54.899  41.678
H  44.241  47.660  40.480
H  45.499  48.526  40.274
H  50.201  46.143  58.517
H  25.809  50.094  50.077
H  51.421  45.384  59.094
H  28.041  55.681  47.823
H  32.287  38.636  38.773
H  48.664  40.847  30.565
H  53.839  36.982  50.009
H  68.434  58.111  68.471
H  42.194  31.585  48.278
H  70.527  61.664  33.712
H  70.390  49.584  61.684
H  37.121  54.363  41.580
H  36.199  55.010  40.491
H  49.693  30.193  59.637
H  26.836  55.713  46.863
H  30.742  53.304  34.200
H  52.698  75.649  39.630
H  43.606  53.636  68.258
H  46.716  59.355  59.005
H  38.782  33.649  55.175
H  62.844  64.505  51.277
H  63.481  65.581  52.201
H  62.168  33.157  37.596
H  41.257  61.081  58.582
H  40.415  33.334  36.572
H  39.238  32.633  37.227
H  46.681  53.900  76.488
H  27.093  46.643  41.603
H  44.194  53.525  66.845
H  25.696  47.160  41.319
H  72.198  61.087  38.186
H  61.663  31.759  37.991
H  71.704  62.238  39.085
H  29.355  30.754  49.082
H  26.133  55.822  39.692
H  40.830  31.333  48.955
H  71.395  60.393  33.854
H  32.797  70.881  49.720
H  31.685  69.856  50.023
H  54.312  38.438  50.116
H  46.203  52.936  77.605
H  38.600  29.759  40.319
H  39.661  30.882  40.684
H  48.994  29.580  58.418
H  72.670  64.702  50.457
H  27.718  49.701  34.424
H  57.276  41.062  53.754
H  63.909  29.078  46.429
H  56.673  40.402  55.013
H  59.980  67.783  70.631
H  40.878  26.833  36.518
H  39.645  27.802  36.326
H  37.199  70.366  55.239
H  34.068  33.573  44.414
H  73.628  63.522  50.682
H  33.480  32.858  45.655
H  76.460  53.772  54.578
H  59.031  66.795  69.933
H  77.611  53.630  55.627
H  59.626  62.303  60.817
H  59.458  62.282  62.323
H  23.695  54.926  47.786
H  49.463  77.758  55.644
H  51.743  54.852  75.755
H  53.205  55.042  76.210
H  49.997  78.063  54.228
H  32.783  40.945  38.733
H  27.981  51.162  34.788
H  61.687  49.469  54.484
H  62.013  48.112  53.781
H  29.832  40.871  59.255
H  30.588  42.157  58.814
H  31.410  53.711  32.859
H  50.514  41.694  25.771
H  51.035  42.769  26.748
H  26.514  51.440  50.311
H  48.658  51.335  26.293
H  36.033  45.011  33.542
H  35.903  43.955  34.655
H  49.670  52.409  25.810
H  29.050  52.322  32.003
H  28.741  50.818  31.899
H  69.072  58.764  67.192
H  44.658  42.499  30.062
H  44.074  43.420  29.032
H  28.202  37.218  64.575
H  64.209  35.539  33.502
H  33.492  42.245  39.219
H  62.640  35.465  33.617
H  54.701  32.357  33.558
H  55.462  33.171  32.485
H  25.244  48.939  64.833
H  24.926  50.280  64.177
H  39.160  32.142  55.055
H  44.803  34.844  53.545
