10074
Supercell generated
Cl  41.391  60.845  73.196
Cl  46.279  30.956  59.634
Cl  36.966  47.881  74.842
Cl  39.537  50.967  60.294
Cl  62.127  58.107  60.961
Cl  64.621  44.769  60.201
Cl  61.036  67.346  41.254
Cl  38.721  41.792  73.458
Cl  31.623  51.378  46.909
Na  46.644  37.315  61.972
Na  36.195  52.222  54.147
Na  41.251  68.364  69.467
Na  35.690  36.745  44.285
Na  47.803  57.023  35.206
Na  36.670  30.234  63.355
Na  36.192  44.607  51.316
O  50.088  42.536  73.494
O  53.834  63.013  30.358
O  67.468  52.233  69.892
O  76.194  54.099  48.619
O  55.652  50.272  32.921
O  57.617  39.056  64.888
O  42.590  57.562  60.380
O  29.121  51.298  37.790
O  70.259  48.036  40.946
O  73.376  50.542  35.447
O  48.987  29.220  51.728
O  45.213  65.724  36.901
O  46.139  64.064  57.340
O  54.467  67.863  34.651
O  60.520  49.435  32.530
O  47.609  66.606  35.255
O  44.942  48.838  27.472
O  51.186  69.427  39.091
O  54.964  63.314  35.443
O  25.545  46.787  56.776
O  25.588  38.788  54.312
O  33.934  56.474  33.999
O  57.756  55.029  41.253
O  45.653  68.627  33.928
O  52.561  70.981  34.815
O  57.182  38.099  52.092
O  57.805  52.088  37.504
O  48.116  51.953  75.013
O  51.998  50.541  30.594
O  45.633  46.379  38.139
O  65.383  72.746  49.704
O  61.532  55.062  74.679
O  36.406  66.973  45.226
O  58.350  55.673  65.725
O  39.195  53.435  44.694
O  45.704  65.349  44.081
O  60.793  46.083  34.976
O  70.326  37.267  65.742
O  45.414  53.852  32.977
O  51.232  65.393  40.697
O  54.671  57.867  33.367
O  36.144  62.760  59.785
O  43.124  31.953  32.357
O  42.170  37.805  71.339
O  66.903  59.475  35.013
O  70.591  45.772  65.782
O  58.493  65.026  38.931
O  69.698  38.274  38.139
O  40.293  57.561  27.241
O  36.285  37.328  36.586
O  36.180  54.460  54.125
O  66.519  57.066  56.644
O  42.263  23.905  50.226
O  63.696  31.948  47.726
O  55.268  58.406  65.885
O  35.856  42.723  52.406
O  33.100  43.642  31.226
O  64.829  54.387  60.773
O  66.049  45.647  56.617
O  41.984  41.956  63.601
O  33.666  58.170  63.291
O  42.097  57.206  45.924
O  27.496  64.176  56.635
O  27.280  51.816  43.874
O  28.939  52.224  46.408
O  31.797  45.271  53.676
O  46.113  73.594  61.771
O  45.178  51.581  25.179
O  49.608  30.888  46.865
O  35.889  67.820  66.812
O  70.805  54.168  45.918
O  49.305  57.670  61.006
O  53.754  49.428  71.907
O  75.112  57.622  51.871
O  54.356  69.075  67.654
O  54.816  68.485  50.615
O  54.612  39.332  26.817
O  27.651  44.329  57.340
O  61.531  35.229  44.413
O  46.788  75.376  48.029
O  72.930  43.266  51.747
O  74.728  54.831  41.182
O  65.774  42.961  65.189
O  47.226  58.316  48.334
O  67.962  64.190  36.745
O  43.358  47.874  71.919
O  61.994  70.702  57.946
O  52.797  37.949  52.591
O  37.841  75.756  49.630
O  59.325  36.071  51.636
O  37.014  52.382  56.211
O  72.273  45.597  63.472
O  33.695  40.613  34.855
O  49.765  69.762  48.289
O  28.085  57.958  45.391
O  26.730  56.775  59.950
O  74.377  59.069  58.207
O  37.606  68.562  37.179
O  71.625  48.957  38.531
O  53.920  44.045  36.827
O  51.198  61.972  70.987
O  43.727  36.889  35.104
O  33.922  38.728  37.176
O  56.635  55.928  46.878
O  73.670  45.934  40.464
O  66.517  58.178  59.569
O  46.150  45.739  62.396
O  48.120  49.958  29.922
O  66.323  71.467  55.589
O  39.833  61.955  66.153
O  22.757  48.118  40.986
O  59.924  41.256  24.321
O  61.385  63.017  69.541
O  69.861  37.497  40.887
O  63.822  45.618  52.750
O  28.152  67.240  55.918
O  68.858  58.910  65.072
O  51.307  48.696  22.032
O  35.261  53.033  58.767
O  32.797  31.266  52.334
O  40.436  65.167  33.992
O  58.728  70.779  34.923
O  51.421  64.982  71.213
O  57.230  67.264  30.091
O  49.514  40.260  67.264
O  31.542  40.280  67.577
O  58.034  37.128  46.383
O  54.930  68.723  70.610
O  40.767  46.111  51.245
O  58.108  44.984  46.453
O  58.463  58.529  75.012
O  54.819  34.217  55.781
O  41.130  68.858  48.864
O  64.348  50.342  50.618
O  38.944  56.301  32.242
O  47.089  34.138  72.543
O  59.801  74.571  44.086
O  46.299  40.679  54.483
O  61.978  40.914  64.468
O  30.766  44.002  48.014
O  45.037  51.129  75.147
O  41.119  29.703  57.204
O  52.553  41.099  36.287
O  51.184  71.359  32.314
O  44.078  74.709  48.680
O  42.900  73.371  54.514
O  38.808  51.502  36.366
O  67.674  55.338  34.332
O  51.718  21.971  49.029
O  43.593  45.340  74.999
O  56.585  50.383  39.497
O  58.881  38.959  49.460
O  56.917  63.054  53.865
O  43.118  58.102  73.566
O  44.181  65.047  53.244
O  67.216  45.493  35.769
O  48.968  29.992  55.150
O  57.225  61.102  70.337
O  65.523  54.215  57.895
O  72.080  59.782  64.294
O  59.585  57.544  69.502
O  42.891  53.033  32.026
O  57.647  58.049  39.535
O  50.100  37.111  44.888
O  39.677  27.115  57.665
O  68.344  30.912  47.801
O  43.782  55.180  34.915
O  74.089  55.274  50.233
O  43.385  27.690  39.913
O  54.520  36.874  25.018
O  64.546  66.753  57.261
O  51.247  44.907  66.665
O  39.049  42.139  40.998
O  37.846  50.232  57.989
O  60.005  54.321  63.597
O  56.900  47.435  45.515
O  37.036  31.827  52.405
O  49.704  32.732  30.364
O  31.144  58.751  31.831
O  68.075  69.714  41.127
O  46.391  55.219  29.816
O  38.701  69.813  39.341
O  73.416  33.564  50.175
O  41.515  54.125  67.919
O  54.717  77.998  47.019
O  35.191  59.705  66.719
O  28.547  65.369  53.664
O  35.974  58.055  61.872
O  38.267  65.361  29.872
O  32.628  38.853  41.633
O  62.695  66.113  54.962
O  47.148  42.969  34.639
O  41.061  35.648  36.294
O  61.160  35.559  32.578
O  42.532  54.930  30.030
O  71.368  43.135  64.426
O  28.355  39.519  54.770
O  34.925  42.560  29.428
O  37.737  61.268  72.278
O  58.128  31.578  36.525
O  33.470  62.417  60.978
O  73.963  63.039  40.677
O  67.788  40.972  42.860
O  59.227  69.611  53.371
O  59.594  49.154  67.769
O  49.759  22.348  46.928
O  65.246  27.252  48.601
O  53.548  31.919  38.547
O  38.541  44.896  64.544
O  52.343  49.025  60.750
O  33.154  40.203  59.263
O  56.041  47.687  36.332
O  38.364  37.979  60.860
O  56.176  25.890  57.555
O  34.135  32.489  63.581
O  59.528  43.029  44.828
O  58.153  31.927  44.625
O  71.879  48.821  33.675
O  68.199  44.596  64.632
O  67.508  37.691  60.453
O  31.882  36.255  35.442
O  48.260  59.199  76.113
O  56.941  68.443  33.076
O  47.928  70.125  35.747
O  38.490  64.630  56.598
O  60.560  36.491  67.140
O  55.345  39.131  39.067
O  29.123  53.029  30.079
O  44.150  76.988  46.800
O  68.901  50.187  39.169
O  33.569  55.491  70.924
O  29.660  42.534  37.615
O  51.783  55.491  43.780
O  69.308  59.836  38.616
O  50.634  68.064  41.611
O  50.922  51.627  76.435
O  69.837  63.839  53.732
O  40.622  40.441  39.278
O  54.578  52.735  24.525
O  69.445  61.773  36.787
O  54.378  44.343  22.605
O  31.181  61.129  45.434
O  53.800  32.870  45.560
O  34.640  50.287  44.018
O  54.229  53.810  34.598
O  67.337  62.601  56.928
O  45.149  29.853  40.877
O  47.943  44.559  72.980
O  51.283  56.361  38.386
O  49.270  55.330  24.396
O  34.437  53.303  42.934
O  72.449  48.913  50.945
O  23.836  52.308  44.392
O  62.687  38.795  54.860
O  44.727  23.882  46.421
O  55.337  62.598  41.283
O  28.777  64.229  46.320
O  23.086  55.398  57.472
O  70.931  51.801  48.153
O  55.307  45.798  50.148
O  44.522  54.564  22.711
O  32.283  36.441  60.721
O  56.875  54.458  63.589
O  38.460  42.448  70.384
O  67.193  40.782  63.755
O  36.852  72.889  37.527
O  46.183  43.518  75.151
O  40.740  62.142  46.871
O  41.263  54.710  50.985
O  49.605  72.933  59.741
O  41.626  43.617  26.402
O  54.947  54.548  71.153
O  34.175  67.043  62.779
O  52.602  63.156  41.959
O  61.412  34.472  27.791
O  63.272  50.917  43.214
O  50.564  64.587  57.006
O  77.642  44.033  43.515
O  35.606  41.589  55.131
O  45.103  36.030  62.935
O  37.259  44.626  56.510
O  74.664  54.561  57.873
O  56.462  33.737  37.681
O  32.396  63.692  52.963
O  45.965  37.979  52.968
O  57.027  37.900  58.895
O  51.979  59.823  73.739
O  56.319  59.545  24.277
O  30.575  63.420  32.845
O  74.556  48.770  38.825
O  50.921  62.730  44.055
O  53.209  59.127  64.024
O  34.531  57.744  55.992
O  55.780  66.558  39.969
O  24.030  62.603  48.160
O  39.195  66.257  36.316
O  28.169  54.279  59.713
O  35.364  59.573  47.884
O  35.153  71.861  42.654
O  69.876  51.387  36.772
O  53.123  70.610  59.629
O  42.276  39.380  62.220
O  59.002  40.578  69.102
O  42.851  60.019  29.244
O  52.378  61.503  33.653
O  29.268  51.442  41.016
O  56.625  23.624  55.847
O  48.765  71.178  57.406
O  67.434  39.856  68.733
O  38.213  49.477  39.920
O  51.145  28.277  31.559
O  35.387  61.679  63.205
O  69.100  66.304  52.416
O  30.610  53.091  53.539
O  37.901  34.659  63.952
O  71.579  55.621  33.162
O  46.339  45.605  67.166
O  59.338  49.120  60.603
O  43.830  61.643  47.194
O  39.100  65.424  62.921
O  43.067  28.735  43.045
O  45.988  34.157  45.745
O  58.110  65.673  72.342
O  36.426  48.805  71.838
O  60.943  64.947  72.326
O  47.212  56.811  27.501
O  48.232  42.440  37.881
O  52.671  70.910  64.826
O  35.541  42.683  70.610
O  44.889  57.729  70.619
O  70.723  33.050  59.530
O  69.447  66.102  64.804
O  41.503  50.672  75.080
O  38.468  40.413  65.970
O  60.930  26.216  55.227
O  47.070  41.740  73.129
O  67.555  36.937  64.199
O  57.398  49.182  62.772
O  69.783  60.230  41.175
O  64.007  29.275  37.764
O  24.384  59.808  52.132
O  46.474  60.887  56.459
O  61.515  46.189  50.738
O  36.255  57.938  44.818
O  50.809  54.618  28.526
O  59.560  50.641  35.598
O  64.674  39.242  52.756
O  58.337  26.416  52.594
O  47.036  31.131  39.082
O  27.313  60.547  36.367
O  65.846  45.171  50.624
O  49.903  45.014  34.334
O  44.529  48.739  68.309
O  54.435  36.908  70.511
O  59.562  60.324  35.097
O  49.780  30.347  35.209
O  72.649  48.314  63.870
O  43.482  74.490  60.593
O  59.608  45.540  75.881
O  40.628  68.751  54.443
O  64.429  38.152  44.967
O  49.233  29.876  42.504
O  54.533  28.373  45.308
O  47.222  44.216  60.104
O  38.232  49.709  33.739
O  34.817  47.670  38.832
O  34.708  62.498  54.407
O  53.769  44.682  52.310
O  38.205  72.852  42.718
O  60.155  40.310  43.986
O  61.936  64.858  42.822
O  29.643  34.884  42.850
O  75.594  56.143  55.583
O  59.495  59.437  60.971
O  28.748  40.633  42.896
O  67.566  50.438  35.177
O  62.880  53.578  32.609
O  44.828  39.476  34.883
O  51.811  41.596  28.764
O  29.464  37.264  53.138
O  58.704  71.401  49.165
O  43.991  30.961  57.139
O  29.752  38.844  40.849
O  47.939  35.329  64.249
O  27.582  43.698  33.374
O  53.817  61.585  65.846
O  58.118  51.754  61.247
O  41.243  49.586  36.002
O  72.141  33.744  52.786
O  70.384  61.497  59.010
O  54.474  52.109  60.479
O  57.585  28.835  37.603
O  66.429  66.816  59.751
O  43.145  39.073  45.727
O  52.081  74.309  62.760
O  58.629  60.798  41.735
O  26.707  50.216  41.474
O  38.076  41.718  43.620
O  47.517  55.400  46.628
O  38.413  47.781  25.698
O  70.107  38.083  52.787
O  37.284  67.109  64.389
O  42.348  37.203  64.226
O  63.437  47.387  27.297
O  38.072  25.796  52.112
O  57.922  51.997  68.511
O  25.307  43.561  54.455
O  31.181  38.143  63.917
O  44.144  65.119  41.219
O  31.470  33.495  49.888
O  40.894  69.908  63.712
O  66.338  49.061  39.954
O  50.570  68.419  52.716
O  61.979  69.263  55.318
O  30.984  60.706  33.838
O  68.689  32.310  38.433
O  29.677  42.415  68.238
O  37.304  50.984  49.525
O  50.693  61.862  28.662
O  56.891  30.513  50.906
O  63.692  64.233  33.328
O  37.272  35.508  32.941
O  31.904  44.682  50.613
O  48.193  38.796  33.939
O  68.201  33.518  63.114
O  59.907  56.201  29.637
O  66.532  32.255  52.645
O  48.146  39.869  30.163
O  27.407  55.011  47.417
O  53.747  68.439  40.161
O  23.040  57.823  55.416
O  73.974  53.679  46.337
O  58.693  27.387  58.389
O  43.144  69.174  57.201
O  44.888  47.945  40.906
O  63.290  55.216  56.411
O  52.190  73.898  58.512
O  44.368  53.622  67.742
O  71.297  59.132  57.780
O  38.068  30.660  46.608
O  47.028  59.621  71.312
O  54.933  67.397  62.880
O  44.273  28.762  35.522
O  56.655  30.023  57.138
O  58.356  46.851  25.341
O  32.336  70.359  49.462
O  70.873  61.123  34.168
O  28.996  51.211  32.298
O  47.341  42.895  66.125
O  35.833  45.339  34.313
O  30.396  41.127  58.584
O  39.699  29.911  40.601
O  36.118  55.031  41.538
O  41.731  31.578  49.025
O  30.335  30.931  48.943
O  41.179  49.180  48.464
O  49.971  54.129  62.085
O  62.656  33.314  42.546
O  45.596  76.208  50.643
O  53.964  56.371  77.425
O  50.449  42.514  26.320
O  31.394  52.982  33.363
O  69.035  58.783  67.991
O  50.466  45.415  58.704
O  56.559  74.103  49.060
O  60.257  42.387  34.942
O  24.588  49.489  64.138
O  59.286  67.400  70.292
O  37.410  42.980  30.714
O  64.284  48.215  66.209
O  57.891  36.415  40.823
O  41.316  51.728  50.217
O  42.077  44.251  33.842
O  43.882  65.842  58.479
O  44.764  41.684  64.925
O  62.358  53.644  44.127
O  40.456  52.880  29.643
O  44.569  42.873  27.187
O  50.374  27.548  65.781
O  36.724  71.740  49.860
O  23.271  52.724  54.676
O  62.401  32.412  37.856
O  26.672  50.544  50.139
O  55.059  45.422  76.547
O  45.663  71.468  37.037
O  67.116  36.920  36.530
O  37.185  68.848  58.678
O  29.295  37.696  35.573
O  45.617  58.597  75.065
O  56.842  72.089  51.146
O  37.817  44.328  72.483
O  52.040  49.502  74.307
O  69.051  71.711  54.587
O  38.304  26.039  41.871
O  38.858  36.540  42.116
O  38.412  73.900  40.050
O  34.091  62.596  36.222
O  40.127  55.314  70.636
O  44.470  53.297  28.923
O  53.315  68.506  48.182
O  44.322  52.669  77.495
O  41.511  60.708  59.531
O  69.696  69.280  53.383
O  50.473  48.266  76.319
O  40.369  31.500  63.096
O  63.367  38.143  35.641
O  52.186  44.471  54.665
O  24.697  43.674  49.999
O  39.719  33.598  51.665
O  51.629  26.214  47.426
O  60.350  61.968  72.582
O  49.349  55.291  69.326
O  68.166  56.959  31.801
O  64.027  61.845  37.021
O  49.896  64.386  73.570
O  59.316  61.714  59.160
O  55.986  35.654  51.832
O  50.918  62.156  36.473
O  62.073  51.937  35.250
O  45.783  39.873  58.745
O  34.611  49.916  47.071
O  39.672  34.592  34.207
O  39.283  49.274  51.149
O  54.975  56.578  63.749
O  56.982  68.130  57.227
O  52.601  25.757  55.820
O  64.729  69.760  43.615
O  32.491  54.129  27.262
O  62.158  41.558  69.416
O  68.663  48.817  52.942
O  44.564  60.758  42.808
O  67.888  64.770  43.387
O  70.648  41.653  35.130
O  47.691  30.628  62.675
O  55.869  47.520  65.590
O  23.641  46.653  48.370
O  34.293  69.406  61.053
O  60.358  28.655  36.620
O  50.195  55.679  41.304
O  62.452  37.761  57.636
O  69.419  53.030  43.561
O  41.850  74.403  42.607
O  35.218  50.184  54.432
O  27.267  49.285  61.618
O  57.638  58.185  36.371
O  50.116  47.891  35.202
O  61.769  60.074  58.880
O  72.588  40.107  40.303
O  46.136  26.427  36.984
O  65.994  46.180  71.074
O  39.675  60.184  27.732
O  68.125  43.868  52.093
O  63.959  61.921  50.771
O  39.745  32.984  41.429
O  72.599  39.784  51.446
O  45.774  60.193  33.224
O  47.480  27.966  58.174
O  56.952  44.246  67.713
O  65.468  37.864  67.791
O  48.531  60.808  30.844
O  57.223  62.378  50.485
O  40.198  46.482  39.496
O  51.146  28.656  53.676
O  33.998  52.909  63.285
O  41.280  29.997  34.848
O  63.729  62.876  64.164
O  52.952  50.560  25.322
O  70.613  67.592  58.474
O  48.689  74.391  35.422
O  44.928  38.914  69.328
O  28.153  39.725  59.576
O  70.627  56.220  67.752
O  67.426  33.562  41.728
O  32.470  42.190  63.168
O  52.616  64.092  59.043
O  41.179  44.311  65.300
O  60.160  49.701  63.123
O  35.282  59.920  36.746
O  48.814  43.981  24.166
O  43.543  35.013  36.994
O  56.262  35.246  68.361
O  70.680  47.250  60.135
O  63.182  70.217  51.237
O  46.877  71.808  33.645
O  53.480  55.581  65.619
O  75.078  62.825  51.719
O  39.733  54.164  35.703
O  42.286  60.867  56.832
O  45.242  66.626  50.098
O  41.245  47.385  31.456
O  51.781  54.861  35.731
O  35.398  51.318  25.936
O  52.157  40.397  59.365
O  61.468  45.817  29.266
O  58.703  38.206  54.996
O  36.984  55.894  75.048
O  52.637  76.178  49.462
O  64.509  32.627  66.633
O  66.401  26.630  46.054
O  61.095  46.941  62.486
O  33.246  71.456  59.362
O  42.335  26.456  37.482
O  39.076  65.798  66.933
O  43.749  32.002  29.042
O  55.002  48.736  61.818
O  45.077  62.898  28.010
O  41.075  38.101  37.829
O  28.090  33.121  47.230
O  51.032  61.373  47.723
O  34.980  35.609  61.126
O  52.229  55.299  71.807
O  32.189  50.140  57.078
O  70.292  40.885  44.058
O  31.176  43.339  43.082
O  65.094  47.298  62.144
O  71.976  30.941  53.957
O  59.186  53.728  45.666
O  68.419  38.120  33.821
O  49.562  67.885  55.133
O  45.476  56.325  67.753
O  54.705  57.545  52.680
O  77.949  42.202  47.055
O  45.196  74.727  55.625
O  55.599  29.310  40.722
O  32.521  42.814  33.666
O  69.829  58.282  47.221
O  47.582  27.960  40.838
O  51.288  78.060  46.675
O  24.211  48.919  58.704
O  62.757  44.111  62.585
O  43.022  45.873  39.836
O  57.854  41.180  71.772
O  43.801  68.271  47.697
O  54.157  26.133  61.169
O  61.068  57.668  66.751
O  48.081  40.074  36.304
O  58.375  51.618  64.265
O  70.226  37.821  59.252
O  37.666  23.727  49.032
O  32.844  64.651  50.297
O  46.855  45.320  32.943
O  62.437  50.550  28.323
O  76.709  54.297  43.400
O  67.581  54.195  27.041
O  68.610  56.505  42.971
O  58.115  45.269  71.112
O  40.861  56.296  39.319
O  46.744  40.913  76.591
O  35.431  54.583  28.085
O  45.880  62.706  41.359
O  69.204  50.322  55.366
O  41.396  42.840  70.458
O  41.653  30.805  68.734
O  29.504  58.075  34.552
O  53.339  66.313  68.966
O  38.804  28.386  51.110
O  70.278  36.452  44.008
O  33.359  38.623  45.205
O  72.387  63.361  57.699
O  58.851  46.842  33.010
O  59.918  72.332  61.417
O  61.393  33.562  46.907
O  49.987  42.031  34.619
O  51.011  54.009  67.364
O  34.440  64.849  56.421
O  29.005  35.002  55.071
O  56.399  38.959  61.700
O  45.366  62.050  58.915
O  46.440  33.574  51.411
O  45.453  46.430  35.140
O  54.563  26.158  47.238
O  58.857  47.117  50.802
O  47.341  27.374  43.709
O  33.111  45.378  64.260
O  69.291  60.906  51.901
O  47.604  63.695  35.064
O  34.403  60.799  58.448
O  44.956  63.072  49.798
O  48.598  26.486  38.444
O  37.720  60.276  64.732
O  49.582  35.464  61.342
O  29.646  58.332  37.354
O  74.828  48.234  43.322
O  61.217  48.701  37.366
O  28.374  54.367  53.999
O  71.085  31.478  50.483
O  46.173  72.967  46.282
O  53.679  59.103  25.525
O  69.581  37.780  62.266
O  52.965  34.645  26.353
O  59.481  41.901  49.265
O  69.975  46.194  52.603
O  25.504  46.512  53.866
O  50.919  43.490  37.034
O  39.837  66.673  52.230
O  55.403  33.148  43.122
O  71.121  43.727  44.034
O  51.417  71.183  42.442
O  48.384  34.912  31.565
O  49.722  29.873  29.715
O  53.490  64.836  39.579
O  36.424  62.765  56.943
O  37.069  51.983  46.879
O  65.444  42.596  37.999
O  35.858  39.902  43.772
O  43.956  62.960  68.251
O  46.610  70.172  45.967
O  61.478  31.242  56.909
O  65.780  38.499  58.494
O  41.348  33.113  70.368
O  65.927  39.684  30.010
O  48.965  36.083  39.593
O  47.118  34.094  59.154
O  31.110  54.080  56.188
O  71.464  48.484  44.345
O  54.203  33.492  69.578
O  58.435  64.841  52.307
O  28.532  48.043  64.045
O  60.512  41.754  66.985
O  47.032  48.420  62.329
O  57.030  59.331  33.854
O  42.981  75.227  57.866
O  48.878  39.465  53.822
O  29.815  36.748  48.960
O  68.681  57.630  50.206
O  46.350  73.894  53.201
O  44.455  57.875  34.682
O  56.847  45.118  34.949
O  44.441  50.622  31.020
O  59.215  56.742  45.837
O  36.357  52.645  30.158
O  37.927  35.156  55.905
O  40.224  55.339  28.897
O  52.683  76.644  54.594
O  36.067  45.277  59.130
O  46.685  73.415  39.017
O  69.662  44.234  60.529
O  64.696  66.641  34.539
O  41.136  65.873  54.821
O  64.923  66.867  44.773
O  55.811  65.168  61.380
O  43.428  55.543  72.100
O  46.953  53.360  72.563
O  73.448  46.521  60.883
O  70.236  50.745  51.434
O  62.670  55.616  51.881
O  34.104  51.154  65.757
O  69.934  50.309  69.759
O  45.071  71.118  66.671
O  66.706  58.508  39.261
O  29.283  53.880  39.212
O  34.457  39.401  29.691
O  43.423  57.971  63.588
O  45.685  41.295  36.999
O  49.105  73.212  52.602
O  30.064  40.003  47.149
O  44.252  68.029  53.052
O  63.462  25.450  54.138
O  49.105  63.588  41.604
O  30.584  35.227  63.322
O  37.078  72.981  55.751
O  34.942  69.629  56.431
O  33.742  54.657  48.730
O  31.924  28.474  48.789
O  26.361  54.618  56.127
O  38.248  44.346  39.533
O  74.404  36.450  52.328
O  46.526  50.861  64.554
O  35.473  50.275  40.102
O  53.546  43.155  49.775
O  45.319  49.435  34.442
O  66.193  35.638  51.373
O  23.627  41.265  45.200
O  29.762  52.970  43.563
O  27.620  50.923  65.803
O  70.295  31.034  45.654
O  36.399  32.847  65.624
O  34.571  52.658  45.597
O  61.577  55.201  60.370
O  75.315  46.790  46.957
O  54.722  57.422  60.889
O  48.003  38.897  39.021
O  36.162  32.999  61.652
O  22.461  47.095  57.349
O  23.615  49.918  55.779
O  60.108  29.480  52.728
O  27.383  43.045  49.191
O  64.041  43.345  49.178
O  40.606  22.956  47.952
O  50.690  39.127  35.325
O  54.967  64.039  45.949
O  49.708  24.636  62.971
O  75.301  37.859  45.369
O  61.757  69.554  39.415
O  68.566  38.426  55.409
O  66.731  51.066  53.906
O  62.225  34.744  65.687
O  29.535  56.772  67.959
O  55.350  66.792  47.101
O  46.751  71.108  63.121
O  61.627  43.830  71.076
O  34.643  35.841  49.628
O  47.901  54.803  35.244
O  50.329  32.276  57.231
O  41.023  59.961  63.395
O  40.715  57.271  62.625
O  48.215  52.599  33.610
O  67.366  34.099  65.870
O  46.071  77.388  42.365
O  69.987  58.425  61.039
O  52.058  30.250  33.455
O  29.488  49.959  44.907
O  31.264  59.147  50.693
O  45.477  56.023  49.070
O  26.758  48.902  44.569
O  41.491  46.626  25.832
O  37.716  33.827  39.293
O  56.611  55.752  38.296
O  23.876  49.354  49.371
O  70.632  47.611  69.001
O  61.598  54.212  48.527
O  75.432  45.709  55.269
O  55.584  34.692  47.328
O  49.801  68.352  61.907
O  45.799  24.551  58.928
O  44.409  72.603  41.127
O  33.055  54.073  35.381
O  46.297  36.380  50.545
O  65.694  52.631  66.749
O  72.102  38.355  61.832
O  52.614  30.433  61.639
O  32.657  45.990  38.542
O  57.449  33.658  62.553
O  32.777  46.556  61.263
O  74.674  54.599  63.378
O  70.433  60.509  44.024
O  63.053  60.310  63.302
O  72.288  50.187  41.105
O  40.881  44.533  41.554
O  47.605  38.955  63.124
O  46.077  34.125  36.267
O  63.365  46.370  64.234
O  47.658  49.719  26.955
O  41.447  76.463  49.198
O  44.959  58.393  40.778
O  48.200  65.981  62.060
O  57.616  77.317  46.575
O  37.740  35.263  60.145
O  54.600  48.255  76.063
O  34.031  66.976  46.737
O  44.388  67.022  67.520
O  58.272  35.841  28.594
O  59.747  54.555  68.023
O  57.953  55.924  76.208
O  62.290  43.554  65.477
O  44.410  73.753  43.899
O  32.260  51.179  43.349
O  37.731  58.821  67.339
O  46.720  54.007  26.891
O  53.868  53.744  63.461
O  56.535  46.467  62.778
O  63.872  55.044  38.045
O  74.734  40.950  57.696
O  44.292  34.947  53.414
O  53.870  50.040  64.498
O  62.569  41.910  41.928
O  41.594  73.086  40.114
O  51.356  59.447  62.011
O  64.049  47.541  50.939
O  50.900  36.681  41.714
O  46.890  73.693  50.534
O  46.548  48.353  66.431
O  50.942  66.912  48.335
O  37.973  62.372  45.801
O  52.964  49.062  28.123
O  62.306  63.923  30.716
O  55.850  60.294  49.014
O  46.206  23.449  42.859
O  56.616  70.272  59.738
O  58.084  42.406  36.827
O  45.515  39.040  26.195
O  44.658  63.133  34.643
O  60.877  68.182  60.927
O  53.006  49.971  77.566
O  41.641  35.902  46.813
O  42.041  25.946  41.929
O  42.232  46.172  28.673
O  42.682  50.620  33.830
O  55.099  36.804  57.063
O  53.469  35.152  53.314
O  45.163  53.228  62.611
O  65.938  66.625  51.769
O  63.524  47.924  39.088
O  78.269  47.248  47.107
O  48.533  77.475  45.587
O  35.296  66.539  50.541
O  58.753  39.244  41.188
O  52.546  40.321  72.640
O  30.771  61.345  39.274
O  59.481  64.337  41.486
O  57.981  48.115  72.022
O  62.480  51.549  38.062
O  48.819  32.345  41.270
O  49.627  32.560  61.490
O  58.493  28.662  46.810
O  74.294  56.693  59.739
O  25.235  60.919  57.902
O  62.442  65.557  45.645
O  31.785  35.460  53.369
O  69.895  41.873  62.264
O  25.042  63.602  50.466
O  53.251  73.914  52.775
O  58.679  46.360  53.975
O  34.191  30.648  41.862
O  40.935  37.538  30.858
O  71.676  63.150  45.294
O  42.068  69.668  51.756
O  53.875  61.496  50.916
O  30.363  33.859  45.617
O  27.709  63.268  51.090
O  56.688  50.277  66.293
O  65.944  62.938  35.145
O  53.493  75.282  46.370
O  44.629  54.026  74.210
O  60.665  48.292  26.549
O  37.307  54.840  59.776
O  71.740  44.565  58.355
O  67.977  53.452  47.665
O  66.652  68.542  53.499
O  57.697  60.028  57.362
O  40.990  65.059  31.089
O  52.965  52.181  74.065
O  34.316  30.294  50.045
O  35.274  50.853  60.590
O  46.614  24.542  52.685
O  44.920  30.059  31.022
O  59.338  39.032  57.466
O  36.890  36.603  28.492
O  52.732  52.552  28.884
O  54.913  75.655  51.032
O  47.421  24.943  61.282
O  69.501  60.562  49.128
O  52.603  63.306  49.140
O  48.289  47.128  28.299
O  44.141  71.912  52.227
O  73.563  53.440  55.311
O  72.109  48.042  53.723
O  27.514  32.442  54.097
O  31.301  60.974  36.705
O  60.631  61.048  64.969
O  46.516  29.770  53.313
O  34.253  46.553  52.962
O  55.330  24.398  44.765
O  54.657  71.254  31.865
O  23.564  39.856  52.607
O  35.917  28.267  45.250
O  35.397  50.138  63.520
O  58.038  65.836  62.950
O  32.725  41.117  47.671
O  69.080  42.080  66.098
O  52.599  26.395  51.158
O  39.137  39.549  68.688
O  60.991  57.248  43.918
O  55.525  31.264  48.525
O  34.207  52.727  40.011
O  41.613  66.551  46.320
O  67.103  48.280  55.956
O  60.092  38.331  70.248
O  54.521  38.558  54.866
O  65.704  30.132  48.872
O  77.353  52.202  50.634
O  38.778  50.467  24.505
O  30.116  68.904  54.263
O  67.026  43.354  29.591
O  39.665  60.640  51.373
O  62.770  73.022  50.727
O  49.426  59.044  52.151
O  32.368  29.372  56.161
O  68.669  35.081  39.630
O  61.225  28.315  44.060
O  46.713  41.930  25.238
O  76.216  45.811  60.753
O  32.354  48.801  45.060
O  48.254  25.309  57.496
O  40.807  29.432  45.892
O  54.296  58.702  28.553
O  43.881  75.580  41.043
O  34.316  27.751  40.272
O  37.872  65.293  50.834
O  33.270  69.677  46.698
O  59.630  30.884  50.124
O  72.394  37.214  37.713
O  27.900  60.568  39.376
O  62.032  51.378  64.448
O  57.015  34.915  65.310
O  72.618  40.757  54.228
O  49.489  46.775  74.106
O  34.071  32.819  48.711
O  41.635  55.056  42.126
O  58.923  44.762  30.365
O  64.081  26.441  44.391
O  42.384  44.158  52.697
O  60.204  76.047  46.749
O  40.150  45.275  73.958
O  33.690  61.637  39.314
O  43.821  41.436  52.993
O  39.535  67.312  60.121
O  31.334  66.392  53.597
O  72.738  33.794  46.552
O  38.988  59.211  32.604
O  64.865  50.677  64.697
O  37.307  57.606  47.380
O  56.054  58.139  45.049
O  52.403  35.690  68.500
O  51.456  56.892  63.906
O  50.027  27.672  36.119
O  64.574  74.018  47.078
O  26.330  40.000  44.174
O  47.295  55.107  40.467
O  65.080  61.142  47.782
O  48.436  35.748  68.236
O  56.712  77.681  49.203
O  56.961  60.620  67.052
O  58.417  41.616  42.478
O  42.551  62.885  70.935
O  44.532  39.097  63.745
O  62.499  54.840  35.458
O  25.965  57.443  37.751
O  71.223  46.102  37.375
O  71.177  54.289  53.996
O  42.805  69.964  40.656
O  61.238  62.236  36.354
O  60.620  36.914  72.590
O  59.094  62.457  67.483
O  47.447  36.932  59.912
O  54.023  41.293  66.076
O  27.408  61.666  61.069
O  52.313  74.871  39.096
O  64.627  69.846  57.203
O  54.990  32.433  61.584
O  70.049  63.570  63.426
O  62.560  52.713  26.360
O  49.729  39.519  60.936
O  60.062  44.911  73.150
O  62.880  29.545  46.879
O  49.116  50.677  60.704
O  24.415  55.003  48.696
O  41.077  70.045  37.660
O  62.276  29.744  49.716
O  38.733  60.122  74.877
O  64.133  43.384  35.563
O  41.923  49.881  40.678
O  40.101  53.180  75.848
O  31.804  69.350  62.526
O  62.201  32.726  61.582
O  32.432  53.175  60.759
O  42.452  28.316  54.854
O  30.976  56.592  42.886
O  63.657  63.999  71.058
O  27.430  37.893  42.823
O  33.676  49.230  29.727
O  64.988  34.185  36.217
O  29.303  52.158  50.925
O  65.736  35.695  32.276
O  27.878  57.934  65.790
O  36.255  57.497  32.503
O  58.990  29.700  42.939
O  48.051  63.560  59.571
O  41.861  71.498  42.929
O  27.818  48.750  38.527
O  42.811  59.895  26.412
O  67.295  51.163  63.292
O  51.584  64.341  34.664
O  27.930  40.429  50.249
O  55.768  32.329  40.330
O  37.344  29.987  59.535
O  45.170  59.361  38.069
O  29.691  63.683  43.789
O  65.487  69.066  50.028
O  66.914  54.490  37.307
O  55.907  63.751  38.513
O  44.699  40.968  39.851
O  40.612  47.297  65.415
O  46.532  66.204  59.850
O  41.730  34.203  61.468
O  28.269  44.173  46.418
O  68.435  40.186  60.523
O  42.600  56.338  69.530
O  32.075  41.780  51.405
O  71.950  66.217  51.628
O  51.669  48.085  32.824
O  44.749  23.042  54.455
O  64.238  30.036  44.634
O  26.853  57.140  34.965
O  41.605  45.165  57.009
O  44.142  43.091  77.129
O  62.313  37.561  62.612
O  62.217  58.185  71.292
O  59.615  47.177  58.550
O  51.505  71.349  57.409
O  47.170  23.147  48.307
O  66.250  60.222  45.115
O  29.648  48.211  33.249
O  25.475  59.071  40.162
O  73.247  60.335  61.613
O  71.415  35.078  48.801
O  43.187  77.922  50.938
O  48.199  24.772  44.625
O  27.410  64.151  59.459
O  43.699  45.463  23.379
O  62.939  67.610  47.580
O  65.098  64.425  42.960
O  28.606  58.941  60.528
O  43.351  38.747  59.582
O  46.569  74.575  41.731
O  28.013  56.836  55.476
O  47.244  55.194  62.438
O  47.440  49.793  55.181
O  57.900  57.941  67.504
O  63.589  61.603  60.696
O  51.949  51.373  55.729
O  49.250  45.273  46.485
O  53.786  47.289  46.091
O  53.903  51.972  51.364
O  48.835  49.059  45.304
O  50.134  53.915  53.338
O  49.139  50.927  51.206
O  30.694  45.105  36.712
O  66.205  47.356  28.569
O  26.865  44.622  52.173
O  27.821  58.494  57.668
O  50.779  49.969  48.450
O  36.200  51.612  34.675
O  55.326  43.768  61.801
O  60.592  60.507  69.161
O  55.614  32.746  58.743
O  42.127  55.656  74.817
O  48.237  45.610  64.329
O  42.379  34.855  41.761
O  47.431  65.867  52.751
O  44.290  77.544  56.633
O  60.446  52.897  73.149
O  27.686  65.523  49.106
O  38.720  46.058  42.587
O  56.052  45.352  27.482
O  36.340  34.343  47.582
O  25.931  44.990  47.825
O  46.821  52.201  31.157
O  34.788  49.948  50.646
O  41.853  26.978  47.351
O  66.339  34.127  54.871
O  49.138  76.679  49.109
O  57.145  42.423  46.524
O  61.573  31.341  44.946
O  63.007  64.588  61.952
O  35.540  48.434  33.144
O  58.861  75.791  52.520
O  57.355  30.600  63.521
O  68.370  61.171  46.779
O  48.258  42.670  70.573
O  53.555  73.497  36.778
O  61.808  56.094  69.351
O  76.287  52.421  40.345
O  57.713  26.998  41.952
O  48.971  70.368  51.187
O  48.289  63.495  69.105
O  35.949  60.082  56.056
O  60.515  50.758  46.661
O  63.422  59.715  42.658
O  77.242  47.151  42.317
O  43.214  43.375  58.735
O  51.401  29.798  49.983
O  62.122  67.935  32.096
O  52.958  52.461  32.429
O  50.172  63.294  39.075
O  53.646  60.147  40.929
O  41.462  24.647  45.624
O  45.505  50.576  61.059
O  52.471  33.815  61.136
O  47.628  38.229  24.428
O  58.712  46.826  36.919
O  46.253  47.632  70.788
O  34.030  50.224  37.510
O  28.422  34.903  40.209
O  67.375  29.928  40.647
O  42.552  69.232  31.621
O  65.420  57.864  31.875
O  51.755  59.294  29.868
O  63.120  52.028  73.043
O  56.386  57.858  58.610
O  72.415  59.865  48.467
O  50.979  73.970  41.719
O  67.205  50.478  31.278
O  66.060  64.855  46.652
O  75.531  45.653  44.318
O  44.620  31.191  68.533
O  33.327  50.894  34.575
O  41.430  48.939  58.867
O  59.079  50.575  42.400
O  61.446  46.333  45.688
O  56.593  36.382  54.545
O  49.771  63.748  49.233
O  38.597  48.505  28.328
O  50.686  64.177  26.855
O  37.741  30.263  34.398
O  68.903  60.344  56.036
O  38.974  66.843  39.632
O  67.826  32.087  44.262
O  75.589  42.798  45.325
O  67.816  34.817  60.670
O  56.770  39.830  47.428
O  61.157  41.561  52.875
O  42.163  53.077  34.943
O  64.302  56.595  26.781
O  69.076  70.717  43.642
O  68.971  63.757  50.355
O  48.100  47.640  25.181
O  46.536  78.448  51.778
O  38.476  49.401  55.462
O  33.925  36.676  42.933
O  56.131  67.411  59.809
O  53.568  44.960  70.408
O  60.784  52.773  41.999
O  60.232  31.199  40.653
O  49.590  78.041  52.107
O  43.564  69.723  36.111
O  33.956  44.489  48.340
O  43.292  46.020  62.851
O  37.752  44.279  44.635
O  68.069  69.269  58.745
O  61.594  40.462  58.474
O  48.792  25.499  47.547
O  54.775  72.762  34.219
O  70.604  65.050  56.341
O  60.223  42.653  59.946
O  72.667  60.595  45.751
O  59.290  52.600  39.705
O  43.495  54.747  39.662
O  52.818  62.088  38.929
O  58.639  50.009  49.133
O  39.362  44.116  32.313
O  34.100  65.617  52.929
O  59.292  49.121  75.767
O  45.372  35.233  65.688
O  57.679  61.163  62.394
O  36.861  49.137  36.340
O  37.459  54.356  67.649
O  45.157  76.278  53.189
O  48.112  61.116  42.698
O  31.957  59.751  55.336
O  22.510  47.918  46.105
O  46.826  68.528  51.977
O  26.413  53.417  50.038
O  55.938  36.152  61.752
O  34.214  36.313  38.835
O  44.359  34.140  31.003
O  47.397  64.940  46.999
O  35.486  40.847  63.603
O  55.216  60.654  43.582
O  52.177  66.945  38.417
O  54.781  29.397  37.271
O  49.230  49.549  73.883
O  45.899  34.255  39.903
O  58.162  55.680  52.525
O  27.422  41.156  57.014
O  57.826  72.302  37.284
O  45.147  55.803  64.595
O  49.124  60.583  69.510
O  63.638  56.189  49.241
O  45.046  35.228  57.199
O  62.681  37.753  65.430
O  30.526  45.275  41.260
O  55.984  28.006  49.669
O  31.590  34.093  56.567
O  52.768  47.642  58.240
O  38.474  45.020  46.960
O  54.225  38.568  59.560
O  33.203  34.988  64.566
O  45.681  57.586  45.829
O  41.777  40.139  29.455
O  63.760  66.991  42.198
O  66.417  46.361  65.899
O  58.594  46.843  42.453
O  38.378  42.622  54.980
O  54.764  69.906  57.340
O  31.598  53.233  41.258
O  48.189  36.129  36.498
O  50.352  61.502  59.920
O  36.783  28.884  39.365
O  35.177  57.209  28.840
O  58.758  53.890  48.485
O  65.822  35.230  48.541
O  36.676  47.648  50.192
O  37.825  59.742  42.985
O  55.651  46.947  59.603
O  66.983  58.819  48.115
O  46.282  33.454  67.637
O  54.824  30.715  31.110
O  45.232  27.183  41.887
O  37.908  45.388  52.515
O  65.370  51.359  71.529
O  41.927  28.495  32.403
O  64.578  29.981  51.537
O  29.413  46.477  38.894
O  51.569  68.301  59.778
O  34.734  62.570  66.686
O  35.108  36.730  56.606
O  41.145  63.453  68.411
O  56.489  41.662  26.274
O  51.128  27.939  57.407
O  50.380  65.410  36.926
O  33.376  70.497  53.204
O  46.939  57.729  32.281
O  25.589  44.029  43.119
O  48.105  38.466  57.400
O  60.567  58.754  47.145
O  63.840  53.639  68.622
O  45.611  40.920  61.685
O  71.501  59.894  36.743
O  47.279  44.991  26.503
O  48.801  49.183  69.695
O  46.614  37.844  42.027
O  66.350  30.838  35.428
O  72.512  53.123  34.265
O  27.649  62.977  54.052
O  25.595  66.374  50.905
O  25.729  65.441  53.651
O  69.419  40.877  53.037
O  57.937  46.865  67.412
O  29.069  62.789  35.556
O  57.814  50.347  31.104
O  49.311  45.891  31.549
O  53.853  46.585  34.513
O  59.479  32.882  52.066
O  41.547  45.657  71.432
O  73.235  52.607  49.742
O  53.543  24.322  49.256
O  63.858  39.525  32.107
O  63.422  62.324  44.132
O  40.285  48.638  62.867
O  40.465  52.640  26.591
O  37.106  39.421  27.798
O  35.762  61.279  34.141
O  64.913  58.646  64.885
O  46.365  47.863  49.176
O  32.752  56.605  30.882
O  51.639  32.768  28.128
O  39.432  45.892  29.280
O  38.278  49.364  67.635
O  72.296  65.488  40.482
O  70.907  39.710  64.076
O  71.030  39.550  57.020
O  30.789  46.918  48.286
O  37.741  49.488  62.089
O  60.525  32.726  68.634
O  47.692  51.514  38.657
O  55.663  30.213  43.582
O  56.810  33.360  50.311
O  45.434  46.001  73.076
O  68.527  57.871  53.614
O  72.012  56.879  48.925
O  40.352  52.137  63.113
O  37.953  59.066  36.972
O  31.752  48.653  67.240
O  31.951  31.685  46.675
O  38.882  73.236  48.539
O  46.554  71.423  48.849
O  58.755  65.067  58.438
O  44.537  43.398  61.164
O  53.570  67.109  65.551
O  36.500  71.701  40.174
O  54.412  59.644  72.163
O  35.775  31.516  57.492
O  66.010  48.085  35.465
O  58.085  37.786  67.510
O  60.784  74.688  40.681
O  47.011  48.267  73.601
O  45.260  58.621  65.804
O  53.169  39.455  47.800
O  26.248  37.376  59.093
O  35.145  45.737  31.610
O  55.492  41.682  63.709
O  37.648  44.795  27.375
O  50.236  65.490  32.406
O  43.867  60.758  63.458
O  54.020  38.436  45.372
O  30.278  69.648  47.443
O  63.147  49.918  25.530
O  44.583  67.026  63.550
O  35.256  42.371  42.531
O  46.776  64.421  64.258
O  62.381  51.426  54.621
O  38.409  37.284  38.579
O  45.927  67.208  31.237
O  43.902  53.396  64.898
O  64.376  52.339  52.673
O  57.649  44.560  55.777
O  72.752  65.069  43.402
O  47.365  49.790  21.805
O  52.996  35.008  38.543
O  54.926  28.772  62.187
O  59.970  34.123  30.352
O  57.236  44.699  58.614
O  52.217  27.286  63.634
O  37.897  56.412  39.708
O  47.079  41.059  27.795
O  43.016  66.241  43.925
O  49.163  76.328  60.363
O  49.911  46.523  23.311
O  46.006  51.081  28.524
O  57.616  68.717  50.950
O  40.188  55.850  56.194
O  70.062  60.766  62.606
O  27.031  51.831  55.873
O  39.244  28.599  61.793
O  30.622  62.294  54.522
O  52.071  42.912  61.905
O  53.725  33.655  64.072
O  41.417  52.355  41.653
O  63.102  46.300  70.834
O  51.556  25.790  34.627
O  40.198  69.655  66.674
O  35.912  32.341  33.926
O  44.406  51.605  72.378
O  62.114  51.446  49.352
O  39.723  41.095  33.531
O  41.992  51.910  66.069
O  57.011  62.110  45.345
O  46.562  28.092  66.277
O  66.017  50.797  42.274
O  35.005  50.500  57.400
O  57.256  23.706  53.013
O  58.324  60.714  47.370
O  42.287  67.431  29.681
O  60.295  60.907  31.460
O  40.861  43.574  47.931
O  32.003  45.570  45.721
O  60.841  44.765  26.697
O  61.653  43.081  39.568
O  29.369  41.976  34.742
O  41.717  55.046  53.790
O  47.938  31.417  68.779
O  68.388  62.085  42.668
O  53.510  38.119  68.202
O  32.066  39.304  39.124
O  41.718  62.580  34.260
O  50.177  78.044  55.054
O  63.033  62.057  56.670
O  65.302  47.275  46.136
O  33.768  41.255  65.869
O  44.518  36.410  47.000
O  28.053  58.373  51.033
O  51.245  72.221  47.521
O  27.316  50.127  34.937
O  32.125  38.148  47.861
O  38.040  69.912  54.569
O  69.596  42.082  50.286
O  47.307  30.228  44.548
O  64.880  40.669  34.546
O  69.911  38.858  49.785
O  63.472  35.538  34.287
O  62.443  47.323  68.211
O  41.847  61.395  43.613
O  53.152  68.823  32.388
O  59.666  33.212  55.958
O  49.756  61.168  25.555
O  58.590  39.878  60.404
O  42.086  33.677  39.035
O  57.235  37.547  70.272
O  73.094  56.540  54.248
O  50.284  53.607  73.564
O  59.717  71.922  39.396
O  55.050  24.037  59.527
O  64.767  51.474  33.940
O  41.583  31.393  51.850
O  37.041  51.133  52.423
O  48.984  43.166  28.850
O  50.164  69.596  44.700
O  66.718  57.359  45.704
O  45.279  51.595  69.574
O  40.682  27.987  64.130
O  56.817  58.307  72.566
O  42.426  52.396  55.834
O  53.892  30.372  64.428
O  35.260  64.997  37.060
O  54.417  51.808  70.384
O  33.567  40.027  69.672
O  30.421  62.594  64.462
O  30.954  50.674  60.812
O  45.793  62.469  62.353
O  75.971  47.788  49.618
O  48.185  59.363  37.802
O  41.883  55.462  64.568
O  52.092  64.543  53.319
O  56.546  43.395  51.008
O  47.767  21.101  50.267
O  46.924  53.424  24.041
O  66.840  39.854  45.894
O  37.665  64.202  70.785
O  28.144  56.413  39.304
O  44.471  68.032  42.148
O  29.224  39.759  38.048
O  44.142  25.449  35.215
O  39.682  61.856  70.267
O  62.697  36.707  52.556
O  71.226  53.930  51.248
O  30.660  48.065  30.504
O  60.845  72.262  42.239
O  64.287  43.513  40.457
O  68.599  53.788  52.819
O  56.816  30.535  60.154
O  58.933  56.804  59.701
O  46.871  63.600  54.503
O  54.709  62.484  73.542
O  62.596  60.799  46.580
O  47.485  63.797  37.922
O  57.060  26.819  44.760
O  55.331  26.956  52.295
O  39.377  47.202  49.053
O  47.776  42.441  56.995
O  29.585  57.175  53.179
O  64.582  35.507  43.618
O  41.730  31.198  60.307
O  42.518  40.765  33.383
O  47.065  37.591  31.569
O  59.424  49.772  39.283
O  43.134  63.164  25.727
O  59.202  66.431  50.046
O  36.370  62.950  50.299
O  67.359  58.388  62.514
O  64.534  30.761  63.324
O  28.030  36.035  46.887
O  51.470  44.166  22.648
O  54.971  26.310  64.020
O  52.514  49.416  35.577
O  46.346  40.947  32.887
O  41.659  72.771  56.973
O  45.704  36.958  71.687
O  27.552  37.536  39.343
O  57.260  53.613  23.886
O  58.964  46.568  64.480
O  66.348  49.812  44.988
O  67.527  40.329  48.769
O  52.096  56.317  61.179
O  34.165  44.081  56.204
O  68.918  31.092  58.306
O  46.524  44.640  40.402
O  46.093  66.933  40.089
O  39.024  53.159  58.163
O  48.849  45.234  76.538
O  30.530  49.269  42.523
O  61.139  60.013  44.404
O  25.710  55.573  40.840
O  35.108  28.771  56.276
O  49.617  29.980  58.833
O  50.562  35.768  66.189
O  49.033  52.208  26.575
O  74.975  50.872  56.362
O  56.214  40.444  50.380
O  57.624  34.060  53.826
O  67.256  63.833  64.869
O  32.362  38.474  53.908
O  31.411  42.800  56.426
O  45.336  32.061  63.717
O  70.419  49.590  62.591
O  59.419  68.603  31.474
O  34.190  72.845  54.999
O  40.742  68.689  35.051
O  66.841  47.037  48.613
O  47.294  63.447  71.894
O  35.203  55.230  31.023
O  59.076  64.618  69.343
O  69.222  42.111  69.321
O  34.017  47.156  47.110
O  73.238  36.040  44.498
O  62.144  56.103  46.257
O  40.897  52.737  47.561
O  63.378  40.780  39.136
O  75.217  38.251  41.552
O  50.031  36.631  33.166
O  60.876  45.642  24.000
O  74.879  38.962  53.587
O  70.547  41.546  46.795
O  69.996  63.570  39.779
O  49.051  75.471  54.221
O  47.037  53.416  77.247
O  65.720  38.744  55.803
O  73.016  55.286  37.359
O  38.955  54.097  41.711
O  44.880  26.604  47.725
O  63.750  41.433  54.189
O  54.806  37.970  50.343
O  61.566  38.625  46.057
O  28.289  38.133  63.864
O  33.024  46.433  29.680
O  57.143  38.403  30.274
O  39.604  32.990  54.676
O  56.717  54.954  44.089
O  49.015  53.970  37.515
O  59.517  63.984  29.845
O  42.237  43.099  39.477
O  30.778  55.306  29.221
O  42.193  42.099  66.821
O  72.171  51.870  38.585
O  41.727  46.735  35.647
O  40.947  76.501  56.132
O  54.243  55.229  42.579
O  44.672  43.559  32.564
O  32.894  60.939  52.575
O  38.939  56.913  45.053
O  38.189  56.456  61.891
O  66.907  41.008  58.347
O  63.042  36.791  27.674
O  29.645  47.614  61.468
O  36.974  47.464  47.287
O  52.016  36.520  35.311
O  37.312  65.571  32.694
O  72.947  52.126  52.879
O  40.081  69.101  45.923
O  46.059  37.604  55.586
O  32.830  27.752  42.649
O  40.182  37.398  33.469
O  55.938  39.109  42.202
O  45.545  43.750  55.277
O  67.680  37.279  48.564
O  45.223  37.991  66.293
O  40.803  50.337  27.686
O  55.661  59.992  55.380
O  35.902  48.412  42.415
O  38.856  47.297  35.014
O  71.899  58.009  43.408
O  49.434  66.609  29.591
O  59.839  32.187  63.119
O  59.411  55.042  43.364
O  73.425  47.694  36.382
O  24.909  57.851  57.704
O  47.122  51.271  35.785
O  40.085  63.417  36.639
O  31.407  50.987  30.590
O  31.448  67.040  60.804
O  47.407  27.093  51.525
O  54.279  34.680  35.923
O  42.407  53.005  70.735
O  29.403  45.863  52.147
O  32.496  64.770  62.387
O  71.380  44.286  34.632
O  55.977  64.040  58.734
O  42.038  34.463  55.164
O  73.194  65.974  57.163
O  57.923  70.520  46.474
O  54.892  59.443  68.560
O  47.569  38.868  73.805
O  59.695  57.049  41.343
O  60.341  59.223  56.585
O  36.880  47.696  57.487
O  53.860  55.712  37.725
O  68.955  55.258  29.507
O  39.032  39.242  50.139
O  38.992  38.475  35.837
O  40.787  50.626  68.330
O  37.523  38.726  63.585
O  61.255  44.076  36.946
O  61.992  61.343  53.945
O  70.066  47.043  34.970
O  48.075  49.718  76.965
O  40.495  45.714  62.347
O  40.736  37.174  68.977
O  43.069  60.883  32.395
O  46.520  55.127  70.150
O  66.944  68.099  56.330
O  35.663  34.503  58.352
O  71.736  55.437  64.997
O  37.198  68.106  41.618
O  29.617  50.282  55.696
O  49.745  34.919  58.072
O  43.104  63.665  63.615
O  67.511  70.725  61.120
O  56.814  67.420  67.734
O  73.506  46.438  49.596
O  63.508  40.646  46.041
O  33.175  39.328  50.151
O  55.576  41.929  23.370
O  47.851  70.960  69.277
O  46.603  21.891  45.730
O  48.799  68.162  37.651
O  60.616  53.665  28.513
O  42.592  56.957  48.724
O  61.936  26.840  49.492
O  66.327  47.123  43.360
O  69.672  38.698  45.988
O  50.561  26.429  44.673
O  33.418  49.179  41.287
O  40.622  39.432  59.743
O  45.917  70.170  40.699
O  65.275  48.896  32.601
O  50.236  31.887  38.903
O  43.255  51.060  47.660
O  64.858  60.689  39.700
O  54.056  72.525  41.637
O  40.214  44.829  54.525
O  57.400  73.019  60.012
O  37.433  73.683  59.501
O  41.119  48.767  23.841
O  37.382  69.765  44.989
O  72.395  36.882  54.276
O  48.456  28.101  46.218
O  61.598  48.715  48.367
O  53.909  29.204  54.339
O  33.117  57.439  36.386
O  71.990  42.763  41.282
O  37.744  40.877  35.491
O  61.984  56.828  39.375
O  51.812  42.695  71.138
O  51.716  45.610  25.546
O  66.679  43.667  42.931
O  65.249  55.175  32.866
O  39.547  60.618  34.818
O  44.421  64.592  60.892
O  64.364  64.155  40.114
O  64.256  30.895  60.427
O  47.192  50.677  71.574
O  61.024  40.180  73.723
O  43.433  67.303  39.510
O  40.221  28.102  42.834
O  37.960  70.254  47.760
O  65.474  67.644  40.025
O  31.446  40.352  43.889
O  55.685  57.034  74.879
O  27.813  36.997  56.716
O  31.563  61.062  66.642
O  39.166  49.176  72.581
O  39.593  71.195  61.200
O  61.611  41.772  55.755
O  64.584  45.558  42.159
O  62.236  26.308  46.550
O  53.108  36.169  62.400
O  57.285  34.360  56.822
O  56.541  54.671  68.728
O  48.876  61.242  72.922
O  41.549  34.657  49.679
O  32.691  59.028  38.616
O  56.730  52.210  71.875
O  38.443  57.885  57.166
O  34.482  31.387  60.058
O  34.000  57.111  46.404
O  39.425  36.953  65.019
O  51.326  23.037  55.576
O  45.024  65.125  69.952
O  47.347  51.312  67.605
O  44.695  69.526  50.174
O  39.732  34.845  58.149
O  52.252  25.591  58.677
O  44.173  31.705  38.771
O  51.042  38.539  57.310
O  24.678  62.603  53.182
O  70.191  66.298  49.202
O  67.599  37.742  43.943
O  27.459  56.033  63.139
O  35.677  41.307  67.992
O  48.393  41.238  23.014
O  66.430  39.273  38.230
O  46.194  68.912  65.143
O  51.325  58.978  57.432
O  62.878  61.967  40.977
O  67.435  47.230  68.505
O  63.295  63.404  47.422
O  65.555  37.917  34.196
O  38.423  29.075  36.911
O  36.706  37.714  49.338
O  62.258  32.037  51.638
O  61.687  75.021  52.648
O  46.734  60.979  35.844
O  52.742  63.228  63.779
O  43.825  71.035  47.207
O  50.653  72.438  36.434
O  66.050  41.609  61.318
O  35.662  64.400  62.219
O  66.119  53.057  30.847
O  52.582  43.595  64.634
O  51.891  26.467  41.836
O  65.215  52.837  55.459
O  32.602  36.771  57.922
O  67.068  44.321  61.930
O  65.707  42.261  45.055
O  48.462  67.628  49.802
O  65.650  55.028  47.686
O  58.489  60.721  53.266
O  50.492  51.225  37.129
O  40.054  54.550  61.782
O  58.783  42.312  54.198
O  28.876  57.574  48.282
O  65.725  52.675  44.967
O  24.878  47.235  39.257
O  44.104  51.882  39.742
O  36.278  39.557  33.497
O  31.814  51.969  36.834
O  50.911  25.461  53.275
O  54.409  40.635  52.718
O  72.832  39.322  44.475
O  69.040  51.470  45.757
O  62.641  28.077  52.457
O  27.682  51.446  53.185
O  61.160  44.932  48.141
O  37.915  43.528  36.818
O  65.283  62.683  66.869
O  76.400  40.248  44.085
O  44.644  72.736  64.022
O  58.881  75.850  49.635
O  44.569  61.604  54.422
O  36.724  33.107  43.414
O  69.663  47.030  48.225
O  56.342  60.551  39.911
O  34.382  35.340  54.132
O  52.786  22.750  44.666
O  62.809  43.085  58.088
O  64.886  41.478  70.811
O  35.986  52.346  37.538
O  62.653  48.827  56.928
O  45.348  45.308  57.861
O  39.204  60.428  55.683
O  54.689  26.207  42.384
O  52.363  36.306  55.915
O  41.097  65.278  57.727
O  57.048  32.925  31.509
O  31.797  39.457  31.931
O  53.739  29.339  51.501
O  55.853  27.922  59.337
O  43.792  67.458  71.454
O  48.092  44.844  36.566
O  26.000  62.812  46.177
O  57.752  22.950  50.102
O  36.519  66.962  35.368
O  38.936  71.718  57.555
O  25.442  49.262  37.074
O  36.999  37.292  72.215
O  25.513  59.570  45.731
O  47.302  65.266  32.779
O  70.782  53.756  59.541
O  37.436  63.005  67.695
O  41.332  47.940  74.141
O  60.466  45.802  66.945
O  63.144  31.538  54.151
O  26.436  48.032  65.938
O  33.831  70.513  38.752
O  53.795  27.568  34.915
O  75.269  57.000  38.671
O  33.401  28.550  53.477
O  67.053  31.493  55.768
O  44.027  46.334  69.624
O  69.243  43.993  41.734
O  50.725  71.733  62.676
O  39.772  36.470  72.437
O  62.302  61.983  27.796
O  64.017  56.486  67.623
O  74.471  61.929  48.490
O  72.493  46.271  42.977
O  45.821  53.860  59.764
O  36.818  59.849  59.640
O  52.501  38.960  30.056
O  56.020  56.928  26.328
O  41.781  44.920  31.003
O  58.190  68.726  61.635
O  38.826  32.655  48.806
O  57.641  65.910  55.685
O  65.636  61.658  42.494
O  69.333  33.275  53.206
O  33.142  51.770  52.993
O  44.069  60.118  60.755
O  65.967  35.323  38.597
O  45.872  62.486  44.575
O  30.069  45.590  56.051
O  68.540  68.398  45.369
O  56.169  66.200  70.201
O  44.939  66.211  55.901
O  58.119  41.168  62.870
O  54.142  27.999  56.988
O  47.686  56.780  65.884
O  63.162  49.159  72.550
O  78.103  44.719  48.368
O  68.343  37.063  67.869
O  59.284  59.545  71.504
O  57.556  63.007  73.310
O  24.631  60.357  42.731
O  42.872  62.683  37.151
O  57.562  39.680  44.627
O  72.095  52.603  64.113
O  44.504  59.045  48.319
O  47.098  64.726  29.959
O  69.026  45.445  57.250
O  36.180  40.026  50.756
O  40.280  59.950  68.266
O  59.934  47.201  69.860
O  31.117  44.393  29.118
O  38.826  37.133  26.196
O  56.544  29.252  53.533
O  42.975  74.509  51.386
O  30.202  41.909  40.351
O  36.173  67.965  48.271
O  55.394  69.627  43.060
O  71.316  59.275  53.656
O  51.769  37.092  28.147
O  59.596  53.532  76.223
O  25.960  57.510  47.910
O  33.220  57.672  48.847
O  36.949  31.172  41.010
O  31.662  67.380  45.642
O  52.738  68.508  43.578
O  36.886  27.489  57.791
O  37.841  51.076  27.345
O  64.205  70.330  53.902
O  37.380  53.944  33.222
O  57.514  64.465  48.329
O  32.256  35.007  40.993
O  59.749  65.830  65.728
O  37.430  63.584  64.334
O  49.003  50.682  41.302
O  66.762  64.658  62.032
O  48.535  75.639  43.426
O  69.880  50.123  30.309
O  54.654  65.751  55.055
O  61.320  57.826  26.408
O  42.160  64.449  39.404
O  46.783  62.082  47.773
O  36.298  57.447  64.838
O  66.018  60.975  59.244
O  35.753  54.628  35.522
O  56.554  50.185  69.807
O  47.909  60.995  61.013
O  54.142  72.249  45.305
O  40.694  44.472  37.316
O  41.817  66.342  68.727
O  41.914  34.304  29.182
O  62.334  37.096  38.227
O  42.972  53.982  58.336
O  62.851  60.914  71.737
O  27.092  57.345  42.731
O  69.777  47.184  30.042
O  58.811  45.518  61.236
O  54.730  32.150  52.166
O  51.628  52.741  70.407
O  57.959  52.501  28.308
O  50.086  27.190  49.843
O  57.894  72.804  63.466
O  63.129  59.297  68.296
O  60.874  27.251  60.839
O  60.196  24.225  45.425
O  41.791  56.207  32.611
O  51.081  37.510  38.454
O  68.624  44.556  67.916
O  46.041  75.956  44.869
O  53.857  43.630  28.352
O  63.320  52.444  46.539
O  34.305  58.349  42.158
O  39.584  47.929  45.848
O  36.110  26.817  49.913
O  39.814  50.706  45.822
O  30.402  50.302  52.926
O  51.892  29.111  46.874
O  49.318  38.950  42.197
O  35.026  41.989  60.841
O  32.579  60.389  29.894
O  69.983  42.166  58.816
O  48.152  61.359  39.775
O  59.798  66.857  54.049
O  49.906  37.595  30.391
O  34.906  44.021  26.797
O  54.799  65.303  49.487
O  29.726  43.556  53.883
O  40.073  55.432  47.611
O  26.523  39.524  61.994
O  50.369  21.656  51.507
O  46.970  72.477  55.650
O  37.032  33.910  50.328
O  36.444  48.847  30.156
O  50.946  52.933  24.707
O  50.792  60.973  41.656
O  49.046  23.039  53.621
O  58.575  58.498  25.724
O  42.479  49.034  66.290
O  33.805  59.766  32.718
O  41.253  25.527  54.239
O  65.860  43.913  53.982
O  25.313  54.226  62.202
O  73.370  43.596  54.627
O  53.647  65.672  36.305
O  51.617  51.802  22.139
O  47.343  64.871  50.004
O  61.461  67.968  66.817
O  33.252  68.384  58.429
O  34.645  47.585  55.646
O  45.401  45.629  77.784
O  34.565  27.502  47.656
O  50.456  29.526  63.299
O  53.600  55.578  23.907
O  53.447  41.817  25.564
O  36.542  38.488  68.699
O  43.113  37.770  53.832
O  70.619  48.620  66.016
O  51.086  46.696  64.127
O  56.873  71.147  67.772
O  60.826  35.264  69.939
O  59.783  69.867  37.207
O  58.958  51.150  58.550
O  33.630  47.037  43.434
O  39.511  72.461  54.065
O  58.812  60.259  28.980
O  36.270  46.716  44.730
O  27.531  45.099  40.240
O  53.488  61.407  27.840
O  30.311  50.837  34.854
O  23.240  54.490  46.136
O  33.079  42.743  54.001
O  55.450  41.215  36.540
O  59.546  31.327  47.228
O  67.459  43.666  59.041
O  28.727  54.944  42.008
O  74.576  42.402  48.911
O  47.635  35.014  55.920
O  58.717  49.086  52.875
O  57.243  72.144  57.272
O  29.719  52.786  66.036
O  31.416  55.671  47.347
O  41.733  65.704  60.594
O  31.289  47.803  40.253
O  47.349  60.044  45.879
O  58.597  44.575  49.339
O  61.816  50.578  59.255
O  38.587  63.046  48.680
O  65.710  50.842  26.242
O  55.589  31.572  54.960
O  58.837  50.537  26.019
O  42.478  67.044  51.203
O  75.080  41.555  52.617
O  31.362  39.521  36.108
O  39.393  57.318  42.095
O  72.919  56.625  62.227
O  36.009  71.481  58.335
O  62.351  59.779  29.636
O  33.705  33.015  35.540
O  61.983  63.090  59.025
O  65.709  31.240  42.556
O  41.514  50.528  31.177
O  61.343  66.576  63.453
O  26.065  43.130  63.552
O  32.199  53.915  44.866
O  36.401  53.801  73.349
O  34.340  62.198  48.447
O  57.392  31.288  33.777
O  46.572  27.727  55.293
O  32.518  48.154  33.970
O  51.492  67.848  35.792
O  39.230  27.908  48.229
O  57.733  51.900  34.061
O  31.998  65.363  43.131
O  42.787  57.739  53.624
O  68.555  39.979  36.050
O  64.536  55.009  53.924
O  29.152  43.497  30.958
O  62.305  49.628  69.770
O  50.287  59.991  32.928
O  45.575  28.923  38.215
O  50.517  40.287  38.017
O  39.396  40.036  56.010
O  39.947  63.251  60.120
O  48.275  28.069  61.104
O  52.644  30.380  56.509
O  62.764  56.930  29.265
O  61.714  64.841  39.364
O  40.892  33.158  46.888
O  60.471  38.775  52.827
O  62.241  55.274  25.024
O  61.741  63.702  49.732
O  34.084  56.164  43.923
O  42.040  40.311  54.882
O  35.247  42.504  46.657
O  62.939  49.268  62.663
O  54.760  70.559  61.960
O  60.985  51.381  51.929
O  42.948  30.583  63.096
O  65.112  44.423  46.801
O  46.209  48.518  31.722
O  40.550  59.651  45.516
O  40.118  51.261  53.035
O  28.706  60.681  49.862
O  43.919  24.873  43.818
O  37.949  46.499  31.674
O  50.840  40.486  51.862
O  54.352  49.181  38.221
O  32.169  35.803  67.095
O  68.407  57.635  36.732
O  42.616  29.463  37.833
O  42.073  35.446  32.541
O  56.548  66.408  37.166
O  51.384  41.233  23.067
O  37.141  70.695  35.326
O  73.433  39.928  37.527
O  40.598  65.621  28.090
O  30.076  64.178  50.498
O  24.518  51.771  57.495
O  58.096  72.268  32.577
O  61.546  57.335  63.857
O  62.736  28.834  55.672
O  42.521  27.028  57.460
O  46.790  54.058  66.301
O  40.636  55.754  59.085
O  67.563  47.059  59.057
O  62.386  70.075  36.634
O  42.209  72.288  45.439
O  47.881  60.485  27.972
O  55.824  59.208  62.843
O  44.533  25.113  39.497
O  69.200  57.349  40.324
O  33.824  44.928  71.462
O  58.208  51.548  74.337
O  48.607  72.109  41.108
O  39.418  44.554  34.962
O  42.953  60.694  40.402
O  38.959  67.586  43.664
O  61.397  48.663  65.327
O  32.931  45.297  34.936
O  49.992  33.769  36.586
O  62.577  75.133  45.393
O  52.489  61.035  68.459
O  44.036  73.736  38.393
O  63.787  57.826  44.533
O  68.807  35.624  54.747
O  64.951  51.537  61.202
O  40.686  44.009  68.063
O  38.655  41.547  52.259
O  57.661  66.420  42.413
O  52.470  37.453  65.091
O  50.917  50.005  71.507
O  27.172  59.753  55.068
O  31.929  50.729  50.835
O  28.781  42.871  62.230
O  50.413  34.607  70.018
O  31.902  64.660  35.342
O  52.775  59.044  44.100
O  37.624  56.231  29.583
O  35.548  49.136  67.096
O  71.956  51.887  57.641
O  38.169  53.885  27.711
O  56.038  40.397  69.244
O  44.771  31.582  44.359
O  63.169  64.519  36.217
O  44.751  53.749  37.214
O  71.123  50.044  59.807
O  60.278  42.867  62.971
O  56.490  26.048  37.663
O  41.227  67.218  37.832
O  57.953  54.518  60.894
O  64.141  36.557  59.828
O  44.736  27.470  44.956
O  65.770  55.539  29.163
O  39.976  31.892  33.249
O  43.758  59.395  45.047
O  48.723  58.567  25.640
O  56.844  46.298  74.367
O  68.087  61.698  33.863
O  50.707  31.951  68.107
O  25.615  52.247  64.402
O  41.686  68.636  43.416
O  34.288  35.432  33.223
O  58.778  64.462  35.942
O  33.961  72.602  50.234
O  64.567  33.364  50.020
O  42.333  62.622  61.401
O  66.743  50.931  47.681
O  72.041  40.890  48.952
O  57.572  53.555  31.490
O  32.033  42.551  36.163
O  47.485  42.830  63.161
O  55.073  51.756  30.423
O  46.611  21.471  52.884
O  40.158  67.636  32.412
O  33.800  51.888  48.927
O  63.525  46.434  48.437
O  35.350  36.671  63.746
O  43.434  38.160  32.672
O  63.695  32.925  56.589
O  44.286  57.302  31.652
O  58.106  42.325  33.039
O  66.971  49.078  50.644
O  47.925  35.924  28.650
O  49.421  73.707  49.346
O  39.342  70.162  42.135
O  59.979  23.926  52.557
O  32.609  39.960  56.402
O  50.811  38.262  71.539
O  67.510  54.593  55.425
O  58.858  26.539  39.307
O  65.159  40.614  42.612
O  36.144  74.328  51.568
O  63.976  48.163  41.948
O  37.848  25.727  47.054
O  36.554  65.506  42.648
O  67.332  45.379  45.258
O  68.813  43.790  54.984
O  59.651  62.173  26.728
O  24.948  52.091  52.189
O  60.790  35.656  54.985
O  71.346  56.656  59.202
O  48.101  63.391  27.467
O  48.841  50.304  24.209
O  56.519  65.552  34.026
O  54.946  55.109  32.117
O  66.301  65.658  54.454
O  30.052  40.855  64.663
O  44.474  26.519  53.855
O  46.977  28.313  48.801
O  64.720  28.757  58.654
O  75.037  41.194  41.541
O  62.485  49.191  34.688
O  53.884  43.334  68.101
O  41.630  30.377  30.252
O  68.328  51.496  67.278
O  48.670  74.419  46.072
O  68.943  48.722  46.187
O  47.644  45.246  53.832
O  29.442  50.877  58.356
O  50.656  28.790  40.325
O  48.154  27.810  63.921
O  41.301  38.959  48.256
O  54.771  30.148  34.380
O  34.004  51.918  28.398
O  55.776  52.776  41.714
O  37.517  51.489  71.099
O  44.082  31.280  52.999
O  63.412  58.936  50.428
O  37.391  68.653  32.966
O  37.950  38.208  54.014
O  54.050  48.696  31.304
O  43.266  62.846  30.297
O  59.828  64.485  44.926
O  59.372  53.445  70.632
O  55.333  53.227  38.055
O  33.661  67.350  34.009
O  51.989  28.780  43.955
O  41.518  69.512  59.684
O  68.953  44.634  31.516
O  68.932  34.925  58.064
O  61.378  45.274  59.738
O  53.758  57.118  40.309
O  41.564  32.671  57.742
O  43.251  35.110  71.175
O  40.290  62.733  63.337
O  59.392  48.835  23.405
O  40.520  70.770  32.989
O  48.416  55.220  59.746
O  46.261  61.427  68.177
O  21.477  43.715  51.858
O  47.992  32.450  34.894
O  69.995  31.556  42.488
O  41.146  39.646  66.245
O  45.163  42.730  67.991
O  64.850  71.420  37.278
O  63.982  57.799  58.127
O  45.341  35.839  33.045
O  35.046  69.100  43.543
O  61.000  64.823  56.788
O  27.303  63.339  40.323
O  27.770  60.817  47.147
O  30.799  45.103  62.497
O  52.759  31.675  48.137
O  40.598  72.648  51.389
O  59.479  55.312  38.736
O  40.565  27.346  39.860
O  29.948  32.639  41.103
O  32.396  34.678  43.887
O  34.630  68.072  54.139
O  66.181  36.051  46.095
O  31.139  48.243  58.942
O  56.337  43.242  70.255
O  27.612  45.734  44.083
O  38.102  59.215  40.044
O  67.634  44.309  39.059
O  45.032  69.874  55.159
O  66.868  61.122  37.461
O  32.043  60.017  42.885
O  30.350  53.605  48.749
O  35.771  54.341  51.186
O  46.729  56.411  24.465
O  56.071  47.227  32.614
O  53.914  61.506  47.029
O  35.672  40.760  37.351
O  38.831  53.753  52.415
O  56.551  47.139  29.686
O  50.899  26.487  61.102
O  63.697  51.634  40.602
O  70.459  45.129  49.892
O  50.233  59.384  35.776
O  59.043  68.598  39.739
O  65.929  59.968  52.241
O  51.377  76.407  43.296
O  31.597  50.658  39.455
O  52.938  35.992  59.037
O  53.257  51.918  36.556
O  25.426  57.771  53.718
O  34.408  53.160  33.083
O  66.703  61.203  49.866
O  56.904  69.942  55.064
O  44.242  58.881  55.911
O  46.345  66.031  72.627
O  47.486  31.830  56.829
O  42.294  36.203  58.465
O  55.527  72.535  55.229
O  46.426  42.428  30.244
O  39.644  53.115  55.322
O  55.006  64.918  64.450
O  63.427  51.118  67.186
O  52.567  53.885  40.877
O  36.559  54.818  44.630
O  34.642  47.545  35.931
O  38.356  57.812  73.312
O  27.929  61.117  63.960
O  26.058  52.783  46.179
O  71.909  43.154  37.596
O  46.050  44.537  70.454
O  58.362  67.928  35.484
O  71.596  61.884  55.346
O  61.994  55.334  41.798
O  60.348  47.086  40.119
O  29.284  47.280  45.795
O  47.795  66.088  42.237
O  64.631  55.407  45.020
O  37.100  59.526  51.616
O  39.755  32.927  44.262
O  63.229  35.952  46.678
O  72.320  37.657  42.114
O  52.259  32.208  35.730
O  27.708  33.311  44.297
O  49.756  47.954  61.171
O  30.215  37.584  43.528
O  62.488  24.672  51.358
O  36.529  70.845  62.350
O  39.871  61.416  41.384
O  52.235  69.324  50.818
O  49.303  42.447  76.496
O  38.197  56.919  69.317
O  44.412  36.128  68.631
O  21.360  46.772  51.527
O  43.912  40.406  73.316
O  51.412  72.603  54.545
O  49.099  61.399  57.465
O  29.074  50.240  48.537
O  59.619  33.560  65.766
O  53.852  46.134  67.344
O  34.480  52.542  67.914
O  60.305  66.661  37.603
O  70.730  45.346  39.766
O  48.828  36.498  72.618
O  26.022  65.578  46.759
O  73.108  57.104  40.802
O  74.343  43.745  57.256
O  35.869  42.135  57.933
O  67.603  52.963  41.341
O  38.481  48.800  43.170
O  35.224  40.064  40.906
O  51.267  72.114  50.676
O  45.064  33.015  55.177
O  56.202  63.520  69.142
O  70.243  65.901  44.938
O  50.479  42.786  68.593
O  35.146  26.332  52.654
O  62.618  26.815  40.755
O  41.483  64.199  42.600
O  67.122  66.903  63.906
O  25.705  54.904  53.247
O  49.940  74.139  56.631
O  38.971  57.985  54.304
O  24.843  39.936  47.175
O  62.194  48.081  23.613
O  65.550  50.369  57.164
O  72.597  50.440  46.161
O  38.796  51.837  31.803
O  67.185  38.703  41.026
O  24.488  48.179  61.557
O  64.813  43.901  69.509
O  67.172  42.331  35.169
O  35.174  57.720  39.661
O  38.974  64.764  44.415
O  38.899  41.170  61.098
O  31.092  53.507  63.330
O  50.547  50.666  28.411
O  48.208  37.822  65.843
O  55.698  39.196  66.716
O  41.359  46.763  68.093
O  49.497  68.132  64.791
O  42.997  71.868  49.780
O  58.367  30.502  66.293
O  36.299  45.104  68.949
O  32.749  60.883  63.938
O  52.141  39.960  54.393
O  35.602  46.204  28.973
O  42.534  72.600  36.323
O  56.178  49.522  25.131
O  25.257  52.216  35.649
O  73.759  52.626  59.759
O  61.057  51.095  24.014
O  61.853  42.245  47.654
O  30.157  61.642  51.927
O  50.079  57.498  28.197
O  70.385  55.181  62.190
O  66.164  73.368  52.656
O  72.330  35.545  40.148
O  68.009  68.711  48.663
O  48.470  70.448  66.327
O  45.527  31.360  34.813
O  60.895  42.058  27.041
O  33.103  49.352  62.142
O  42.787  52.204  53.070
O  48.296  31.821  52.546
O  36.259  54.856  47.486
O  59.442  36.240  57.642
O  30.266  38.438  57.223
O  37.417  39.873  71.137
O  37.638  54.458  37.532
O  66.669  60.795  65.433
O  46.072  31.869  71.031
O  70.293  34.393  42.090
O  49.831  40.043  75.177
O  30.765  56.216  50.221
O  72.165  50.550  55.224
O  63.650  35.602  55.327
O  40.184  74.167  37.798
O  29.538  36.239  59.082
O  66.223  64.056  50.848
O  32.768  57.510  53.321
O  48.847  72.720  64.605
O  30.491  34.072  60.653
O  49.755  55.093  64.975
O  58.502  36.176  60.861
O  47.800  52.390  62.539
O  58.408  58.885  64.873
O  30.572  40.659  61.570
O  50.610  48.128  30.005
O  57.402  65.958  45.398
O  66.097  48.732  72.490
O  60.785  44.471  52.904
O  69.533  53.028  34.453
O  31.222  47.954  51.596
O  73.431  41.866  35.416
O  28.445  43.435  42.278
O  37.848  65.155  59.332
O  41.438  36.090  26.863
O  43.942  42.860  24.615
O  64.224  47.073  55.267
O  62.807  48.899  45.241
O  63.377  73.084  53.719
O  31.785  59.154  58.244
O  62.812  72.095  40.107
O  48.619  49.719  33.061
O  64.708  58.022  53.940
O  66.142  49.779  67.757
O  43.210  46.970  33.318
O  61.672  52.113  61.632
O  34.931  50.703  70.033
O  40.422  48.479  70.057
O  32.019  68.387  39.630
O  45.088  72.970  57.795
O  62.418  40.906  36.265
O  40.052  32.786  30.631
O  42.194  48.094  38.399
O  55.816  49.441  28.075
O  60.397  53.234  37.095
O  48.166  60.747  50.000
O  61.715  44.897  43.098
O  50.311  39.331  24.948
O  42.112  58.086  41.160
O  41.330  22.918  52.893
O  43.265  60.112  36.088
O  55.918  50.601  36.054
O  41.774  66.261  63.618
O  38.948  49.027  31.056
O  60.578  62.422  43.162
O  53.333  69.667  37.081
O  65.407  41.742  67.737
O  64.993  33.773  61.246
O  68.462  42.763  45.300
O  76.586  44.100  40.892
O  33.007  38.976  61.887
O  48.325  70.802  38.495
O  31.958  36.469  50.641
O  33.008  66.463  37.676
O  51.003  75.171  47.406
O  51.143  55.190  22.310
O  26.762  45.196  65.486
O  40.716  57.858  34.863
O  57.473  26.159  47.630
O  45.814  37.149  39.397
O  36.272  32.964  54.953
O  44.598  27.659  32.831
O  49.211  33.216  65.847
O  38.739  44.605  59.997
O  26.080  49.374  47.392
O  51.041  43.729  30.692
O  58.831  71.813  44.056
O  58.623  39.697  28.149
O  47.841  57.939  41.153
O  66.647  41.076  54.057
O  52.811  46.206  30.088
O  73.214  61.149  53.141
O  54.978  36.490  66.078
O  63.275  43.025  51.924
O  60.626  37.744  28.622
O  31.131  55.979  33.174
O  52.400  54.200  75.971
O  59.766  62.958  62.003
O  66.470  33.225  33.870
O  28.644  69.050  49.770
O  64.078  58.438  47.352
O  60.193  52.340  66.341
O  48.715  35.835  25.741
O  39.318  33.283  36.945
O  62.726  65.335  51.870
O  35.378  59.572  30.320
O  47.737  58.725  58.332
O  43.768  43.291  29.813
O  35.317  33.763  37.656
O  59.987  38.691  38.065
O  49.146  47.369  66.426
O  34.424  44.409  44.464
O  26.806  62.159  42.932
O  51.875  41.594  32.369
O  49.066  62.649  64.713
O  45.341  44.228  64.703
O  23.829  44.507  57.025
O  73.375  44.720  45.913
O  50.289  60.203  45.222
O  62.331  48.353  30.384
O  23.046  43.438  47.232
O  62.052  69.377  64.218
O  61.868  54.946  65.894
O  33.773  59.360  60.533
O  39.098  35.348  29.686
O  33.933  48.698  26.922
O  35.669  30.918  37.524
O  60.626  34.773  38.075
O  61.038  35.273  60.048
O  72.974  37.176  49.977
O  41.920  60.369  49.476
O  57.453  36.311  49.196
O  44.901  46.470  25.795
O  55.904  34.664  26.708
O  53.833  23.380  56.951
O  64.931  69.747  64.730
O  43.447  63.475  56.304
O  53.580  39.888  57.035
O  64.676  46.278  59.309
O  44.209  24.912  56.498
O  35.724  60.591  40.963
O  65.576  65.220  37.762
O  22.423  54.700  50.772
O  59.078  31.388  30.045
O  34.710  42.219  49.625
O  56.527  40.301  57.160
O  72.520  46.215  32.658
O  68.755  48.757  43.310
O  31.511  57.906  45.381
O  69.304  30.383  52.991
O  59.771  53.293  25.533
O  73.096  54.072  43.496
O  53.211  32.893  66.873
O  40.559  57.468  51.904
O  63.306  34.947  62.992
O  68.071  54.348  68.078
O  39.629  58.651  59.723
O  33.453  32.015  55.328
O  47.436  66.323  68.927
O  67.810  55.904  63.744
O  34.587  47.817  69.779
O  26.508  47.327  41.892
O  31.126  36.567  45.876
O  40.662  36.174  39.881
O  64.807  60.085  55.832
O  40.304  63.962  72.290
O  51.523  29.755  37.522
O  55.413  44.381  64.753
O  52.349  68.541  63.277
O  58.309  55.189  26.843
O  27.480  36.258  61.530
O  36.467  61.845  38.104
O  76.860  52.960  55.308
O  43.425  30.597  46.720
O  63.904  31.780  40.406
O  37.793  62.575  54.208
O  42.979  32.177  35.773
O  42.191  55.331  36.984
O  42.856  57.173  66.705
O  48.276  63.943  44.381
O  40.535  39.302  52.739
O  73.324  42.101  43.773
O  40.811  37.248  44.434
O  32.350  29.767  44.608
O  42.812  53.997  26.600
O  48.945  72.127  44.522
O  26.186  55.555  44.815
O  43.121  41.189  37.617
O  29.552  48.453  36.281
O  34.121  44.427  66.994
O  64.730  61.599  69.590
O  66.987  67.825  43.061
O  49.882  45.120  61.947
O  61.946  40.818  50.206
O  74.842  50.423  51.055
O  38.054  61.765  61.533
O  40.547  39.660  75.156
O  44.911  58.349  58.746
O  33.402  43.767  58.825
O  67.739  46.493  40.773
O  68.595  31.615  61.022
O  25.971  52.754  41.263
O  28.236  47.796  57.122
O  32.104  26.773  46.353
O  59.110  40.013  31.581
O  65.407  38.693  65.061
O  54.601  42.879  54.551
O  31.139  63.840  47.903
O  56.671  48.943  41.979
O  57.588  74.294  46.133
O  60.874  28.608  39.664
O  51.975  37.310  49.671
O  58.858  55.499  72.501
O  31.241  64.081  40.747
O  43.235  38.088  56.552
O  32.441  49.102  48.785
O  60.022  61.909  51.158
O  57.799  56.491  31.492
O  56.020  28.609  65.404
O  29.863  61.720  41.766
O  63.874  67.504  37.668
O  57.469  44.046  24.671
O  46.779  31.934  32.182
O  54.570  58.069  22.921
O  44.146  39.344  51.001
O  59.185  44.628  38.909
O  54.046  71.799  50.730
O  38.103  56.343  35.124
O  57.075  58.189  29.044
O  30.716  46.839  43.561
O  42.927  49.828  25.702
O  51.038  32.312  63.935
O  57.580  61.873  36.901
O  32.147  63.648  37.968
O  32.254  64.220  59.094
O  43.348  47.471  77.177
O  42.276  30.866  40.944
O  60.016  39.133  63.474
O  24.042  46.151  51.328
O  33.982  33.354  45.730
O  40.057  26.999  35.790
O  56.847  40.235  54.268
O  73.250  64.131  50.094
O  61.359  48.761  54.147
O  54.702  33.086  33.531
O  33.457  41.919  38.765
O  33.231  55.645  41.208
O  53.081  62.261  61.203
O  68.862  41.290  56.172
O  39.276  30.283  53.284
O  33.077  37.060  30.886
O  74.941  49.130  53.956
O  33.992  62.861  41.875
O  62.973  41.752  29.150
O  41.303  40.600  72.088
O  66.864  29.283  60.809
O  37.734  68.325  61.740
O  58.722  56.809  62.794
O  52.872  46.954  37.197
O  39.027  54.726  25.016
O  50.731  33.911  44.824
O  60.083  49.603  73.035
O  63.513  31.224  35.448
O  35.948  57.155  36.686
O  53.339  59.804  59.863
O  64.649  49.594  29.668
O  59.215  47.469  47.462
O  53.750  50.846  67.176
O  59.169  30.588  58.628
O  67.776  48.272  61.661
O  70.209  54.743  48.751
O  64.891  57.300  61.785
O  55.079  36.552  43.293
O  66.374  55.439  66.084
O  65.199  60.028  29.972
O  60.764  29.230  65.247
O  34.908  65.567  59.371
O  51.796  47.398  70.067
O  38.364  65.385  53.906
O  39.247  53.902  73.000
O  31.856  60.697  48.265
O  46.903  71.194  52.869
O  64.933  53.138  49.888
O  54.071  40.769  61.369
O  54.039  37.106  40.610
O  26.048  49.269  54.312
O  34.318  58.897  51.264
O  30.103  66.957  50.962
O  38.543  35.688  48.506
O  61.402  72.427  45.930
O  65.582  57.023  36.951
O  28.223  53.256  62.544
O  64.845  28.297  42.310
O  61.598  25.570  43.258
O  68.936  64.139  47.026
O  37.855  51.407  42.103
O  51.561  31.471  43.524
O  33.235  44.089  40.635
O  51.678  53.567  38.249
O  34.857  64.688  34.278
O  60.717  57.699  73.606
O  28.105  47.506  48.960
O  67.037  56.904  68.884
O  31.004  56.807  39.639
O  33.811  33.958  51.569
O  37.820  56.722  51.345
O  66.234  36.892  53.954
O  38.546  38.814  31.579
O  63.234  39.201  60.443
O  40.509  40.197  42.129
O  35.167  46.706  65.406
O  23.521  50.957  41.115
O  77.224  56.332  41.443
O  51.709  51.883  61.412
O  64.553  67.135  62.468
O  28.390  45.982  35.017
O  60.459  62.111  39.448
O  72.261  61.811  38.814
O  40.411  41.806  36.523
O  60.404  65.615  33.957
O  50.955  75.479  51.846
O  37.245  55.278  56.976
O  52.456  70.005  45.970
O  61.375  38.193  31.429
O  48.099  32.997  43.998
O  54.395  60.524  35.597
O  71.986  65.203  47.322
O  48.529  53.977  21.679
O  41.301  51.907  24.213
O  68.373  43.937  48.155
O  49.861  52.019  31.390
O  52.728  57.976  36.253
O  48.983  70.593  54.303
O  72.242  43.526  48.200
O  39.324  48.583  37.719
O  36.971  49.527  45.344
O  23.356  49.608  52.385
O  76.780  41.669  55.084
O  62.197  70.636  61.045
O  31.658  45.986  66.741
O  45.437  60.835  25.917
O  52.337  54.912  30.804
O  50.804  68.911  30.733
O  53.093  42.949  57.915
O  38.194  41.070  38.322
O  41.887  54.958  23.921
O  61.312  48.815  42.426
O  48.155  69.435  42.378
O  44.726  58.649  51.737
O  53.612  27.824  66.866
O  74.221  43.390  39.295
O  54.105  48.598  68.829
O  39.718  68.766  57.509
O  67.107  63.101  39.650
O  68.042  62.667  60.363
O  50.892  51.454  33.817
O  41.113  62.648  27.879
O  59.588  56.066  24.308
O  59.149  27.849  49.592
O  46.632  68.401  70.888
O  52.353  69.914  54.611
O  69.152  35.834  46.536
O  70.658  57.403  55.553
O  30.218  37.842  66.793
O  57.206  48.780  58.064
O  38.300  53.799  49.566
O  27.426  44.469  37.465
O  63.285  39.765  67.628
O  67.198  39.424  51.655
O  74.929  51.476  37.906
O  48.686  66.036  39.436
O  58.060  72.680  53.666
O  56.141  64.704  30.460
O  37.486  65.433  47.329
O  54.292  42.375  31.116
O  51.807  56.878  26.029
O  51.735  68.395  56.944
O  48.508  30.418  65.426
O  63.176  34.573  68.385
O  26.696  40.482  39.126
O  43.836  57.182  28.912
O  45.513  42.673  42.333
O  49.953  59.553  67.206
O  64.155  38.348  40.943
O  41.668  42.404  31.296
O  58.486  34.104  47.150
O  41.505  74.134  47.551
O  69.007  66.866  55.065
O  41.674  28.294  60.094
O  62.331  62.626  66.821
O  34.080  62.814  30.713
O  37.454  43.252  62.121
O  44.404  33.032  61.239
O  29.202  50.731  63.172
O  58.639  42.514  57.512
O  43.216  56.268  56.747
O  77.304  50.912  53.225
O  62.784  45.920  57.255
O  76.479  46.786  39.552
O  47.953  41.437  59.715
O  67.962  53.385  65.186
O  44.311  32.697  41.731
O  50.441  49.576  63.609
O  54.613  58.948  38.194
O  67.190  54.996  50.071
O  59.716  53.960  34.277
O  65.414  33.414  63.936
O  28.964  46.009  59.220
O  29.448  41.932  45.073
O  54.254  62.057  70.655
O  44.417  56.318  26.264
O  49.618  37.592  51.583
O  39.788  58.207  65.359
O  47.346  29.390  36.050
O  27.422  65.595  43.134
O  57.153  41.680  66.293
O  44.623  35.562  60.078
O  59.356  49.754  28.751
O  72.536  62.901  60.416
O  53.599  26.936  38.563
O  47.047  68.903  57.043
O  49.262  62.682  32.890
O  50.018  22.599  44.030
O  68.410  55.373  58.093
O  32.974  53.585  30.591
O  58.601  43.974  65.634
O  58.420  58.392  49.755
O  42.795  48.921  29.107
O  66.158  31.495  58.328
O  29.437  53.311  35.685
O  38.879  64.258  41.205
O  65.794  42.715  56.442
O  29.613  64.111  62.106
O  51.510  36.651  25.293
O  39.613  55.575  66.342
O  69.744  53.099  31.193
O  69.937  68.977  50.567
O  35.703  56.737  49.663
O  64.183  49.762  47.653
O  67.242  32.537  50.177
O  43.792  40.026  67.181
O  31.529  58.807  68.493
O  24.540  51.858  48.422
O  70.639  36.716  56.672
O  58.467  31.278  54.056
O  47.072  58.127  55.571
O  60.883  53.776  55.481
O  42.147  36.088  66.846
O  35.158  55.007  38.679
O  62.700  45.883  75.978
O  61.527  47.249  73.756
O  57.482  52.218  44.055
O  32.932  55.444  64.454
O  40.322  51.247  38.744
O  53.033  54.205  26.506
O  44.483  65.594  46.890
O  41.421  58.183  57.347
O  59.760  56.160  35.974
O  64.731  40.433  49.628
O  54.272  55.864  28.491
O  52.843  41.536  42.303
O  32.869  48.309  64.738
O  60.732  56.376  56.329
O  49.228  22.600  57.580
O  38.646  68.331  50.049
O  30.298  64.739  56.122
O  38.015  34.930  45.289
O  25.781  36.846  45.231
O  34.295  41.150  32.006
O  59.158  33.378  58.960
O  66.607  33.209  46.693
O  56.964  73.119  40.255
O  41.125  58.755  37.489
O  65.164  70.428  40.828
O  69.268  35.686  51.094
O  52.900  33.437  57.723
O  32.089  54.438  38.447
O  27.069  60.719  52.280
O  65.890  45.262  33.328
O  58.350  59.696  44.311
O  65.218  53.002  27.978
O  29.351  64.462  38.561
O  30.373  70.411  51.717
O  61.331  45.182  31.962
O  69.298  53.702  38.992
O  37.360  52.592  61.792
O  66.687  36.416  56.751
O  56.015  50.529  47.983
O  30.498  61.498  59.048
O  51.818  39.760  40.591
O  28.123  61.390  57.354
O  55.486  32.707  29.084
O  36.180  71.570  52.660
O  71.450  57.422  38.463
O  36.924  29.862  49.275
O  29.132  67.076  47.070
O  30.805  55.775  36.145
O  56.368  26.276  34.753
O  37.358  34.865  53.075
O  73.989  57.678  46.997
O  33.231  38.305  65.837
O  26.395  51.896  60.605
O  31.424  32.346  62.597
O  42.605  71.864  61.014
O  42.835  59.896  70.772
O  51.401  52.985  64.599
O  32.847  54.692  51.964
O  71.159  52.956  41.291
O  45.768  68.582  37.734
O  64.428  46.190  30.565
O  61.273  37.640  50.068
O  71.748  61.528  50.747
O  61.292  52.095  68.960
O  51.217  35.082  30.007
O  63.350  44.048  55.184
O  48.142  35.791  43.273
O  48.341  53.468  29.142
O  59.952  72.810  51.315
O  56.421  69.545  40.363
O  49.596  73.952  38.675
O  70.397  55.773  35.741
O  56.071  61.486  59.836
O  63.949  34.049  53.002
O  22.343  57.344  48.331
O  62.528  35.172  50.132
O  64.251  40.518  57.503
O  34.671  50.768  31.601
O  41.096  66.861  72.462
O  40.242  30.974  37.956
O  57.260  35.127  44.377
O  28.842  47.856  54.309
O  39.709  74.793  58.169
O  55.692  35.383  29.615
O  55.431  69.750  64.751
O  63.059  33.657  59.055
O  32.430  68.284  42.509
O  61.613  37.279  42.230
O  40.693  51.600  72.454
O  26.019  42.430  46.362
O  43.634  61.398  51.736
O  29.442  55.264  45.337
O  69.140  42.510  37.448
O  55.043  63.051  56.077
O  36.045  58.066  53.799
O  59.409  40.266  46.860
O  53.834  28.154  32.065
O  63.154  42.063  60.693
O  52.731  40.733  68.675
O  50.512  34.211  72.746
O  60.546  24.537  48.228
O  31.668  50.244  27.687
O  57.432  42.410  60.293
O  52.034  57.507  67.118
O  63.865  35.469  40.612
O  53.984  66.982  57.755
O  66.186  47.122  53.135
O  65.018  66.171  49.013
O  49.986  39.562  27.822
O  54.640  45.981  24.983
O  51.971  38.805  43.403
O  61.354  60.513  49.231
O  43.187  50.991  59.479
O  27.504  38.890  47.805
O  36.012  35.040  41.471
O  48.242  33.562  38.685
O  51.555  73.712  44.878
O  64.062  45.173  67.048
O  53.964  53.759  67.712
O  67.712  52.228  57.025
O  50.719  49.867  67.634
O  33.848  46.974  50.078
O  63.974  53.208  63.839
O  49.375  26.855  55.263
O  68.959  66.326  61.145
O  67.814  54.687  45.040
O  44.667  26.235  50.812
O  75.085  54.384  53.294
O  34.231  40.374  52.784
O  66.728  56.036  52.520
O  61.725  66.030  69.591
O  35.940  57.139  58.516
O  43.000  50.383  22.372
O  60.140  72.662  57.258
O  22.363  51.619  50.754
O  34.523  56.212  66.877
O  64.299  37.743  50.353
O  56.235  57.217  69.790
O  35.826  37.041  52.164
O  54.712  39.500  31.574
O  64.874  69.584  60.952
O  58.647  40.614  51.839
O  51.337  35.884  47.127
O  61.489  28.409  58.294
O  54.747  68.882  53.420
O  55.561  41.919  43.035
O  65.277  67.199  66.098
O  52.263  73.668  65.710
O  38.067  63.230  34.305
O  54.936  46.788  72.238
O  50.489  42.657  59.497
O  33.349  62.390  33.493
O  73.494  45.954  52.397
O  51.945  60.494  53.046
O  60.298  56.401  50.591
O  29.760  31.224  44.695
O  62.061  67.644  35.119
O  30.782  40.968  53.909
O  46.163  39.836  71.400
O  66.542  36.322  41.786
O  64.137  33.068  45.064
O  38.455  46.577  67.702
O  39.644  25.613  60.115
O  61.896  58.481  52.817
O  35.014  44.211  74.025
O  67.605  61.950  53.901
O  50.113  65.771  51.430
O  70.143  46.039  45.544
O  35.396  61.498  45.074
O  53.310  45.040  59.962
O  24.898  40.435  50.038
O  49.329  63.045  53.189
O  37.461  51.896  64.568
O  59.466  69.173  56.334
O  49.046  66.865  44.899
O  49.566  35.948  54.073
O  59.872  34.003  49.600
O  42.269  76.305  53.573
O  62.633  39.518  43.527
O  35.790  42.578  35.146
O  33.832  36.029  46.853
O  36.803  39.978  59.431
O  41.845  40.095  69.535
O  37.910  43.130  67.416
O  47.038  55.600  75.466
O  37.241  27.254  60.612
O  60.590  44.575  55.834
O  37.823  38.925  40.748
O  61.168  67.731  51.753
O  58.151  36.318  37.897
O  62.700  43.678  45.260
O  71.192  51.153  32.712
O  44.517  70.450  43.851
O  59.427  50.497  70.571
O  64.586  37.027  30.065
O  71.385  62.370  41.968
O  61.156  51.799  30.772
O  50.895  78.940  49.517
O  69.844  52.411  62.331
O  50.163  41.014  56.122
O  34.277  58.269  70.732
O  73.744  38.699  56.271
O  46.574  58.554  29.689
O  71.141  51.343  66.514
O  60.044  58.950  38.090
O  42.865  48.716  61.683
O  46.694  56.954  38.173
O  46.246  56.725  53.191
O  59.997  63.521  54.304
O  52.241  71.966  39.498
O  49.984  56.542  30.934
O  36.542  56.486  71.619
O  34.143  56.344  60.637
O  59.389  70.636  65.162
O  57.718  36.740  73.159
O  73.955  51.054  43.236
O  64.350  49.365  53.668
O  26.945  49.676  58.747
O  56.207  38.134  36.402
O  31.046  43.454  65.463
O  34.423  65.724  40.716
O  29.703  37.852  61.556
O  51.708  32.182  54.493
O  53.918  46.946  63.786
O  66.913  29.423  45.521
O  63.251  58.981  74.059
O  46.759  45.145  29.309
O  49.726  56.733  75.658
O  38.418  30.576  43.590
O  55.889  72.519  65.452
O  50.937  38.374  68.674
O  30.982  45.147  32.496
O  47.964  65.968  56.480
O  43.312  50.168  77.229
O  68.465  49.602  58.207
O  55.929  37.514  33.454
O  34.710  40.947  27.042
O  31.009  56.954  56.080
O  37.073  46.843  40.347
O  69.689  69.313  56.364
O  46.533  62.262  52.017
O  22.298  42.134  49.539
O  56.341  47.227  69.802
O  42.308  60.637  65.732
O  36.867  48.233  53.005
O  75.017  40.332  47.100
O  59.100  69.267  68.135
O  35.298  38.771  54.607
O  40.001  62.355  30.515
O  60.479  36.264  47.606
O  59.548  58.133  54.008
O  38.234  46.767  70.921
O  39.296  44.850  25.023
O  35.972  37.546  31.329
O  29.866  65.797  58.791
O  51.987  32.764  41.027
O  59.599  41.373  39.208
O  35.523  68.295  39.491
O  56.312  25.258  50.375
O  65.809  34.353  58.609
O  41.181  43.227  61.020
O  64.223  40.082  62.875
O  48.895  42.076  31.882
O  68.577  50.840  60.664
O  71.182  62.729  48.245
O  55.343  42.133  33.902
O  35.674  54.003  65.428
O  38.589  38.756  43.911
O  45.840  62.691  31.790
O  39.944  75.887  51.659
O  51.664  57.772  23.246
O  44.671  48.573  64.081
O  66.457  68.943  37.301
O  65.496  31.807  37.887
O  69.526  46.271  62.542
O  47.023  76.275  57.113
O  42.211  57.663  24.683
O  64.886  35.764  65.823
O  52.723  61.295  55.917
O  37.250  67.887  52.739
O  56.466  41.649  39.675
O  54.375  33.953  72.445
O  67.254  59.312  42.082
O  39.123  43.876  50.382
O  29.337  59.139  42.965
O  53.614  73.469  48.721
O  42.671  50.332  70.394
O  57.471  35.761  31.877
O  44.482  64.523  66.041
O  63.870  61.815  32.028
O  47.611  41.401  40.480
O  34.068  38.000  34.531
O  55.170  71.638  38.565
O  42.997  64.990  49.274
O  37.912  51.415  74.582
O  62.203  47.812  59.887
O  52.804  39.403  63.503
O  48.255  70.418  60.788
O  27.900  55.533  51.383
O  44.639  56.078  61.660
O  68.776  33.990  48.568
O  35.925  64.224  44.886
O  32.381  62.241  56.927
O  63.336  53.987  29.776
O  40.107  74.663  44.975
O  46.341  58.619  61.455
O  44.231  44.026  37.968
O  35.007  30.752  46.085
O  45.215  48.039  56.820
O  37.812  47.726  64.657
O  37.447  64.448  38.722
O  42.601  64.951  35.779
O  60.960  62.862  33.310
O  50.112  40.530  63.613
O  43.212  36.896  29.111
O  41.907  31.141  54.787
O  55.762  51.632  62.893
O  34.494  68.901  36.270
O  55.300  63.917  51.973
O  39.698  47.626  53.608
O  46.748  33.444  29.534
O  48.839  39.893  70.166
O  45.582  73.795  35.287
O  32.751  41.448  41.648
O  40.495  58.729  30.161
O  35.572  46.886  25.386
O  39.666  50.168  65.305
O  24.944  54.073  59.245
O  22.857  55.643  53.454
O  65.829  68.773  46.852
O  56.552  44.179  41.361
O  57.442  27.997  62.181
O  60.322  29.430  62.594
O  55.799  54.360  73.802
O  67.113  52.966  59.834
O  26.374  46.452  62.704
O  55.085  59.038  76.859
O  49.009  58.070  22.801
O  38.585  59.172  62.278
O  54.476  48.253  23.066
O  37.466  44.691  75.422
O  76.557  51.646  44.361
O  65.177  62.685  53.184
O  46.651  40.137  67.367
O  53.290  40.422  50.289
O  70.684  64.974  59.528
O  70.822  53.428  68.478
O  35.903  43.591  64.718
O  23.800  55.551  43.193
O  55.831  32.258  65.598
O  35.692  47.622  62.458
O  37.163  46.324  37.696
O  58.304  43.561  27.506
O  40.026  34.255  66.010
O  60.526  65.394  60.880
O  47.228  74.362  59.335
O  42.413  71.591  65.688
O  43.142  37.106  49.541
O  34.905  44.655  37.023
O  44.765  39.823  42.764
O  35.842  55.160  62.775
O  39.745  61.091  38.489
O  57.892  63.418  32.405
O  45.241  62.155  38.618
O  26.078  41.685  41.824
O  57.881  67.977  64.971
O  53.013  28.529  59.547
O  59.684  48.801  44.843
O  62.990  59.020  37.872
O  42.621  53.546  61.111
O  42.754  37.935  74.335
O  43.274  59.442  68.085
O  54.190  64.066  67.102
O  29.242  42.920  51.159
O  41.414  30.964  43.618
O  69.155  49.740  48.992
O  67.667  55.344  60.915
O  70.963  54.839  56.829
O  39.897  72.025  35.531
O  67.295  61.256  62.690
O  47.991  55.068  32.246
O  50.096  37.364  63.551
O  63.306  46.726  33.677
O  56.204  59.709  51.724
O  70.008  31.881  55.796
O  42.712  63.751  45.421
O  38.071  30.582  55.886
O  35.714  27.079  42.722
O  58.752  28.142  55.071
O  25.788  42.124  60.934
O  32.679  46.312  57.412
O  49.679  59.674  55.049
O  45.029  23.161  50.575
O  44.533  46.175  30.787
O  49.316  51.257  65.538
O  51.225  56.304  78.105
O  69.163  66.372  41.164
O  35.674  45.104  41.755
O  44.196  41.290  56.663
O  41.927  42.978  74.916
O  43.990  42.541  35.166
O  65.539  49.133  59.682
O  72.838  38.486  47.396
O  31.536  50.903  64.697
O  35.631  36.800  66.523
O  60.547  65.317  47.684
O  60.690  37.989  60.102
O  68.220  48.148  64.451
O  44.694  58.054  23.278
O  43.117  51.264  63.161
O  68.204  29.840  50.437
O  38.788  32.257  60.809
O  69.823  36.121  36.041
O  57.067  64.891  66.611
O  43.346  34.780  44.441
O  63.270  71.608  47.868
O  38.446  75.308  54.935
O  46.424  56.831  72.885
O  40.214  65.915  48.928
O  56.524  62.497  65.209
O  32.173  42.815  45.450
O  54.850  37.650  73.231
O  59.576  44.020  41.499
O  34.429  48.008  59.470
O  57.954  62.982  56.385
O  43.784  33.342  50.987
O  64.102  56.064  64.351
O  63.210  52.069  57.337
O  76.730  40.406  50.725
O  66.173  29.471  53.882
O  51.141  58.324  40.560
O  45.198  61.797  70.879
O  35.110  44.945  62.188
O  44.644  50.896  66.618
O  43.521  46.082  65.936
O  50.461  24.657  39.542
O  32.832  33.009  39.103
O  40.570  29.169  66.725
O  68.296  39.314  65.918
O  66.571  42.670  50.045
O  38.755  72.255  45.692
O  50.479  54.275  33.209
O  43.858  38.040  37.382
O  32.140  48.234  54.300
O  33.522  64.107  46.457
N  47.940  49.233  48.270
N  54.201  50.699  54.022
N  49.889  52.281  56.049
N  47.326  45.132  48.673
N  51.679  52.413  51.161
N  52.928  50.098  49.171
N  48.353  51.494  53.972
N  47.371  47.358  45.708
N  47.649  49.242  51.539
N  52.275  53.767  54.093
N  51.802  48.377  46.342
N  50.557  46.356  44.962
C  51.256  52.365  55.779
C  53.341  49.127  51.376
C  48.168  50.490  51.786
C  52.634  45.240  44.586
C  47.238  49.441  47.012
C  50.808  46.489  43.495
C  47.478  51.330  52.826
C  51.361  54.712  49.310
C  48.130  44.728  49.853
C  48.059  46.443  44.816
C  47.427  48.444  49.272
C  53.005  54.120  56.440
C  47.191  50.928  46.654
C  52.566  50.184  50.581
C  46.197  52.520  50.988
C  51.796  53.767  51.672
C  52.200  45.861  43.243
C  46.479  42.520  46.726
C  45.083  50.781  45.226
C  51.050  54.793  50.820
C  52.152  50.787  45.864
C  54.268  53.318  56.327
C  52.424  49.604  46.807
C  56.481  53.016  55.429
C  46.316  53.520  53.301
C  47.137  45.333  44.284
C  55.299  53.728  55.494
C  52.568  47.272  46.048
C  46.536  51.247  45.296
C  52.908  48.946  52.851
C  54.446  52.170  57.083
C  51.830  46.015  45.647
C  48.265  50.683  55.080
C  49.046  45.872  50.293
C  44.560  43.936  46.684
C  51.965  49.904  48.207
C  49.111  53.354  56.736
C  51.323  53.827  53.103
C  49.325  45.956  45.487
C  45.187  44.756  45.765
C  50.474  53.675  48.620
C  56.648  51.882  56.195
C  48.229  48.344  50.550
C  49.216  50.968  56.220
C  48.288  46.928  51.132
C  52.784  51.596  51.077
C  48.429  51.119  57.537
C  52.902  52.033  46.331
C  47.104  43.343  45.811
C  52.508  50.429  44.424
C  47.890  48.615  45.927
C  45.206  42.817  47.166
C  54.055  49.236  53.820
C  47.045  52.692  52.247
C  46.469  44.472  45.317
C  46.635  52.742  44.986
C  48.080  52.619  57.625
C  55.626  51.457  57.017
C  51.869  53.717  55.486
C  51.218  56.084  48.645
H  45.519  75.218  44.497
H  60.580  24.642  44.630
H  43.301  43.075  76.639
H  68.219  45.421  68.118
H  49.313  39.704  42.805
H  48.394  38.644  42.138
H  71.913  34.678  48.063
H  50.284  37.114  38.849
H  51.693  36.758  38.365
H  68.615  44.478  66.949
H  62.149  58.258  26.668
H  59.552  23.587  45.083
H  63.460  61.162  71.017
H  44.820  43.232  76.435
H  62.571  60.006  71.509
H  41.807  46.061  57.322
H  61.593  57.007  25.949
H  42.124  44.565  57.578
H  36.944  54.298  34.022
H  37.883  54.708  32.881
H  58.052  65.119  48.820
H  57.107  41.200  40.251
H  70.500  34.775  48.663
H  33.219  49.769  30.401
H  39.887  50.635  27.542
H  40.327  57.535  41.914
H  54.885  27.384  57.139
H  54.238  28.363  56.087
H  45.567  38.843  66.624
H  58.738  40.429  63.012
H  58.722  41.927  62.846
H  44.443  67.040  56.011
H  44.792  65.932  54.975
H  41.307  51.166  27.627
H  34.044  57.191  49.049
H  32.763  57.096  48.209
H  61.644  67.489  63.609
H  56.601  64.663  48.619
H  25.786  58.129  47.174
H  60.364  53.959  75.807
H  58.950  54.255  76.301
H  41.180  34.041  54.972
H  59.571  47.167  68.959
H  60.594  47.913  69.856
H  42.267  34.132  56.044
H  72.757  57.498  62.612
H  72.064  56.156  62.275
H  38.915  57.988  41.569
H  26.925  57.553  48.061
H  64.430  29.651  43.759
H  30.114  50.256  53.856
H  45.480  76.307  45.583
H  62.541  51.873  46.453
H  48.788  60.583  61.042
H  64.115  30.988  44.488
H  56.529  49.217  69.805
H  41.111  44.143  36.502
H  48.676  50.261  42.115
H  49.905  50.334  41.197
H  59.498  47.826  59.275
H  69.185  42.325  45.782
H  68.347  42.215  44.501
H  63.055  53.073  47.227
H  59.017  66.453  65.560
H  31.551  41.641  52.215
H  32.393  34.207  40.450
H  31.331  34.977  41.297
H  31.939  42.718  51.180
H  39.740  44.351  37.136
H  55.627  50.471  69.881
H  60.568  28.129  58.124
H  61.936  28.455  57.431
H  68.409  40.402  59.575
H  54.388  68.957  52.521
H  60.291  65.876  64.919
H  48.052  61.796  60.477
H  62.432  37.736  63.565
H  34.260  57.604  41.529
H  53.793  42.978  27.635
H  54.428  66.242  55.868
H  39.510  51.200  45.047
H  40.822  56.134  32.492
H  42.034  55.525  33.259
H  26.439  44.087  52.873
H  26.987  56.905  41.874
H  27.829  57.970  42.638
H  26.225  44.590  51.440
H  52.765  29.463  47.108
H  34.824  59.029  41.696
H  51.909  29.029  45.898
H  56.073  63.123  59.049
H  62.047  57.519  70.604
H  40.231  51.383  46.386
H  52.966  43.637  28.743
H  62.561  57.670  72.038
H  37.076  26.795  49.979
H  35.780  26.696  50.824
H  39.648  48.892  45.729
H  38.710  47.777  46.246
H  62.632  36.648  62.530
H  30.055  49.487  52.527
H  30.663  39.537  36.785
H  42.060  53.327  69.884
H  55.893  64.534  59.569
H  35.723  54.422  30.863
H  65.101  70.369  54.267
H  63.928  71.268  53.873
H  36.950  51.095  26.944
H  38.002  52.015  27.553
H  50.873  26.809  50.278
H  46.120  31.607  63.353
H  49.868  26.600  49.098
H  31.669  64.505  62.818
H  36.736  26.994  58.615
H  69.486  46.376  30.507
H  36.647  28.401  58.024
H  69.054  37.142  67.204
H  30.308  56.008  28.743
H  77.820  44.993  49.253
H  78.229  45.548  47.874
H  31.406  54.927  28.574
H  64.126  49.011  72.498
H  55.094  32.006  53.060
H  51.874  53.536  70.920
H  30.482  47.263  40.322
H  42.333  44.245  30.571
H  68.320  36.117  68.083
H  23.846  60.925  42.657
H  70.687  46.982  29.767
H  59.618  45.953  61.572
H  44.775  51.021  67.574
H  49.429  37.330  33.489
H  59.489  72.355  50.591
H  60.882  72.873  51.031
H  50.701  36.532  33.866
H  36.319  67.842  53.022
H  37.594  68.598  53.312
H  52.248  60.631  56.453
H  52.585  61.008  54.994
H  64.061  41.330  38.697
H  35.722  55.834  31.584
H  45.237  64.514  65.427
H  63.256  41.202  40.012
H  65.711  35.259  65.717
H  65.023  36.294  66.629
H  47.168  75.714  57.896
H  41.256  64.875  60.398
H  31.843  47.256  39.674
H  66.847  47.784  49.243
H  32.780  63.974  61.903
H  55.442  32.546  51.630
H  59.118  44.713  60.794
H  44.270  65.456  66.204
H  30.909  39.320  35.275
H  25.386  60.974  42.777
H  41.956  62.924  36.919
H  43.022  67.756  50.824
H  42.597  66.294  50.594
H  72.122  43.712  34.883
H  59.394  49.801  26.331
H  58.002  50.124  25.733
H  70.602  43.842  35.017
H  55.308  32.427  55.335
H  55.988  31.084  55.707
H  64.817  50.536  25.996
H  55.274  68.067  53.385
H  75.665  41.321  51.880
H  44.300  38.002  66.593
H  38.269  63.846  48.221
H  42.674  53.816  71.209
H  61.984  49.663  59.550
H  61.770  51.099  60.078
H  35.105  71.593  58.682
H  36.522  72.224  58.695
H  48.321  27.179  51.180
H  59.404  45.017  49.643
H  58.874  43.640  49.302
H  47.252  27.906  52.044
H  39.329  62.719  48.147
H  66.548  46.295  49.173
H  74.831  40.685  52.971
H  47.317  57.450  65.290
H  43.410  62.946  36.375
H  32.191  68.095  46.047
H  32.188  66.579  45.806
H  40.643  69.421  34.409
H  37.460  31.043  41.834
H  37.216  32.026  40.628
H  40.768  69.150  35.909
H  40.950  44.479  31.256
H  50.770  52.999  70.030
H  67.751  68.489  45.941
H  66.323  50.332  25.692
H  69.123  67.761  45.806
H  56.023  28.492  53.215
H  56.729  29.761  52.722
H  59.621  69.484  31.116
H  55.796  67.023  70.567
H  56.521  66.512  69.346
H  58.075  51.788  27.651
H  58.866  52.862  28.407
H  45.577  32.295  64.624
H  62.846  49.276  71.633
H  47.015  56.649  66.579
H  60.298  68.244  31.689
H  69.370  40.048  60.734
H  45.218  23.711  53.925
H  55.724  40.964  42.904
H  55.640  57.910  69.445
H  56.374  57.440  70.727
H  52.478  72.728  65.564
H  52.221  74.050  64.814
H  43.918  41.531  39.698
H  37.779  46.050  68.164
H  39.319  46.204  67.941
H  44.536  40.496  40.690
H  50.824  36.448  46.523
H  51.399  35.061  46.612
H  39.663  47.460  65.257
H  34.006  57.334  70.695
H  25.712  42.402  64.091
H  28.397  48.716  37.739
H  42.708  59.808  27.377
H  33.991  57.303  60.751
H  33.292  56.008  60.313
H  42.457  59.103  25.971
H  61.577  68.335  52.390
H  61.703  66.918  51.825
H  73.218  51.342  43.796
H  73.530  50.796  42.399
H  28.068  44.640  45.586
H  26.950  48.968  38.154
H  35.375  36.403  52.753
H  40.720  46.327  65.376
H  62.632  40.333  42.991
H  62.989  39.794  44.391
H  65.705  46.865  29.254
H  41.013  34.688  29.215
H  42.495  35.084  29.196
H  38.815  26.072  60.353
H  39.529  24.695  60.403
H  43.410  56.454  69.011
H  41.513  65.361  68.560
H  47.930  55.973  75.600
H  36.658  37.239  52.634
H  56.145  64.605  38.106
H  60.255  68.615  56.427
H  43.096  76.773  53.789
H  43.677  46.166  22.710
H  58.801  41.229  52.578
H  59.017  41.034  51.040
H  44.154  45.853  24.153
H  63.982  69.966  60.964
H  64.796  68.743  61.434
H  54.627  40.456  31.398
H  53.942  39.140  31.106
H  59.481  69.430  55.396
H  67.129  47.351  28.864
H  63.715  50.004  54.048
H  48.455  66.687  56.047
H  73.321  45.005  52.264
H  51.152  63.751  35.306
H  37.238  62.725  34.405
H  32.605  61.770  33.580
H  33.523  62.441  32.535
H  52.213  64.853  35.202
H  49.589  42.288  59.467
H  50.395  43.584  59.214
H  54.505  47.662  72.228
H  55.526  46.833  71.464
H  51.950  59.707  52.474
H  66.422  50.996  63.697
H  66.990  35.465  41.696
H  67.250  50.718  62.427
H  29.412  63.870  44.702
H  49.940  56.660  74.712
H  49.265  57.593  75.753
H  46.542  28.533  54.748
H  60.648  27.961  61.465
H  66.509  35.313  31.825
H  47.162  58.480  30.460
H  45.717  58.268  30.040
H  65.760  36.123  42.330
H  65.208  49.827  53.733
H  51.191  60.330  53.649
H  60.413  55.856  49.798
H  65.271  66.405  66.653
H  47.026  66.168  56.313
H  30.315  44.638  31.997
H  31.470  45.631  31.810
H  66.680  53.615  36.953
H  51.432  37.534  68.679
H  51.630  39.056  68.762
H  67.637  54.295  37.933
H  55.158  73.108  65.688
H  56.195  72.129  66.292
H  27.835  39.885  49.441
H  38.216  30.476  44.540
H  65.946  67.038  65.405
H  37.779  64.025  33.809
H  31.305  40.143  53.944
H  73.113  46.174  53.262
H  62.203  68.505  35.559
H  62.954  67.307  34.896
H  29.280  30.526  45.170
H  29.100  31.932  44.564
H  28.312  39.818  50.900
H  61.051  56.139  51.149
H  39.355  30.867  43.595
H  35.682  41.929  35.867
H  42.505  75.754  52.799
H  36.269  42.066  34.472
H  70.458  50.290  31.078
H  69.861  49.153  30.205
H  72.452  66.959  51.997
H  47.667  75.804  43.844
H  54.768  64.830  55.365
H  42.934  56.170  70.430
H  35.007  58.263  71.369
H  32.135  48.631  49.577
H  43.204  37.850  59.240
H  67.914  61.433  54.669
H  71.080  66.257  52.065
H  66.734  62.309  54.130
H  35.779  44.425  74.590
H  29.062  58.749  61.362
H  61.558  58.087  53.640
H  61.142  58.357  52.216
H  28.308  59.867  60.606
H  75.788  43.755  40.455
H  76.691  44.983  40.495
H  31.666  49.619  48.517
H  49.314  65.821  51.992
H  64.906  63.931  42.144
H  34.292  44.042  74.651
H  65.628  34.032  60.559
H  42.367  63.791  38.719
H  55.062  71.940  45.313
H  37.174  56.958  72.194
H  36.395  55.638  72.073
H  27.550  44.491  46.991
H  59.447  46.317  58.961
H  67.258  63.987  61.529
H  66.445  65.261  61.334
H  49.103  76.375  43.706
H  36.492  55.255  35.647
H  35.846  53.982  36.249
H  45.115  22.208  54.124
H  42.069  65.294  38.939
H  66.371  61.288  58.390
H  43.750  51.234  66.429
H  36.137  56.793  64.125
H  37.165  57.157  65.179
H  46.989  62.995  47.500
H  45.852  61.955  47.492
H  52.551  48.369  32.522
H  61.537  37.659  38.265
H  62.793  37.417  37.431
H  51.153  48.114  31.998
H  53.620  71.477  45.599
H  66.150  60.010  59.264
H  64.769  32.844  61.040
H  64.686  65.288  42.776
H  66.491  36.495  46.914
H  47.490  74.506  42.033
H  53.988  45.697  59.711
H  53.283  44.364  59.255
H  46.531  74.115  40.876
H  36.250  61.879  45.346
H  35.511  60.543  45.172
H  70.545  46.786  45.059
H  63.030  68.081  46.734
H  59.584  34.616  50.302
H  59.767  33.115  49.992
H  24.828  40.190  49.095
H  33.964  35.141  46.473
H  56.469  63.103  38.054
H  37.239  42.422  67.471
H  37.432  43.889  67.804
H  41.025  39.833  69.076
H  42.586  39.928  68.932
H  27.977  57.529  56.156
H  35.984  39.975  59.953
H  37.458  40.480  59.957
H  28.501  57.175  54.704
H  34.047  35.936  47.800
H  46.716  56.010  74.645
H  25.863  40.479  50.189
H  50.178  63.527  53.181
H  49.270  62.573  52.342
H  66.306  35.106  46.318
H  37.591  27.343  61.516
H  37.275  28.171  60.279
H  62.341  68.167  48.102
H  50.474  35.648  53.915
H  49.607  36.919  54.078
H  50.808  65.420  52.022
H  42.447  39.107  59.624
H  42.722  66.534  68.245
H  36.898  52.569  64.990
H  54.486  50.498  63.896
H  58.532  58.518  67.966
H  64.260  59.129  64.345
H  65.568  59.324  65.118
H  57.302  57.673  68.223
H  43.590  46.091  75.620
H  44.517  45.039  74.925
H  49.704  66.170  45.064
H  48.633  66.592  44.057
H  48.172  55.468  62.510
H  37.545  52.205  63.644
H  47.277  54.221  62.495
H  70.424  45.241  45.056
H  54.604  41.964  42.870
H  48.010  54.375  29.030
H  39.067  39.280  43.239
H  74.807  38.083  53.178
H  26.495  61.383  60.893
H  44.042  37.825  53.545
H  60.671  35.926  69.238
H  27.545  61.485  62.020
H  22.872  55.181  45.567
H  23.391  53.725  45.553
H  57.596  70.510  67.931
H  56.604  71.442  68.657
H  47.184  35.961  59.648
H  71.315  48.492  65.344
H  62.554  32.883  60.688
H  69.779  48.499  65.535
H  42.645  37.356  53.097
H  36.691  38.912  69.566
H  37.582  34.546  49.832
H  37.439  38.212  68.423
H  60.570  37.530  71.835
H  60.972  67.292  66.309
H  61.668  67.499  67.642
H  61.236  37.326  73.210
H  50.660  46.185  63.414
H  50.977  46.151  64.928
H  47.674  37.473  59.055
H  47.047  65.687  49.568
H  59.475  58.319  26.052
H  40.849  55.910  47.964
H  49.464  22.538  52.893
H  49.723  23.032  54.326
H  51.667  72.288  57.603
H  50.844  60.052  41.336
H  49.887  61.047  42.013
H  52.003  70.921  58.126
H  51.734  53.348  25.106
H  51.195  52.622  23.820
H  53.959  66.342  35.669
H  54.160  64.865  36.120
H  39.770  55.967  46.853
H  72.994  61.207  61.258
H  57.987  57.840  26.139
H  72.921  60.294  62.531
H  46.235  72.734  56.235
H  47.586  72.022  56.257
H  41.622  49.193  65.844
H  43.146  49.094  65.577
H  25.143  59.403  41.015
H  50.840  21.822  50.670
H  51.016  21.176  52.048
H  26.329  59.524  40.022
H  36.720  49.315  29.345
H  36.934  49.316  30.855
H  46.567  64.285  49.965
H  37.155  33.076  49.836
H  69.007  42.906  68.800
H  58.627  60.110  71.047
H  44.537  60.716  60.139
H  35.548  49.044  41.761
H  65.556  34.813  37.876
H  65.259  35.435  39.253
H  54.982  64.867  50.341
H  44.133  77.773  51.105
H  35.846  44.227  26.970
H  34.624  44.768  26.249
H  55.438  56.575  27.030
H  49.343  38.390  30.355
H  45.575  40.361  32.977
H  59.140  66.606  54.723
H  59.503  66.338  53.281
H  46.255  41.589  33.610
H  47.462  60.938  39.235
H  48.966  61.208  39.271
H  34.294  59.771  31.872
H  32.905  59.492  32.475
H  72.472  57.871  44.179
H  59.609  49.103  53.279
H  49.969  37.361  31.339
H  62.699  31.957  61.903
H  55.476  57.618  25.915
H  57.984  69.546  61.156
H  29.754  42.768  53.310
H  30.183  43.296  54.703
H  42.910  78.588  51.586
H  58.985  64.539  29.255
H  44.781  59.511  61.026
H  32.305  51.277  52.871
H  32.972  52.659  52.633
H  41.690  43.446  38.745
H  70.266  33.457  52.973
H  69.042  34.083  53.665
H  70.025  42.348  69.811
H  41.825  43.470  40.277
H  66.196  60.866  42.355
H  57.768  64.968  55.898
H  56.697  65.970  55.456
H  39.514  32.932  48.171
H  54.470  66.183  49.739
H  39.171  32.916  49.685
H  58.939  63.806  30.611
H  45.774  62.371  43.610
H  46.292  61.662  44.882
H  57.552  68.093  61.265
H  66.268  62.372  42.689
H  70.123  38.401  62.792
H  33.120  49.525  63.097
H  53.315  37.149  65.466
H  38.799  58.031  58.062
H  38.750  58.663  56.667
H  60.553  57.149  43.057
H  43.578  31.034  38.380
H  44.720  32.028  38.036
H  57.175  51.837  72.658
H  56.721  51.511  71.196
H  41.411  34.979  48.766
H  52.732  36.283  63.290
H  41.735  33.705  49.579
H  60.977  58.209  44.082
H  52.095  26.065  51.926
H  48.304  62.007  72.716
H  40.348  37.182  64.793
H  38.864  37.637  64.606
H  55.144  24.825  45.629
H  57.202  53.969  68.599
H  57.034  55.502  68.828
H  55.995  23.713  44.957
H  52.795  35.303  62.083
H  35.828  41.916  56.985
H  36.250  41.330  58.329
H  49.683  61.417  72.399
H  47.823  47.046  29.152
H  34.838  31.411  59.150
H  33.717  56.288  45.973
H  39.060  71.753  60.610
H  27.981  33.259  54.361
H  39.619  50.036  72.474
H  39.791  48.642  73.108
H  26.567  32.616  54.219
H  37.028  70.470  45.554
H  61.585  25.626  46.305
H  70.803  54.255  60.379
H  70.038  54.161  59.055
H  73.936  53.707  56.173
H  33.624  30.943  59.989
H  65.118  56.060  32.487
H  73.204  52.545  55.431
H  46.808  65.971  32.325
H  48.244  65.431  32.589
H  61.979  61.948  40.612
H  62.962  61.214  41.587
H  47.931  46.364  27.801
H  47.063  30.500  52.963
H  62.127  26.451  47.505
H  40.091  65.244  30.749
H  53.471  26.652  51.512
H  64.404  54.701  32.791
H  46.899  25.431  52.401
H  44.243  30.642  31.422
H  50.194  59.536  34.814
H  72.664  57.397  41.619
H  72.491  57.285  40.069
H  69.642  59.830  48.500
H  26.091  66.049  45.917
H  25.911  64.644  46.506
H  70.037  61.298  48.781
H  48.332  37.174  73.109
H  49.519  37.019  72.172
H  48.229  65.277  41.917
H  47.367  66.450  41.444
H  73.495  44.082  57.608
H  31.663  60.298  37.304
H  29.750  47.150  46.638
H  31.532  61.805  37.159
H  59.976  47.952  39.860
H  61.298  47.264  40.199
H  55.857  65.171  64.068
H  54.577  65.755  64.708
H  35.961  36.352  28.372
H  51.728  76.929  42.556
H  51.203  75.528  42.915
H  36.913  37.575  28.398
H  29.390  48.226  45.587
H  66.128  60.730  52.818
H  66.036  60.323  51.344
H  59.934  68.989  39.719
H  51.075  58.913  35.914
H  44.690  30.033  30.082
H  70.709  45.942  49.420
H  69.710  44.774  49.374
H  64.498  51.447  41.122
H  62.999  51.840  41.249
H  47.428  24.067  52.946
H  68.077  53.325  40.570
H  68.186  53.095  42.113
H  37.683  48.556  43.675
H  74.702  44.438  56.668
H  38.293  49.689  42.823
H  35.251  40.977  40.582
H  36.136  39.724  40.827
H  34.180  31.082  49.487
H  50.695  71.381  50.954
H  50.661  72.699  50.191
H  35.235  30.043  49.852
H  60.058  67.392  38.202
H  60.894  67.058  36.938
H  55.632  63.660  68.364
H  56.295  64.407  69.532
H  59.056  67.987  40.492
H  58.289  49.912  53.151
H  47.721  53.072  29.783
H  71.370  58.802  43.628
H  57.287  71.385  56.660
H  35.639  39.994  51.569
H  35.793  40.757  50.234
H  65.720  39.248  56.633
H  68.885  44.990  56.402
H  69.944  45.228  57.491
H  46.776  64.028  30.560
H  46.664  65.536  30.297
H  70.038  64.479  40.112
H  44.880  58.586  47.542
H  44.219  59.912  47.978
H  52.138  68.364  42.825
H  69.042  63.367  39.758
H  53.601  68.797  43.236
H  41.729  65.788  61.571
H  47.234  51.169  36.747
H  57.768  69.592  46.234
H  31.066  55.659  48.263
H  30.645  55.420  46.806
H  58.280  70.936  45.669
H  70.190  41.930  59.734
H  69.178  42.719  58.907
H  33.320  59.813  29.635
H  57.678  34.574  54.650
H  33.008  61.229  30.143
H  64.794  38.785  55.514
H  31.371  44.123  28.221
H  42.538  56.800  53.693
H  41.936  58.159  53.400
H  49.985  51.081  60.901
H  31.855  64.957  42.256
H  32.232  66.289  42.945
H  65.246  44.450  53.450
H  66.615  43.751  53.388
H  60.571  44.434  72.473
H  46.018  29.675  38.644
H  59.545  58.914  70.814
H  41.238  59.764  68.290
H  57.773  63.930  73.081
H  40.167  60.578  67.522
H  43.341  74.503  50.482
H  42.205  73.907  51.351
H  39.690  36.749  26.436
H  38.208  36.909  26.916
H  57.293  54.970  43.300
H  51.170  37.865  28.141
H  52.612  37.426  28.498
H  55.826  55.013  43.698
H  31.278  45.354  29.143
H  61.014  66.585  62.537
H  49.274  49.719  60.772
H  46.438  50.633  35.505
H  35.359  42.151  59.936
H  51.394  58.677  23.475
H  52.606  57.846  23.005
H  40.034  74.919  51.728
H  56.872  39.344  44.032
H  61.808  52.209  54.741
H  44.987  62.715  31.311
H  46.180  61.783  31.708
H  62.775  51.363  55.512
H  37.695  39.135  43.962
H  65.266  36.148  31.551
H  49.718  54.319  36.937
H  34.965  54.430  65.939
H  44.848  26.856  46.779
H  41.192  31.801  54.756
H  42.374  31.280  55.629
H  69.081  46.909  63.127
H  70.360  46.040  62.995
H  61.859  55.487  46.957
H  46.467  75.715  56.539
H  74.585  38.846  54.508
H  57.204  72.801  64.154
H  57.423  73.062  62.658
H  35.649  54.429  64.547
H  34.922  42.879  61.220
H  44.015  48.715  63.373
H  48.383  54.709  37.559
H  43.201  54.773  57.819
H  57.093  34.626  53.235
H  42.007  54.081  58.445
H  70.556  59.240  54.262
H  71.761  58.415  53.735
H  59.143  63.889  68.703
H  55.769  69.645  42.161
H  56.020  69.095  43.575
H  59.168  64.166  70.196
H  36.640  67.166  47.959
H  45.480  48.382  63.564
H  36.812  68.692  48.172
H  29.700  42.384  41.040
H  71.375  52.477  63.465
H  72.911  52.726  63.605
H  58.121  40.218  44.033
H  40.628  76.239  52.259
H  61.411  56.151  45.622
H  66.453  31.781  37.742
H  65.202  32.596  37.397
H  67.337  69.097  37.680
H  66.030  69.819  37.249
H  31.068  41.711  40.749
H  67.978  40.719  35.786
H  68.415  39.312  35.355
H  64.566  54.097  53.577
H  52.412  67.958  35.488
H  55.235  32.577  60.648
H  62.368  62.683  58.225
H  62.498  62.683  59.741
H  48.158  35.364  55.178
H  39.013  40.886  55.720
H  40.136  27.573  48.088
H  59.705  70.446  37.986
H  55.713  40.278  36.440
H  34.608  49.191  30.018
H  50.972  68.473  35.266
H  41.985  49.956  30.546
H  65.000  31.491  41.939
H  66.302  30.722  41.981
H  26.823  37.694  43.558
H  59.265  32.264  47.233
H  60.516  31.355  47.159
H  27.582  38.860  42.831
H  62.360  60.529  29.009
H  61.686  60.044  30.297
H  55.411  41.568  35.628
H  31.822  56.345  42.478
H  41.197  51.285  30.648
H  63.964  64.034  71.976
H  55.085  31.476  61.710
H  34.443  32.743  34.965
H  28.988  52.373  66.526
H  29.433  52.775  65.108
H  35.133  48.036  42.875
H  60.728  35.721  70.791
H  59.114  69.179  37.325
H  58.313  62.494  72.977
H  67.933  44.350  58.535
H  40.338  40.095  55.770
H  58.554  30.367  43.498
H  58.408  51.215  33.897
H  33.192  33.660  35.035
H  57.581  52.336  33.198
H  74.350  43.319  49.119
H  73.710  41.953  48.866
H  29.459  55.533  42.275
H  28.957  54.580  41.133
H  42.228  29.261  54.834
H  67.439  43.961  59.969
H  42.440  28.060  55.794
H  39.155  28.093  49.182
H  47.216  60.739  46.559
H  48.295  60.081  45.636
H  59.363  30.219  42.200
H  51.477  50.836  22.104
H  51.489  52.129  21.234
H  64.127  63.251  70.639
H  38.690  72.834  54.434
H  40.181  72.637  54.748
H  64.609  68.873  57.250
H  33.135  46.697  44.199
H  32.955  47.399  42.842
H  63.753  70.141  57.519
H  59.906  50.961  58.683
H  58.659  51.445  59.431
H  41.720  25.788  55.047
H  40.963  26.362  53.843
H  59.310  60.507  29.779
H  60.567  45.735  73.289
H  39.546  60.385  74.415
H  51.196  60.033  32.592
H  49.998  60.920  32.958
H  63.156  50.102  69.766
H  62.434  48.893  69.144
H  41.215  69.081  37.760
H  29.046  43.979  30.125
H  29.735  42.758  30.722
H  40.330  70.205  38.261
H  65.308  55.458  53.546
H  44.650  29.201  38.102
H  59.097  60.852  28.264
H  63.445  42.707  35.724
H  49.807  40.217  37.354
H  72.947  43.644  55.505
H  74.065  44.281  54.655
H  26.221  53.866  62.257
H  24.835  53.761  62.906
H  31.204  57.014  43.732
H  32.747  49.087  34.162
H  33.074  47.940  33.201
H  48.253  35.058  56.675
H  38.099  60.837  74.723
H  50.709  39.367  38.269
H  35.582  46.052  44.555
H  27.162  39.122  62.612
H  25.686  39.076  62.199
H  49.855  39.836  61.850
H  30.090  49.953  35.202
H  29.891  50.913  33.977
H  49.786  38.554  61.010
H  52.550  61.506  28.101
H  53.776  60.533  28.170
H  28.351  45.540  39.972
H  27.219  44.748  39.393
H  63.831  43.873  34.783
H  36.966  46.206  45.179
H  56.559  72.726  56.894
H  62.249  59.637  68.553
H  36.215  54.242  74.193
H  30.840  45.937  56.544
H  42.384  64.626  45.702
H  43.624  63.928  45.139
H  43.191  67.126  29.493
H  69.822  32.424  55.006
H  70.838  31.431  55.569
H  41.707  66.886  29.112
H  56.930  60.065  52.264
H  55.543  60.420  51.628
H  33.341  46.809  56.890
H  69.303  62.219  42.361
H  38.492  30.345  55.035
H  51.069  32.761  28.919
H  63.305  47.349  32.933
H  68.161  61.189  42.346
H  50.104  36.844  64.375
H  50.845  37.976  63.663
H  67.083  61.807  61.925
H  68.270  61.195  62.654
H  66.581  51.570  42.089
H  54.317  55.614  23.255
H  53.819  56.290  24.529
H  66.232  50.497  43.179
H  63.428  47.318  34.440
H  40.614  42.637  47.976
H  38.083  29.750  56.392
H  50.557  34.188  71.776
H  56.961  68.295  64.935
H  25.324  42.241  42.082
H  26.842  42.277  41.958
H  56.433  33.748  49.502
H  44.414  62.394  38.168
H  45.259  61.191  38.504
H  57.188  34.115  50.794
H  58.816  63.285  32.692
H  45.638  61.872  51.987
H  48.300  54.229  32.628
H  32.261  46.964  58.005
H  48.790  55.470  31.868
H  42.811  53.866  60.210
H  43.464  53.595  61.595
H  48.093  51.206  39.492
H  49.432  60.340  55.719
H  50.400  59.191  55.495
H  45.481  23.645  51.290
H  45.238  22.231  50.740
H  31.362  32.379  46.323
H  60.427  23.695  48.690
H  49.952  34.990  72.903
H  48.211  52.297  38.373
H  58.400  68.805  64.982
H  36.584  26.734  42.454
H  40.074  44.037  47.586
H  73.607  39.046  47.170
H  67.793  48.975  64.173
H  28.167  58.519  50.078
H  60.009  65.810  48.330
H  59.992  64.586  47.365
H  35.643  35.895  66.871
H  35.954  37.362  67.250
H  34.380  41.166  65.111
H  31.922  50.012  64.771
H  31.488  51.225  65.607
H  53.466  34.175  72.695
H  34.370  41.286  66.638
H  65.095  48.727  60.448
H  27.777  59.236  51.385
H  66.231  48.481  59.451
H  63.444  62.861  56.310
H  46.282  41.018  67.550
H  47.613  40.263  67.295
H  63.696  61.356  56.555
H  59.718  58.407  54.930
H  59.217  57.225  54.027
H  39.051  46.701  70.403
H  72.817  37.812  46.697
H  35.840  27.482  43.599
H  64.210  52.117  33.464
H  58.641  28.154  56.036
H  52.087  41.464  68.707
H  53.236  40.878  67.855
H  51.168  32.222  27.478
H  63.194  41.099  60.583
H  63.098  42.423  59.792
H  65.430  65.769  48.223
H  64.247  66.624  48.622
H  38.109  72.846  48.992
H  43.254  38.690  73.979
H  41.951  38.351  74.693
H  62.586  33.949  58.258
H  38.890  72.795  47.666
H  43.568  59.926  68.872
H  54.477  64.306  66.203
H  53.571  64.762  67.377
H  54.326  34.338  64.419
H  28.490  43.441  51.506
H  28.860  42.055  50.914
H  54.182  33.284  63.291
H  26.017  41.235  61.272
H  26.218  42.192  60.069
H  57.969  28.604  54.715
H  43.037  58.557  68.418
H  69.217  57.667  54.273
H  60.103  48.640  43.979
H  58.858  48.289  44.864
H  57.878  51.318  31.072
H  37.161  39.023  71.538
H  37.852  40.357  71.857
H  30.367  39.348  57.554
H  51.174  50.900  71.203
H  29.858  62.508  36.060
H  39.507  74.104  38.501
H  39.945  73.530  37.101
H  29.395  62.898  34.644
H  60.022  35.986  58.386
H  67.551  60.665  65.809
H  59.952  36.067  56.826
H  48.357  32.044  53.490
H  36.141  51.875  35.614
H  42.966  52.205  54.026
H  41.846  51.945  53.005
H  70.227  35.147  42.708
H  70.985  34.662  41.461
H  49.618  46.686  31.079
H  49.915  40.811  74.579
H  64.567  39.604  31.445
H  68.429  67.834  48.650
H  48.969  32.379  52.126
H  67.297  68.691  47.995
H  66.841  60.983  64.492
H  35.397  54.789  47.933
H  47.981  34.911  42.897
H  49.616  29.054  63.443
H  36.500  31.587  34.107
H  51.114  28.821  63.453
H  34.125  39.501  50.278
H  32.738  40.076  50.604
H  61.768  51.514  50.259
H  72.419  36.158  39.393
H  72.399  34.667  39.738
H  61.873  50.535  49.093
H  57.091  50.183  31.736
H  65.280  73.298  53.065
H  70.306  54.230  62.391
H  69.514  55.379  61.794
H  27.605  60.232  55.798
H  26.386  60.295  54.868
H  50.179  49.770  70.911
H  31.135  38.016  57.359
H  49.870  45.174  31.192
H  46.776  31.675  70.384
H  46.393  32.649  71.520
H  36.893  54.454  48.109
H  66.805  73.182  53.359
H  64.230  39.876  32.936
H  47.534  70.235  66.155
H  48.939  69.716  65.881
H  71.940  39.272  56.805
H  65.642  47.334  52.353
H  66.965  47.706  53.106
H  54.111  67.938  57.599
H  53.022  66.860  57.699
H  64.104  36.398  40.782
H  31.458  31.340  47.436
H  62.922  35.512  40.392
H  72.326  65.449  41.458
H  51.301  58.144  67.052
H  61.294  45.069  56.289
H  52.421  57.668  67.993
H  56.785  42.757  60.930
H  39.261  46.775  28.896
H  31.544  50.435  28.636
H  32.251  50.957  27.370
H  39.020  45.964  30.157
H  60.325  24.373  47.293
H  39.982  44.271  50.157
H  47.052  61.756  51.362
H  70.930  54.594  55.886
H  57.528  62.520  32.307
H  57.588  41.477  60.510
H  60.902  43.649  55.866
H  70.715  39.998  56.218
H  36.292  47.082  39.816
H  46.000  31.665  34.020
H  46.212  30.851  35.283
H  72.434  52.334  49.260
H  61.348  42.783  26.571
H  60.023  42.427  27.282
H  73.714  51.795  49.993
H  49.426  57.964  27.651
H  50.775  57.329  27.533
H  64.538  35.836  55.006
H  63.733  34.716  55.731
H  58.905  32.211  51.658
H  72.123  49.659  54.818
H  72.992  50.561  55.746
H  58.903  33.304  52.725
H  29.910  56.015  50.651
H  30.978  57.145  50.444
H  49.734  40.424  76.066
H  66.779  54.937  60.863
H  71.780  54.406  57.123
H  68.974  57.950  52.755
H  72.135  66.417  40.257
H  38.720  44.507  51.022
H  37.461  46.084  39.873
H  38.177  45.957  71.461
H  47.553  36.409  42.805
H  41.364  33.329  39.580
H  67.517  47.585  64.828
H  49.875  35.968  66.850
H  37.655  48.381  53.558
H  36.212  48.842  53.393
H  50.359  34.842  65.972
H  42.693  60.324  66.568
H  41.438  61.020  65.949
H  56.913  46.993  69.052
H  34.965  47.311  46.941
H  49.477  42.073  32.661
H  48.034  41.799  32.257
H  75.166  41.104  46.524
H  41.404  29.365  67.182
H  61.303  37.861  46.603
H  38.685  71.754  44.863
H  39.102  73.119  45.403
H  66.898  41.864  49.603
H  66.506  42.415  50.978
H  41.364  46.192  36.363
H  67.990  39.327  66.841
H  68.122  38.417  65.584
H  41.502  47.662  35.848
H  39.986  29.889  67.007
H  50.638  53.321  33.353
H  32.327  32.479  38.471
H  75.322  40.627  47.974
H  59.148  68.731  68.950
H  30.300  59.265  42.909
H  29.163  58.806  43.864
H  33.545  47.640  46.409
H  75.676  51.435  43.998
H  77.171  51.079  43.870
H  59.878  35.586  47.246
H  35.505  29.136  55.469
H  42.505  43.765  74.839
H  35.322  38.258  53.778
H  54.355  33.788  71.485
H  59.899  68.992  67.650
H  64.711  41.403  54.325
H  67.623  58.494  42.458
H  63.624  42.048  53.443
H  64.294  62.410  52.895
H  65.559  63.110  52.393
H  39.788  61.859  31.321
H  40.334  63.222  30.822
H  75.190  50.867  57.308
H  35.247  38.104  55.315
H  75.602  51.525  55.990
H  55.519  47.559  69.387
H  67.129  59.100  41.135
H  53.327  74.359  49.003
H  35.545  44.089  63.956
H  41.704  76.456  56.743
H  60.136  43.756  40.741
H  60.229  44.465  42.067
H  55.781  37.362  73.304
H  54.780  38.474  73.734
H  33.617  46.043  29.012
H  34.293  64.196  45.876
H  33.813  63.448  47.116
H  33.273  47.378  29.670
H  32.904  48.005  54.855
H  31.595  48.818  54.846
H  57.255  37.549  30.733
H  31.901  64.020  47.328
H  31.957  68.337  43.355
H  47.222  45.223  40.743
H  38.745  52.225  58.113
H  41.038  58.010  30.528
H  39.913  58.955  30.913
H  38.422  53.672  57.585
H  42.732  45.506  65.913
H  43.164  46.989  65.979
H  36.900  47.516  64.929
H  37.727  48.372  63.933
H  36.682  63.806  50.630
H  33.660  33.237  38.641
H  56.692  63.348  65.651
H  56.279  38.735  30.577
H  50.416  24.183  40.385
H  51.383  24.943  39.460
H  41.357  76.464  55.247
H  36.390  44.899  41.122
H  35.756  46.062  41.911
H  43.521  41.124  55.977
H  43.725  41.831  57.328
H  64.171  40.957  35.148
H  42.385  42.267  74.438
H  51.015  54.478  32.421
H  57.182  62.428  64.501
H  62.500  38.478  45.829
H  43.787  37.083  37.166
H  35.846  42.662  64.427
H  74.055  36.500  44.772
H  44.649  57.723  22.367
H  45.426  57.551  23.680
H  73.075  36.394  43.602
H  68.718  65.875  41.878
H  68.867  67.292  41.270
H  61.253  37.411  59.557
H  59.988  37.390  60.418
H  44.138  38.428  36.527
H  52.804  73.018  48.416
H  56.400  40.208  49.454
H  42.121  50.968  69.896
H  42.202  51.600  63.129
H  38.897  44.946  24.142
H  42.764  32.976  39.049
H  34.528  30.585  46.914
H  54.272  71.635  38.954
H  52.968  38.472  63.264
H  53.125  39.466  64.419
H  53.092  48.642  35.509
H  61.940  47.564  60.791
H  61.463  47.464  59.350
H  43.086  50.427  62.660
H  38.549  50.915  74.049
H  28.638  35.700  46.208
H  43.300  64.139  48.925
H  43.836  65.473  49.398
H  28.622  36.255  47.632
H  55.704  72.191  39.175
H  34.760  31.657  45.836
H  45.513  55.736  61.904
H  44.385  56.643  62.412
H  67.271  59.355  62.574
H  36.789  64.843  38.127
H  37.047  51.144  74.243
H  37.271  63.501  38.587
H  51.795  71.770  46.857
H  45.820  57.028  72.148
H  41.065  65.504  49.171
H  43.318  43.246  35.201
H  69.916  35.824  35.122
H  39.225  75.706  55.363
H  38.473  75.631  54.022
H  70.398  41.675  49.912
H  63.812  72.405  47.716
H  63.072  71.615  48.814
H  69.245  42.617  49.546
H  44.210  34.538  44.825
H  46.867  57.679  73.049
H  42.802  35.086  45.188
H  32.408  42.266  46.222
H  32.577  38.484  48.655
H  68.877  36.348  36.141
H  40.364  66.072  47.977
H  32.716  38.332  47.107
H  39.317  32.062  61.604
H  37.912  32.514  61.155
H  67.867  30.749  50.324
H  68.395  29.547  49.531
H  50.674  71.492  47.827
H  31.225  43.005  45.593
H  66.457  58.067  62.320
H  67.996  45.699  41.284
H  67.017  46.900  41.278
H  68.515  33.436  49.321
H  47.478  37.909  32.397
H  27.214  55.336  52.053
H  43.872  42.038  35.995
H  65.666  41.188  34.792
H  30.354  63.942  47.338
H  56.929  36.313  32.473
H  35.518  27.896  56.380
H  22.004  42.654  50.307
H  23.042  41.582  49.839
H  68.000  33.895  47.981
H  68.269  49.966  60.964
H  60.383  60.600  44.244
H  71.797  63.209  48.831
H  70.504  63.370  47.957
H  61.580  60.361  45.197
H  56.261  42.220  33.580
H  54.815  41.917  33.116
H  58.361  35.770  32.264
H  61.375  35.996  47.323
H  57.068  40.366  50.842
H  43.577  50.609  70.168
H  69.062  50.652  59.841
H  47.277  38.309  30.949
H  44.532  48.649  57.138
H  45.849  48.581  56.319
H  43.417  65.292  36.190
H  42.089  65.716  35.471
H  37.116  62.682  49.740
H  51.626  49.021  35.579
H  47.666  70.679  61.520
H  48.578  71.251  60.400
H  27.879  56.505  51.295
H  43.846  43.126  37.956
H  45.155  43.928  37.694
H  73.711  57.002  54.847
H  46.936  59.365  61.251
H  46.892  57.826  61.510
H  73.658  55.841  53.859
H  40.692  74.675  44.196
H  40.672  74.657  45.772
H  44.029  37.340  29.380
H  42.525  37.214  29.729
H  45.026  35.675  46.604
H  63.117  54.922  29.601
H  63.129  53.870  30.721
H  44.754  37.189  46.474
H  36.828  64.425  44.563
H  35.458  63.885  44.106
H  39.780  44.010  24.987
H  63.730  59.940  68.719
H  40.654  40.846  33.399
H  52.713  41.287  25.203
H  61.036  37.195  49.232
H  63.906  45.467  30.946
H  63.792  46.931  30.507
H  48.947  63.790  59.870
H  46.364  69.293  38.020
H  45.025  69.023  37.283
H  47.524  64.358  59.778
H  50.108  39.452  26.857
H  49.085  39.919  27.896
H  63.501  44.584  54.383
H  60.585  62.779  54.086
H  64.221  43.686  55.444
H  23.199  51.710  51.255
H  21.797  51.082  51.329
H  31.336  45.081  35.981
H  63.355  37.536  50.250
H  64.731  36.947  50.713
H  50.876  56.158  30.971
H  49.919  56.864  30.018
H  39.785  53.512  74.990
H  52.746  72.158  40.311
H  51.836  72.817  39.261
H  30.376  44.193  36.833
H  40.500  52.310  75.662
H  60.416  63.961  55.070
H  45.295  56.922  53.208
H  47.296  57.730  38.137
H  65.197  68.176  49.752
H  42.514  48.737  60.773
H  43.022  47.769  61.873
H  34.425  40.535  26.210
H  34.693  41.909  26.849
H  45.493  58.462  37.888
H  56.030  37.818  34.373
H  55.441  38.207  32.971
H  67.591  49.939  57.937
H  46.558  57.116  52.362
H  61.015  38.569  49.949
H  65.982  29.688  45.373
H  67.283  30.006  46.212
H  37.914  30.665  59.943
H  38.136  38.102  41.164
H  38.381  39.039  39.965
H  36.792  30.502  58.920
H  63.472  33.385  45.698
H  63.660  33.070  44.211
H  45.656  40.060  70.606
H  46.065  38.870  71.463
H  68.281  48.690  58.496
H  46.937  56.443  38.971
H  45.657  27.104  48.040
H  36.640  52.364  34.235
H  48.414  60.281  70.103
H  45.460  51.884  28.516
H  30.832  60.657  59.405
H  35.257  71.289  52.814
H  46.826  51.340  28.069
H  56.088  32.848  29.838
H  54.976  31.939  29.382
H  28.906  61.459  57.931
H  27.920  62.316  57.118
H  63.444  37.142  65.474
H  52.897  28.140  31.800
H  52.343  38.957  40.454
H  62.881  38.482  66.045
H  31.168  61.765  58.390
H  56.328  50.963  47.172
H  35.882  57.164  54.113
H  56.832  50.296  48.460
H  62.885  55.611  49.005
H  66.404  37.205  57.249
H  66.414  36.612  55.835
H  64.371  55.785  48.741
H  41.799  72.168  61.462
H  50.989  39.488  41.028
H  56.361  42.526  40.084
H  34.919  48.210  62.370
H  41.321  52.653  26.122
H  39.412  33.621  65.607
H  43.667  36.893  48.747
H  42.657  36.284  49.729
H  58.010  71.801  36.470
H  41.972  71.021  65.029
H  42.477  72.458  65.257
H  56.944  72.018  37.585
H  52.388  28.328  58.830
H  53.889  28.377  59.147
H  48.052  73.844  59.422
H  36.448  48.224  62.364
H  46.753  74.183  60.164
H  39.766  35.126  65.645
H  54.324  28.241  31.234
H  55.749  28.218  48.754
H  57.639  44.276  27.498
H  57.780  42.830  27.125
H  36.957  47.150  37.218
H  36.429  45.713  37.496
H  39.922  53.270  26.087
H  34.098  44.957  36.570
H  35.229  43.921  36.468
H  56.337  28.841  50.030
H  66.406  69.085  49.711
H  44.544  59.567  37.352
H  26.856  58.333  57.717
H  46.016  45.576  29.766
H  41.379  71.602  43.770
H  54.366  46.162  64.160
H  52.963  46.803  63.922
H  52.303  32.222  53.730
H  52.134  31.563  55.119
H  35.659  58.165  32.123
H  29.684  37.401  60.694
H  29.942  38.783  61.398
H  37.118  57.950  32.500
H  46.626  44.212  29.552
H  34.167  64.858  41.091
H  31.437  43.173  66.307
H  30.645  42.631  65.126
H  27.612  57.199  65.218
H  55.665  37.322  36.435
H  57.068  37.810  36.729
H  55.764  31.353  40.434
H  31.046  41.461  54.710
H  70.048  51.861  61.557
H  70.985  50.399  66.327
H  59.144  70.831  66.083
H  33.924  65.796  39.885
H  58.866  71.267  64.627
H  42.719  71.139  43.233
H  42.934  49.436  77.744
H  29.620  46.371  55.671
H  28.723  51.830  51.630
H  45.914  27.158  54.856
H  30.089  51.582  50.931
H  30.491  64.226  43.659
H  57.797  31.423  34.649
H  56.524  30.893  33.991
H  34.978  62.516  49.107
H  34.707  61.332  48.189
H  65.559  33.847  35.499
H  43.990  49.748  76.677
H  37.375  53.765  73.322
H  64.354  34.735  35.727
H  31.390  53.592  44.428
H  31.891  54.491  45.589
H  25.920  42.833  62.632
H  61.252  27.684  60.054
H  27.760  50.178  58.569
H  27.141  49.253  59.604
H  28.428  57.558  66.502
H  30.062  57.108  55.918
H  31.094  55.982  56.095
H  40.143  70.641  60.609
H  47.959  25.648  44.267
H  63.297  59.677  73.380
H  62.392  58.537  73.916
H  60.882  51.046  31.329
H  61.621  51.385  30.015
H  42.580  33.746  61.318
H  70.916  62.791  41.219
H  72.320  62.561  41.778
H  64.910  37.945  30.025
H  64.104  36.887  29.234
H  74.148  37.957  56.753
H  58.954  35.767  37.809
H  74.103  39.474  56.747
H  41.293  34.249  60.603
H  47.145  66.172  60.610
H  58.881  49.746  70.871
H  70.863  50.656  33.480
H  72.137  50.942  32.677
H  26.105  57.373  34.396
H  62.351  44.565  45.484
H  62.347  43.107  45.964
H  26.534  57.260  35.879
H  57.996  36.353  38.863
H  70.896  61.221  51.106
H  71.943  60.959  49.981
H  60.109  50.547  71.264
H  51.294  78.973  48.632
H  50.307  78.163  49.445
H  69.039  51.993  62.683
H  58.688  36.826  73.086
H  57.576  35.886  73.598
H  63.529  61.083  61.516
H  45.211  70.335  44.526
H  44.531  69.630  43.322
H  64.458  61.422  60.292
H  71.473  51.728  65.683
H  49.436  41.416  56.628
H  34.507  56.670  67.731
H  35.139  56.723  66.313
H  27.426  63.281  59.903
H  60.367  59.819  38.372
H  60.764  58.335  38.320
H  26.590  64.565  59.775
H  51.612  35.135  29.124
H  50.800  35.952  30.121
H  60.690  52.515  69.598
H  61.526  51.242  69.365
H  27.940  59.460  57.702
H  48.369  24.941  45.571
H  50.435  40.227  56.635
H  55.711  32.670  41.242
H  46.771  67.008  59.367
H  42.312  71.071  60.529
H  53.176  42.721  25.322
H  54.291  62.435  56.160
H  49.790  61.016  70.076
H  56.636  26.375  33.826
H  31.575  56.326  36.376
H  30.225  56.405  35.684
H  49.488  76.676  59.518
H  30.007  67.143  46.646
H  28.883  68.006  47.205
H  48.401  75.767  60.130
H  31.105  32.280  61.681
H  31.116  33.223  62.897
H  69.962  53.533  39.692
H  55.482  26.685  34.804
H  69.824  53.700  38.175
H  61.942  45.672  32.547
H  47.013  48.909  21.596
H  61.629  34.852  49.945
H  62.474  35.667  50.969
H  21.802  56.572  48.564
H  22.931  57.491  49.089
H  73.658  64.800  43.172
H  64.771  34.156  53.520
H  64.206  33.819  52.090
H  72.443  64.368  44.010
H  37.559  57.246  39.343
H  55.213  61.073  60.037
H  47.521  30.603  68.449
H  37.259  34.587  52.147
H  60.956  65.508  69.296
H  61.835  65.748  70.516
H  67.345  55.281  52.481
H  67.246  56.759  52.908
H  25.638  65.746  52.731
H  33.550  40.849  52.266
H  33.733  39.665  53.232
H  34.563  51.530  32.200
H  47.073  50.358  21.074
H  63.946  40.058  58.300
H  63.832  41.392  57.546
H  36.910  34.186  53.613
H  36.634  52.077  61.383
H  34.051  50.343  57.271
H  26.512  51.248  59.884
H  25.995  52.664  60.162
H  35.039  51.353  57.878
H  33.522  39.235  65.798
H  34.019  37.791  66.085
H  74.950  57.554  47.045
H  73.826  58.574  47.346
H  47.433  32.145  68.366
H  37.819  52.991  61.038
H  50.924  65.350  37.731
H  56.589  61.443  60.660
H  70.711  55.846  34.823
H  56.549  43.392  69.316
H  32.302  65.264  36.001
H  31.048  65.084  35.146
H  61.592  43.376  38.645
H  49.694  34.984  69.484
H  51.218  34.952  69.604
H  27.932  43.071  62.666
H  29.345  43.659  62.346
H  37.857  44.337  46.645
H  32.894  50.595  50.875
H  62.572  43.293  39.812
H  31.566  49.862  51.114
H  36.413  32.955  33.370
H  56.876  43.934  70.680
H  67.953  55.356  59.984
H  39.629  41.968  33.111
H  45.940  28.768  66.588
H  68.415  49.513  49.589
H  69.509  48.864  48.750
H  46.914  27.681  67.084
H  41.673  31.823  43.988
H  41.312  30.393  44.400
H  38.943  45.295  46.151
H  71.217  55.641  36.253
H  52.931  58.268  43.539
H  37.278  57.121  29.389
H  63.713  52.046  53.330
H  28.948  47.217  53.577
H  27.954  48.252  54.199
H  65.224  51.984  52.999
H  50.431  74.434  38.839
H  49.415  73.488  39.518
H  42.447  59.586  71.601
H  42.768  60.866  70.842
H  37.833  56.533  40.671
H  60.860  44.550  32.528
H  36.980  55.650  29.137
H  57.800  64.543  67.136
H  63.987  33.912  58.893
H  53.570  59.600  43.998
H  29.800  36.958  58.479
H  28.677  35.939  58.751
H  30.339  48.098  58.404
H  30.820  48.173  59.857
H  51.342  25.159  33.923
H  47.565  46.155  54.160
H  46.906  44.757  54.245
H  52.521  25.736  34.738
H  43.828  46.082  30.120
H  36.289  57.996  58.830
H  35.316  56.867  59.217
H  50.664  66.233  36.484
H  34.688  48.871  59.849
H  40.071  51.757  62.263
H  56.935  65.788  66.957
H  50.933  58.516  39.629
H  42.104  54.163  53.917
H  39.854  61.850  37.887
H  40.267  60.358  38.110
H  49.984  51.353  64.838
H  30.345  63.048  55.073
H  71.126  52.871  67.738
H  34.571  48.096  58.515
H  70.943  54.363  68.223
H  70.762  65.835  59.083
H  26.239  51.586  56.383
H  53.463  41.366  50.143
H  52.427  40.407  50.737
H  26.943  52.801  55.840
H  60.270  64.562  61.315
H  61.428  65.187  60.578
H  63.641  59.470  38.445
H  63.365  58.144  37.697
H  39.713  56.660  55.929
H  69.990  65.158  60.178
H  56.263  33.126  65.487
H  40.073  51.492  63.790
H  45.785  62.426  71.341
H  35.805  58.644  54.549
H  22.969  55.880  42.818
H  24.428  55.566  42.445
H  31.294  62.709  53.951
H  56.435  62.841  45.629
H  52.017  57.886  40.521
H  66.650  28.640  53.733
H  65.570  29.545  53.117
H  29.044  41.613  35.580
H  76.572  39.449  50.772
H  44.314  62.202  70.894
H  77.608  40.512  50.330
H  62.909  51.634  58.154
H  62.504  52.714  57.173
H  64.451  56.931  64.634
H  63.158  56.274  64.255
H  43.920  33.926  51.758
H  48.464  51.143  65.074
H  44.530  33.544  50.397
H  57.477  61.802  46.141
H  58.632  63.026  55.682
H  58.391  63.284  57.202
H  30.316  42.138  34.886
H  55.047  32.434  66.154
H  40.193  55.850  57.168
H  35.248  55.500  62.080
H  41.100  30.526  37.851
H  54.102  29.269  62.033
H  40.911  65.902  72.455
H  42.033  66.984  72.217
H  34.968  50.036  32.172
H  53.712  45.855  25.265
H  40.338  74.092  57.910
H  37.486  29.389  49.913
H  43.863  50.270  22.801
H  64.850  50.688  33.368
H  39.951  30.715  38.852
H  68.871  41.631  37.760
H  58.838  40.226  46.074
H  60.220  39.804  46.584
H  60.659  72.042  39.626
H  33.232  46.232  50.247
H  33.829  47.067  49.104
H  59.553  72.503  38.629
H  52.728  38.705  44.015
H  52.163  38.244  42.628
H  42.394  49.766  22.830
H  26.453  64.786  53.650
H  68.724  43.137  38.067
H  55.243  28.511  61.301
H  57.562  35.699  45.107
H  56.483  35.604  44.022
H  36.223  54.340  62.401
H  50.680  56.489  77.316
H  50.614  55.940  78.761
H  41.215  55.242  54.605
H  36.150  72.500  52.360
H  37.339  29.720  48.409
H  44.048  46.358  31.615
H  33.712  54.590  51.522
H  55.171  45.785  25.777
H  47.325  41.345  26.899
H  56.180  70.254  39.738
H  57.331  69.285  40.140
H  46.278  41.590  27.949
H  70.656  57.457  39.028
H  71.436  58.224  37.910
H  51.220  53.401  65.462
H  50.826  53.455  63.963
H  57.401  44.511  57.676
H  32.219  55.022  51.295
H  57.404  43.870  59.092
H  39.933  75.521  57.564
H  71.862  53.375  41.822
H  70.457  52.897  41.966
H  55.352  63.269  56.975
H  62.028  40.904  55.624
H  42.488  36.736  57.674
H  45.617  30.131  53.233
H  72.280  49.760  45.533
H  73.291  50.004  46.682
H  64.359  67.204  41.460
H  42.019  36.359  27.599
H  41.048  47.324  68.827
H  36.796  47.882  51.134
H  61.765  52.120  62.601
H  60.837  42.177  63.378
H  58.529  47.638  67.369
H  64.384  35.733  60.278
H  63.067  67.666  42.152
H  63.569  36.302  59.086
H  58.087  53.559  60.855
H  44.507  27.681  42.310
H  40.475  67.037  38.430
H  40.872  67.046  36.945
H  45.235  26.301  42.287
H  56.457  25.981  36.691
H  55.559  26.112  37.947
H  60.889  43.617  62.892
H  44.131  28.050  44.463
H  40.739  63.024  67.635
H  57.588  54.650  61.784
H  71.378  50.478  58.975
H  43.573  42.240  23.966
H  64.196  47.919  55.744
H  65.584  42.088  66.844
H  66.124  41.114  67.937
H  57.044  60.498  62.705
H  41.526  39.316  29.918
H  28.301  44.092  42.983
H  28.131  43.934  41.501
H  41.740  35.208  26.594
H  38.426  52.579  32.323
H  39.373  52.249  31.132
H  55.566  69.409  57.093
H  43.882  43.730  24.177
H  66.641  37.988  40.650
H  54.338  70.139  56.502
H  31.872  59.306  57.285
H  30.952  58.667  58.331
H  62.838  73.830  54.033
H  63.116  73.000  52.780
H  58.623  45.917  42.734
H  61.853  49.062  45.376
H  63.259  49.151  46.068
H  59.157  46.882  41.657
H  64.944  47.158  54.618
H  67.314  38.361  41.938
H  62.182  44.125  43.467
H  70.947  49.108  59.601
H  44.385  54.205  36.433
H  48.825  58.330  24.696
H  46.315  37.584  41.140
H  43.166  58.680  45.348
H  43.574  60.160  45.623
H  45.944  38.482  42.325
H  64.329  32.883  49.204
H  63.803  33.961  50.117
H  39.900  32.056  32.295
H  34.246  36.925  57.015
H  25.837  52.306  65.346
H  49.140  59.451  25.650
H  26.462  52.382  63.946
H  33.829  45.179  34.568
H  37.533  46.348  52.683
H  39.387  68.018  44.427
H  38.875  68.324  43.029
H  40.868  44.955  67.926
H  39.787  43.801  67.745
H  45.941  34.017  66.921
H  37.228  54.119  27.812
H  38.422  54.264  26.848
H  45.597  32.774  67.798
H  65.657  54.601  28.931
H  42.092  63.221  68.356
H  56.370  45.908  75.123
H  39.855  32.785  33.624
H  45.564  53.325  36.895
H  63.294  64.470  35.251
H  63.374  63.617  36.529
H  35.450  36.011  57.164
H  49.802  31.729  68.397
H  51.219  31.895  68.929
H  44.510  26.580  44.618
H  57.251  47.057  66.748
H  29.707  61.934  52.737
H  67.427  62.402  33.927
H  56.146  46.416  73.693
H  51.796  36.932  65.558
H  38.001  53.574  37.363
H  38.402  55.051  37.558
H  25.310  65.486  50.621
H  57.521  66.258  43.366
H  58.361  65.793  42.156
H  60.508  48.528  64.952
H  61.436  48.070  66.092
H  71.541  53.023  34.309
H  67.631  60.929  34.247
H  72.867  52.326  34.697
H  26.409  66.554  50.408
H  65.323  56.002  28.430
H  61.611  45.495  43.863
H  50.722  39.876  24.250
H  42.517  59.733  36.586
H  61.530  62.389  43.363
H  34.406  65.785  52.024
H  39.774  48.568  31.281
H  39.078  49.961  31.287
H  42.047  65.330  63.737
H  42.629  66.719  63.720
H  59.271  50.186  48.410
H  56.056  49.633  36.089
H  56.656  50.991  35.549
H  37.576  62.933  68.654
H  59.025  49.299  49.668
H  41.280  23.743  53.407
H  34.328  66.441  53.397
H  41.631  23.179  52.004
H  48.868  50.390  74.222
H  41.791  57.510  40.438
H  43.082  58.112  41.061
H  49.687  49.761  73.048
H  52.579  69.661  37.697
H  54.117  69.592  37.640
H  29.858  41.304  61.710
H  42.913  60.915  35.677
H  31.300  41.055  62.083
H  36.657  59.501  56.386
H  48.605  67.439  38.271
H  53.937  56.532  39.544
H  53.980  56.571  41.086
H  52.637  59.082  29.508
H  61.828  45.442  58.889
H  61.066  44.352  59.703
H  68.147  35.350  57.668
H  69.650  35.409  57.621
H  37.860  43.356  44.352
H  68.242  44.836  32.149
H  69.702  44.379  32.079
H  48.632  49.460  24.646
H  38.054  44.820  43.885
H  47.886  49.276  32.596
H  35.084  52.334  67.180
H  33.647  52.140  67.614
H  34.028  45.351  47.883
H  25.427  59.813  44.793
H  24.592  59.567  46.041
H  33.003  44.282  48.325
H  66.609  62.126  50.161
H  67.641  61.070  49.638
H  49.476  68.683  38.122
H  48.274  49.905  33.951
H  59.723  49.039  76.631
H  58.877  55.888  51.893
H  60.252  63.113  43.766
H  47.302  51.912  63.221
H  36.896  65.373  59.373
H  57.379  55.508  51.978
H  49.930  47.891  29.348
H  66.100  47.897  71.984
H  73.585  41.256  36.158
H  72.493  41.709  35.202
H  42.069  39.866  28.572
H  30.602  47.213  51.719
H  31.681  48.001  52.456
H  48.123  51.713  61.918
H  63.077  73.027  40.065
H  32.914  35.262  65.454
H  69.472  53.947  34.768
H  69.610  52.477  35.260
H  32.383  35.039  64.042
H  66.707  48.575  73.228
H  51.347  47.494  29.882
H  56.697  66.467  45.830
H  57.481  65.208  46.014
H  58.636  48.405  75.745
H  50.780  38.472  24.940
H  63.627  71.623  40.377
H  38.334  65.964  59.586
H  45.605  40.489  60.807
H  60.278  53.490  36.162
H  65.344  50.330  67.643
H  41.626  47.407  67.406
H  48.767  72.020  65.281
H  25.006  47.404  61.836
H  24.333  48.655  62.393
H  57.817  53.774  48.678
H  57.968  35.501  61.315
H  57.901  36.641  60.248
H  58.829  53.841  47.513
H  49.057  55.715  65.255
H  59.531  52.853  37.329
H  49.661  54.955  64.012
H  30.619  34.508  61.515
H  47.161  44.264  27.133
H  48.965  73.539  65.110
H  66.883  50.386  67.585
H  47.778  44.612  25.756
H  60.837  44.523  53.877
H  59.863  44.718  52.728
H  63.796  58.084  53.599
H  65.219  58.614  53.356
H  45.279  40.260  62.317
H  30.252  34.815  60.076
H  55.740  40.273  68.327
H  40.921  69.015  42.944
H  55.312  40.861  69.685
H  32.050  35.461  44.350
H  42.591  36.126  46.900
H  26.765  64.125  40.511
H  28.043  63.684  39.785
H  34.205  68.777  53.619
H  34.803  68.524  54.984
H  48.474  71.187  51.020
H  35.904  69.330  43.951
H  34.590  68.685  44.297
H  48.265  69.708  51.343
H  32.430  34.920  42.948
H  44.093  57.240  30.699
H  64.048  70.981  36.937
H  64.530  71.957  38.020
H  52.422  41.129  72.107
H  45.830  42.950  67.312
H  45.338  43.336  68.734
H  44.531  52.570  62.972
H  43.889  34.958  71.888
H  33.624  61.268  63.758
H  51.480  40.352  54.994
H  39.773  64.480  43.934
H  43.453  57.032  32.072
H  38.912  65.712  44.193
H  41.319  36.455  46.075
H  27.028  60.189  47.077
H  43.791  38.212  33.578
H  43.583  43.043  59.573
H  46.847  42.158  62.850
H  43.881  44.043  58.470
H  46.871  23.788  43.487
H  72.313  56.645  59.343
H  71.204  56.059  58.442
H  30.496  40.017  64.438
H  29.123  40.703  64.433
H  63.951  58.989  43.020
H  28.090  60.757  48.065
H  68.515  48.392  46.998
H  62.623  59.735  43.220
H  65.371  65.912  54.571
H  66.376  64.782  54.868
H  56.902  65.432  34.907
H  70.188  32.491  42.298
H  41.171  39.900  65.310
H  40.201  39.584  66.448
H  52.298  40.566  73.545
H  30.363  45.946  62.272
H  31.549  45.094  61.874
H  69.865  48.418  46.249
H  43.030  37.277  32.617
H  36.186  40.168  63.533
H  35.103  56.798  39.349
H  35.132  56.534  29.545
H  58.213  30.253  67.218
H  58.712  31.411  66.342
H  34.863  56.737  28.054
H  42.044  72.047  49.804
H  43.211  71.616  48.863
H  60.310  50.787  24.557
H  60.692  51.185  23.122
H  50.362  67.810  65.094
H  31.317  52.690  63.818
H  35.978  44.375  69.516
H  49.592  68.182  63.819
H  56.570  38.777  66.866
H  55.743  39.566  65.821
H  48.645  38.592  66.252
H  47.251  37.968  65.970
H  51.563  67.559  37.970
H  49.840  50.304  28.973
H  50.068  51.261  27.811
H  52.750  66.592  37.713
H  31.615  54.213  63.756
H  41.863  48.612  37.642
H  50.762  61.264  59.073
H  34.428  58.196  39.255
H  35.818  45.892  69.251
H  50.813  60.961  60.587
H  67.749  42.660  35.886
H  66.880  43.110  34.668
H  62.935  53.330  68.809
H  64.931  43.569  70.414
H  65.008  43.127  68.947
H  63.783  54.581  68.373
H  51.991  38.997  54.412
H  38.317  41.657  61.704
H  35.963  47.043  29.318
H  36.302  45.816  28.417
H  32.900  59.936  63.773
H  43.979  33.312  31.351
H  43.156  72.852  35.626
H  45.167  33.893  30.513
H  55.675  49.002  24.477
H  55.901  50.430  24.923
H  55.982  49.565  27.122
H  54.846  49.401  28.159
H  27.053  54.024  50.443
H  35.340  41.190  62.698
H  39.680  41.750  61.013
H  45.195  53.915  63.302
H  42.935  72.968  37.126
H  61.455  64.284  57.457
H  60.176  65.048  57.250
H  28.737  34.992  41.126
H  64.183  30.863  51.659
H  44.220  73.393  39.283
H  44.805  74.278  38.166
H  53.160  60.344  68.630
H  52.829  61.407  67.625
H  41.625  28.963  33.202
H  62.778  75.790  44.708
H  61.839  75.518  45.906
H  41.779  29.096  31.651
H  50.809  33.329  36.289
H  62.861  57.570  44.372
H  49.815  33.347  37.447
H  58.362  60.612  61.966
H  56.984  64.896  33.472
H  45.087  63.899  35.053
H  52.133  50.046  77.154
H  58.853  42.453  33.650
H  58.387  41.553  32.516
H  53.164  50.838  77.963
H  47.528  54.818  59.767
H  48.909  54.770  60.460
H  45.915  61.463  69.089
H  61.565  53.041  61.367
H  45.474  61.618  67.640
H  63.845  58.066  45.476
H  68.356  36.293  55.296
H  56.075  46.167  59.200
H  33.803  73.421  49.736
H  33.770  72.841  51.156
H  56.222  47.662  59.272
H  58.379  63.636  36.268
H  59.013  64.970  36.734
H  35.392  48.310  66.599
H  34.678  49.438  67.396
H  35.732  47.390  50.146
H  31.084  61.488  52.187
H  65.112  30.045  50.723
H  32.694  46.190  34.616
H  38.720  42.322  51.668
H  38.525  41.923  53.151
H  41.774  67.721  43.097
H  52.077  69.128  59.860
H  35.254  35.300  33.238
H  34.148  36.252  33.733
H  51.511  68.189  58.816
H  65.127  50.780  60.611
H  64.411  51.152  61.905
H  69.737  35.905  54.741
H  38.579  45.122  53.267
H  45.099  63.009  33.783
H  21.639  43.611  52.808
H  21.328  44.669  51.728
H  50.229  38.839  71.010
H  54.396  36.583  57.702
H  48.491  36.577  29.099
H  32.204  40.849  56.373
H  32.913  39.883  57.322
H  54.714  37.484  56.481
H  60.801  24.066  52.060
H  59.532  24.794  52.562
H  39.148  70.041  41.185
H  40.176  70.675  42.184
H  67.835  54.351  54.540
H  48.230  76.620  45.940
H  49.234  73.510  48.416
H  47.793  78.081  45.748
H  46.688  22.816  42.308
H  52.393  32.541  48.380
H  52.342  31.046  48.760
H  47.707  43.279  62.329
H  69.207  31.603  43.059
H  28.642  33.987  39.976
H  64.376  41.165  42.426
H  64.964  39.784  42.141
H  49.368  74.678  49.403
H  67.666  53.798  55.969
H  53.868  34.717  54.094
H  58.115  26.276  38.733
H  48.428  31.811  34.306
H  66.126  49.548  50.746
H  48.704  32.895  35.393
H  30.439  31.891  41.471
H  29.899  33.307  41.813
H  57.174  42.059  36.792
H  41.120  26.951  39.159
H  40.956  28.228  40.007
H  58.484  42.002  37.618
H  59.519  55.475  37.776
H  60.296  55.754  39.032
H  40.204  71.912  50.893
H  40.239  72.542  52.293
H  67.403  49.064  51.517
H  48.246  35.871  27.730
H  42.904  36.010  71.323
H  51.489  38.849  71.911
H  29.979  50.812  59.166
H  30.036  51.229  57.673
H  35.756  75.076  52.049
H  36.695  74.745  50.879
H  54.228  35.243  52.708
H  58.471  26.657  40.196
H  71.903  60.567  45.149
H  46.758  22.258  46.618
H  45.756  22.279  45.459
H  73.096  61.444  45.559
H  55.841  51.822  29.832
H  62.931  51.579  38.922
H  74.915  41.860  40.838
H  74.518  41.542  42.296
H  32.354  43.338  35.672
H  65.075  28.763  57.752
H  44.428  26.457  52.884
H  40.514  32.993  46.007
H  32.088  56.060  30.432
H  36.222  60.979  56.343
H  55.353  51.193  31.171
H  47.775  63.819  28.281
H  47.149  29.258  48.943
H  47.247  27.890  49.637
H  49.124  63.018  69.233
H  61.763  35.669  55.063
H  60.588  35.831  54.052
H  47.682  62.830  68.728
H  35.804  65.513  42.023
H  37.243  64.970  42.214
H  33.524  56.027  30.990
H  60.990  63.083  35.956
H  47.934  62.438  27.589
H  75.897  52.057  39.529
H  61.696  52.119  38.149
H  47.386  21.915  53.276
H  42.982  26.180  57.331
H  41.561  26.857  57.400
H  71.582  63.004  46.254
H  69.041  56.963  41.205
H  41.202  34.082  46.852
H  55.611  52.723  40.759
H  33.292  51.058  48.919
H  65.489  28.872  59.244
H  71.820  55.021  54.071
H  63.227  32.413  57.275
H  46.917  21.233  51.989
H  63.570  32.392  55.784
H  62.964  50.038  34.693
H  62.131  49.074  35.589
H  64.079  46.648  47.663
H  63.685  45.492  48.631
H  71.226  43.761  58.567
H  34.688  51.640  49.235
H  71.457  45.222  59.012
H  43.773  27.144  54.118
H  39.257  68.012  32.446
H  40.479  67.763  33.324
H  71.736  53.512  53.809
H  58.996  52.017  74.004
H  25.263  52.553  51.386
H  75.755  53.209  40.565
H  32.197  35.606  68.044
H  68.813  58.289  37.333
H  69.106  57.023  36.439
H  48.398  38.283  63.289
H  45.943  36.447  32.580
H  44.986  35.263  32.348
H  47.907  39.897  63.429
H  34.223  44.175  70.992
H  34.129  44.799  72.379
H  59.076  48.182  24.059
H  31.488  36.495  66.994
H  58.783  48.748  22.656
H  64.005  58.766  58.058
H  49.792  32.397  41.310
H  57.673  53.372  30.538
H  57.743  54.518  31.571
H  64.675  47.694  42.446
H  63.986  49.074  42.291
H  61.378  63.996  30.426
H  54.761  54.704  32.985
H  55.763  54.666  31.828
H  62.788  64.535  30.136
H  48.793  66.751  62.145
H  25.782  51.758  52.573
H  64.043  46.439  63.541
H  54.877  48.619  37.620
H  60.273  62.306  25.992
H  58.782  62.173  26.294
H  68.830  42.883  55.334
H  68.656  43.707  54.031
H  60.687  61.576  35.897
H  67.695  44.471  45.254
H  68.127  45.907  45.436
H  32.563  42.486  36.982
H  48.625  31.395  41.174
H  35.616  36.744  64.680
H  34.560  36.105  63.841
H  53.865  49.781  37.638
H  60.637  39.737  52.837
H  40.843  76.159  49.899
H  39.855  63.594  63.193
H  41.239  62.974  63.349
H  42.071  77.021  49.694
H  61.441  65.252  38.529
H  61.481  65.504  40.036
H  62.638  57.885  29.421
H  63.291  56.879  28.442
H  63.675  46.980  64.926
H  59.889  38.684  52.059
H  58.555  50.832  74.901
H  41.630  69.378  50.930
H  34.951  55.751  44.090
H  55.299  60.816  49.626
H  41.481  45.208  41.184
H  61.552  70.477  36.338
H  68.314  57.578  39.981
H  40.159  45.039  41.966
H  55.646  58.332  63.224
H  55.299  59.213  62.023
H  47.326  59.860  28.480
H  48.022  60.021  27.126
H  63.351  61.220  63.502
H  65.846  44.733  46.244
H  42.956  72.734  44.994
H  62.232  60.245  63.823
H  62.180  69.821  37.553
H  68.096  46.531  58.437
H  62.245  55.594  24.108
H  66.707  46.592  59.124
H  75.247  54.274  62.665
H  41.288  56.402  59.416
H  40.293  55.339  59.896
H  74.161  55.336  62.995
H  47.692  54.346  66.091
H  41.975  72.880  46.178
H  46.896  53.244  66.823
H  49.296  72.667  41.507
H  65.315  62.529  35.764
H  46.190  45.120  39.624
H  62.290  63.346  49.013
H  61.275  64.400  49.240
H  59.237  28.566  46.196
H  63.390  29.267  55.105
H  62.502  28.016  55.209
H  58.074  29.496  46.548
H  51.342  40.316  52.681
H  49.927  40.272  52.113
H  37.532  47.279  31.250
H  48.472  71.360  41.720
H  38.142  46.782  32.583
H  44.635  24.380  43.372
H  64.414  44.152  46.181
H  44.551  53.226  74.754
H  28.511  61.511  50.332
H  29.543  60.363  50.247
H  39.724  50.872  53.832
H  39.926  50.621  52.328
H  66.637  63.322  35.712
H  40.630  60.362  46.174
H  40.844  60.109  44.709
H  45.434  53.866  73.676
H  45.039  24.963  38.685
H  44.128  24.259  39.716
H  56.432  59.783  49.602
H  30.965  35.987  53.308
H  37.512  52.236  71.717
H  72.894  51.971  57.898
H  70.781  63.024  44.938
H  60.661  57.039  63.582
H  61.901  57.714  63.038
H  42.834  30.683  62.133
H  27.900  63.666  51.955
H  61.366  51.412  52.826
H  60.030  51.515  52.036
H  43.902  31.837  52.224
H  55.112  70.264  62.820
H  53.224  61.244  51.598
H  62.460  50.062  62.366
H  62.511  49.041  63.513
H  53.402  62.102  50.317
H  34.412  42.035  46.859
H  35.018  43.189  46.001
H  42.560  40.796  54.218
H  41.665  39.593  54.347
H  41.484  69.401  52.495
H  34.252  56.977  43.417
H  55.479  70.434  61.308
H  43.209  31.117  53.392
H  31.485  34.540  53.292
H  63.558  58.050  50.046
H  61.407  54.771  25.083
H  45.780  47.707  31.396
H  45.626  49.226  31.391
H  27.856  64.007  50.466
H  25.967  63.335  50.338
H  71.480  52.530  58.203
H  59.235  54.112  71.324
H  59.091  52.612  71.041
H  59.492  46.341  54.506
H  60.635  64.970  45.177
H  59.086  65.107  45.008
H  58.631  47.265  53.619
H  40.910  33.376  57.910
H  41.624  32.164  58.572
H  43.864  62.957  29.532
H  42.703  63.638  30.316
H  38.541  38.642  54.655
H  43.766  31.061  63.326
H  37.283  38.898  53.836
H  24.853  63.290  51.369
H  37.291  69.245  33.737
H  36.544  68.734  32.498
H  62.934  58.768  51.263
H  38.021  25.790  46.105
H  42.147  48.686  39.173
H  38.248  26.526  47.440
H  49.539  74.675  46.426
H  60.585  30.354  40.315
H  36.667  71.386  35.818
H  38.043  71.071  35.296
H  52.073  40.876  22.482
H  51.429  42.202  22.931
H  57.263  66.885  36.705
H  61.496  41.520  53.788
H  55.752  66.672  36.676
H  59.260  42.536  59.873
H  58.517  71.704  31.908
H  73.159  40.107  38.443
H  58.302  71.844  33.430
H  42.647  34.766  32.144
H  54.724  73.346  34.992
H  42.781  61.786  61.193
H  41.531  62.662  60.856
H  54.065  72.110  34.369
H  67.502  50.539  48.149
H  30.070  63.332  50.977
H  24.420  51.671  58.454
H  48.578  45.034  37.382
H  53.719  47.922  30.805
H  41.386  34.993  33.067
H  34.545  51.739  27.606
H  73.180  38.997  37.415
H  39.786  65.551  28.630
H  42.677  50.331  47.947
H  74.684  45.177  44.319
H  57.267  32.435  32.326
H  57.261  33.861  31.685
H  75.541  46.120  45.172
H  34.641  35.694  55.002
H  33.407  35.389  54.118
H  61.419  62.386  27.868
H  62.435  61.851  26.842
H  66.888  51.380  31.094
H  59.517  31.418  40.033
H  40.108  35.565  72.532
H  68.075  50.394  30.854
H  50.049  72.019  63.325
H  50.450  70.841  62.403
H  68.395  43.844  42.189
H  43.511  67.234  70.547
H  48.740  44.965  35.844
H  26.184  61.085  57.734
H  60.379  42.616  60.908
H  30.436  63.972  49.617
H  40.811  64.703  27.845
H  40.536  36.981  72.113
H  42.648  51.815  47.567
H  33.940  51.052  28.843
H  55.035  29.250  34.108
H  55.207  42.734  22.963
H  54.936  41.718  24.077
H  60.480  52.021  42.531
H  35.326  53.485  33.097
H  33.977  53.580  33.846
H  60.252  52.697  41.188
H  64.212  41.269  45.793
H  62.957  41.116  46.689
H  74.389  46.854  49.581
H  67.614  68.888  57.969
H  47.444  71.842  69.280
H  51.147  58.709  29.378
H  55.630  56.092  74.645
H  68.527  70.041  58.373
H  24.437  61.686  52.952
H  24.025  62.913  53.827
H  57.571  23.143  51.038
H  57.519  23.767  49.632
H  56.048  57.187  57.991
H  70.742  65.910  48.499
H  70.790  66.283  49.977
H  55.826  57.761  59.404
H  56.000  57.458  74.059
H  25.116  59.949  57.885
H  48.050  70.781  68.337
H  72.280  40.586  49.846
H  53.830  30.186  34.117
H  41.890  38.349  48.741
H  40.527  39.078  48.838
H  41.238  23.997  46.317
H  47.504  27.943  64.634
H  47.668  27.456  63.160
H  42.120  24.240  45.038
H  53.544  49.445  30.948
H  24.249  52.688  57.328
H  55.007  54.142  38.008
H  73.418  46.148  50.521
H  54.671  52.701  37.570
H  33.942  67.879  34.777
H  34.093  66.481  34.103
H  46.023  49.875  61.497
H  51.483  27.954  44.080
H  52.281  28.762  43.029
H  41.818  68.650  60.018
H  41.019  69.292  58.875
H  60.967  42.512  52.775
H  66.999  51.864  47.599
H  72.296  40.138  48.381
H  45.535  51.368  61.628
H  32.397  40.188  32.162
H  30.974  39.889  31.654
H  43.656  31.055  68.560
H  67.843  70.259  60.334
H  50.690  31.170  38.430
H  50.901  32.200  39.542
H  57.349  36.988  54.630
H  66.043  49.403  32.270
H  65.534  48.567  33.484
H  46.773  70.065  41.146
H  45.413  69.403  41.023
H  58.283  50.050  42.202
H  39.870  38.953  60.133
H  56.074  36.551  55.350
H  40.222  40.015  59.082
H  50.858  63.492  27.526
H  66.580  70.450  61.166
H  44.686  67.835  71.349
H  67.440  32.564  45.017
H  71.889  59.050  48.510
H  56.698  27.569  58.996
H  55.443  27.161  59.795
H  72.421  60.121  47.525
H  54.429  29.900  51.121
H  52.963  29.459  50.927
H  59.810  49.935  42.345
H  60.820  53.088  29.276
H  63.928  60.932  39.848
H  36.175  47.647  56.813
H  64.809  54.794  37.957
H  68.074  52.128  66.585
H  69.276  51.370  67.110
H  63.477  54.901  37.163
H  42.368  30.817  29.791
H  40.949  31.069  30.316
H  53.881  44.282  67.875
H  54.399  43.279  68.919
H  47.952  65.675  62.950
H  63.439  57.622  58.911
H  36.636  46.993  58.119
H  38.398  51.492  70.694
H  48.392  50.227  23.348
H  65.247  60.977  40.548
H  57.564  68.040  67.740
H  56.014  67.976  67.690
H  40.640  44.929  55.396
H  40.948  44.576  53.931
H  48.839  63.758  48.962
H  54.107  72.175  42.538
H  54.965  72.775  41.399
H  49.796  64.364  49.989
H  55.211  53.510  42.022
H  61.491  53.901  28.167
H  67.058  31.666  43.831
H  42.282  56.602  49.573
H  72.894  46.089  42.110
H  71.929  45.495  43.147
H  53.640  27.797  33.976
H  50.982  26.177  45.517
H  27.025  65.520  48.388
H  26.312  47.085  66.111
H  27.152  48.031  65.271
H  28.397  66.051  48.711
H  62.320  31.258  53.722
H  63.385  32.356  53.677
H  38.902  50.012  56.089
H  60.334  44.843  66.964
H  45.236  77.357  56.758
H  42.090  47.856  73.531
H  40.939  47.050  74.191
H  43.092  46.337  69.360
H  44.385  47.126  69.189
H  55.443  67.198  59.153
H  69.913  43.841  42.428
H  44.897  31.314  69.461
H  57.431  72.810  59.055
H  57.206  73.969  60.046
H  59.909  46.101  66.203
H  74.771  56.607  37.937
H  74.630  57.079  39.404
H  37.968  48.811  56.055
H  42.982  57.831  48.909
H  62.250  27.699  49.822
H  49.723  64.131  26.736
H  60.970  26.960  49.476
H  69.345  37.797  46.168
H  70.567  38.684  46.372
H  69.582  60.279  56.726
H  59.423  59.474  56.788
H  60.857  59.646  57.292
H  68.494  59.464  56.015
H  50.008  34.013  57.812
H  50.581  35.396  58.189
H  43.447  63.915  62.731
H  43.335  62.723  63.684
H  33.929  48.723  40.587
H  32.761  49.681  40.769
H  49.789  26.946  44.978
H  52.992  27.816  35.399
H  56.319  68.356  59.662
H  68.028  31.492  55.755
H  66.781  30.764  55.182
H  33.218  29.414  53.061
H  33.036  28.644  54.376
H  48.706  74.692  45.139
H  25.844  53.990  49.496
H  46.136  36.099  71.830
H  42.200  72.020  57.269
H  51.643  38.998  57.926
H  45.165  65.375  70.884
H  53.030  53.319  63.711
H  51.627  23.962  55.654
H  39.897  50.256  68.180
H  70.580  46.623  35.681
H  69.177  46.673  35.071
H  77.423  51.827  51.535
H  61.969  60.429  53.608
H  62.324  61.295  54.862
H  51.539  37.805  56.904
H  60.469  44.249  37.504
H  55.236  39.144  54.560
H  36.845  38.028  63.690
H  37.830  38.597  62.667
H  53.949  38.429  54.090
H  41.366  50.123  67.725
H  52.135  22.531  55.766
H  39.524  38.426  36.652
H  38.103  38.128  36.041
H  67.911  48.796  55.787
H  29.329  49.439  55.289
H  61.172  44.710  36.214
H  28.781  50.754  55.875
H  49.744  76.294  48.440
H  45.647  53.634  60.698
H  35.137  27.230  48.393
H  30.528  40.556  43.621
H  33.547  68.669  59.316
H  38.314  70.913  47.131
H  37.537  70.765  48.477
H  58.982  76.401  53.268
H  38.863  61.314  34.796
H  40.355  61.160  34.734
H  58.571  74.944  52.902
H  44.969  44.768  77.631
H  44.955  53.824  59.316
H  46.344  45.419  77.852
H  34.837  48.475  55.290
H  61.476  32.157  45.479
H  32.455  67.852  58.577
H  33.770  27.873  48.083
H  60.689  31.182  44.579
H  52.297  39.796  29.598
H  51.646  38.511  30.181
H  37.404  60.083  58.900
H  37.159  60.406  60.363
H  48.242  76.466  48.789
H  34.649  47.040  54.838
H  64.944  67.563  39.213
H  66.477  48.958  56.273
H  66.555  46.178  43.434
H  40.185  37.923  68.689
H  41.143  36.798  68.181
H  30.141  69.435  53.445
H  39.825  45.325  62.939
H  31.712  41.142  44.396
H  68.565  62.123  46.881
H  40.295  49.257  24.020
H  37.056  33.658  44.149
H  47.588  43.375  70.544
H  52.393  35.501  56.459
H  30.597  68.085  54.031
H  52.737  36.021  55.059
H  53.161  21.881  44.886
H  54.094  72.855  37.279
H  55.497  60.594  40.401
H  57.034  60.792  40.552
H  52.687  73.067  36.634
H  69.845  46.612  47.364
H  68.709  46.882  48.380
H  37.212  32.268  43.497
H  62.310  42.685  57.352
H  46.663  47.829  71.650
H  53.550  23.355  44.653
H  67.174  47.607  43.384
H  43.161  61.537  31.675
H  46.541  54.641  70.996
H  37.053  74.446  59.962
H  38.182  74.045  58.995
H  41.844  66.794  45.406
H  78.278  52.247  50.337
H  48.069  50.496  76.375
H  47.484  49.940  77.700
H  40.415  46.673  62.518
H  57.718  35.123  57.239
H  58.042  33.832  56.507
H  55.458  71.569  32.307
H  42.641  61.394  33.105
H  36.507  68.597  42.100
H  54.103  72.042  31.768
H  70.836  55.602  64.677
H  71.937  54.520  64.734
H  35.169  34.615  59.188
H  35.695  33.547  58.159
H  38.780  60.236  51.334
H  66.210  67.524  56.610
H  66.765  68.292  55.390
H  39.552  61.332  52.043
H  45.991  55.934  70.293
H  37.172  67.237  42.059
H  45.885  65.353  69.552
H  53.895  54.470  64.107
H  47.009  50.426  67.391
H  33.283  30.905  51.561
H  31.872  31.298  52.034
H  36.849  56.747  47.428
H  34.414  53.452  58.994
H  35.929  53.656  59.113
H  37.826  57.557  46.560
H  50.873  47.965  22.518
H  51.264  48.427  21.098
H  68.689  58.058  64.636
H  69.191  59.476  64.356
H  39.686  64.547  34.092
H  58.009  67.656  30.527
H  56.902  67.951  29.490
H  39.718  59.832  32.808
H  27.615  67.807  56.494
H  28.773  67.857  55.481
H  69.106  38.097  40.783
H  69.576  36.691  40.422
H  32.232  66.126  53.333
H  62.098  63.367  70.106
H  61.818  62.388  68.931
H  31.113  65.777  54.327
H  52.102  41.120  37.147
H  60.551  40.617  24.691
H  38.300  59.531  33.214
H  51.015  70.490  31.904
H  32.504  36.676  58.890
H  32.256  35.945  57.527
H  33.534  41.908  53.814
H  33.533  43.124  54.772
H  63.166  47.145  50.828
H  39.606  62.355  59.973
H  39.264  63.848  59.767
H  64.554  47.196  50.184
H  47.925  28.128  60.196
H  51.133  37.428  50.151
H  47.808  54.285  40.368
H  52.183  29.553  56.741
H  41.250  73.517  39.311
H  40.079  71.673  34.638
H  40.791  72.153  35.899
H  41.219  72.193  40.087
H  64.687  67.937  37.341
H  63.318  67.372  36.884
H  45.954  51.020  65.321
H  46.074  50.100  64.156
H  51.737  36.824  48.858
H  51.692  71.196  33.130
H  53.524  30.277  56.899
H  40.625  65.207  33.035
H  52.011  35.701  67.607
H  59.596  70.921  35.342
H  47.755  50.176  70.957
H  66.345  67.299  39.782
H  41.683  26.223  46.755
H  39.602  28.770  43.175
H  40.138  28.178  41.861
H  43.004  68.076  39.116
H  43.624  67.536  40.437
H  47.294  52.267  32.009
H  60.131  40.486  73.941
H  61.329  40.759  73.008
H  64.887  56.286  67.236
H  45.921  52.506  31.357
H  63.623  30.278  60.029
H  42.795  26.882  47.586
H  64.836  31.133  59.676
H  31.992  45.641  37.925
H  63.545  64.623  39.879
H  63.981  63.327  40.450
H  32.808  45.285  39.196
H  43.563  64.879  60.536
H  45.070  65.188  60.480
H  48.131  51.376  67.032
H  46.288  50.444  71.317
H  23.975  40.028  51.739
H  32.831  59.454  42.793
H  53.361  35.702  68.383
H  58.546  69.841  35.108
H  53.505  41.160  36.475
H  46.375  54.801  40.380
H  40.687  28.844  57.377
H  40.397  30.263  56.876
H  44.764  51.131  74.210
H  46.008  51.245  75.123
H  26.252  40.507  43.342
H  56.561  49.963  40.374
H  55.778  50.064  39.059
H  25.542  40.266  44.676
H  56.582  55.368  46.082
H  56.233  56.763  46.582
H  73.694  45.015  40.149
H  74.511  46.300  40.137
H  50.440  26.951  35.610
H  65.833  57.504  59.692
H  66.966  58.209  60.431
H  49.578  27.251  36.875
H  45.175  45.775  62.396
H  46.405  45.222  61.610
H  51.986  65.363  70.520
H  51.447  64.012  71.092
H  44.133  62.230  55.032
H  50.387  37.478  41.942
H  45.234  61.182  54.993
H  58.952  75.793  50.606
H  37.008  70.006  62.203
H  47.624  63.663  36.965
H  50.126  42.056  68.044
H  25.537  54.019  52.866
H  25.977  54.728  54.168
H  46.771  63.182  38.181
H  42.162  64.273  41.907
H  40.648  64.149  42.097
H  62.314  26.385  41.574
H  63.556  26.601  40.665
H  49.240  73.473  56.719
H  29.497  39.480  38.940
H  34.588  25.561  52.846
H  28.321  40.079  38.208
H  55.058  25.546  64.612
H  37.386  54.309  44.546
H  36.356  54.757  45.585
H  57.830  68.049  34.672
H  56.180  69.670  54.466
H  28.230  38.024  39.846
H  26.054  53.654  45.741
H  26.994  52.603  46.378
H  34.595  27.090  52.926
H  27.713  36.609  39.589
H  49.649  74.702  55.889
H  39.452  57.870  53.462
H  64.767  50.946  57.146
H  56.432  47.237  30.647
H  68.128  44.147  39.886
H  67.471  45.267  39.077
H  63.927  34.897  43.234
H  27.849  60.518  64.716
H  28.755  61.610  64.119
H  65.026  34.990  44.311
H  38.212  58.771  73.302
H  39.305  57.705  73.472
H  53.492  52.167  29.356
H  35.082  46.807  35.470
H  65.458  49.915  58.022
H  50.729  43.494  67.970
H  70.695  46.235  40.165
H  37.216  71.490  62.575
H  61.375  48.570  23.423
H  61.888  47.164  23.713
H  25.166  40.806  46.869
H  24.084  39.761  46.596
H  52.056  51.849  28.818
H  38.021  57.981  54.080
H  33.930  47.792  35.312
H  56.360  48.004  29.280
H  71.364  42.636  36.978
H  45.880  45.286  69.865
H  63.447  51.800  66.495
H  34.647  43.569  56.876
H  38.749  52.879  55.630
H  39.785  54.018  55.665
H  47.346  42.466  29.919
H  46.437  41.937  31.085
H  67.348  40.112  47.836
H  55.889  73.112  54.543
H  55.984  71.681  55.106
H  68.379  39.901  48.982
H  62.739  51.433  67.800
H  41.415  35.804  58.331
H  48.030  32.630  56.783
H  58.128  46.567  63.976
H  45.858  66.305  73.419
H  46.537  66.862  72.154
H  41.472  65.867  30.842
H  70.283  44.779  40.415
H  34.774  57.399  45.886
H  38.265  69.567  45.354
H  65.279  44.986  42.536
H  63.737  45.252  42.533
H  47.963  31.159  56.308
H  71.593  44.073  37.515
H  33.718  44.806  56.673
H  61.649  54.646  41.205
H  45.723  44.860  71.312
H  62.006  37.377  52.725
H  59.078  67.337  35.204
H  63.010  36.374  53.418
H  55.350  27.058  64.522
H  54.298  62.344  46.706
H  54.574  61.104  47.622
H  55.487  47.899  32.218
H  55.488  46.815  33.274
H  30.983  48.984  30.422
H  62.081  54.866  42.645
H  47.472  56.937  24.799
H  31.391  47.500  30.188
H  35.978  54.431  52.135
H  36.619  54.117  50.761
H  31.005  52.920  48.553
H  57.713  69.770  54.546
H  45.193  58.705  55.774
H  43.809  58.598  55.081
H  59.649  46.661  63.790
H  51.785  54.428  41.096
H  52.407  53.655  39.950
H  47.113  55.542  24.247
H  68.013  67.214  64.127
H  67.257  66.166  63.283
H  67.663  39.342  45.787
H  26.605  62.078  46.383
H  37.156  33.955  47.950
H  45.274  46.229  57.549
H  45.432  44.797  57.034
H  35.930  34.853  48.308
H  36.560  51.607  37.797
H  35.344  52.402  38.270
H  64.019  41.452  70.362
H  47.421  38.474  23.513
H  41.066  65.456  56.767
H  25.262  62.706  46.807
H  41.989  65.532  58.033
H  51.111  45.902  24.833
H  69.747  71.253  44.089
H  48.472  27.295  46.767
H  48.646  28.829  46.830
H  66.877  42.729  42.750
H  66.496  43.655  43.885
H  66.353  57.586  31.803
H  27.267  37.154  57.504
H  28.593  37.569  56.840
H  65.336  58.596  31.242
H  32.897  58.559  37.786
H  32.061  58.427  39.052
H  38.833  61.178  55.184
H  65.499  40.965  70.261
H  58.171  76.509  49.506
H  62.311  49.449  57.594
H  62.040  48.876  56.171
H  48.483  38.667  24.611
H  36.067  66.310  35.933
H  36.718  66.494  34.539
H  62.973  44.007  57.826
H  48.956  42.910  69.935
H  73.061  36.703  53.582
H  54.796  25.572  43.118
H  39.028  59.653  55.116
H  63.976  57.455  67.733
H  74.070  62.658  48.996
H  73.819  61.206  48.506
H  42.591  35.024  42.695
H  39.820  72.106  57.407
H  39.116  70.776  57.729
H  34.476  69.844  39.063
H  34.199  71.368  39.016
H  42.902  55.070  74.725
H  55.603  26.410  42.113
H  42.399  56.518  74.449
H  43.014  34.148  41.550
H  30.974  61.829  66.620
H  53.018  55.231  37.597
H  31.954  61.015  65.751
H  37.107  40.308  35.034
H  38.469  40.910  34.846
H  71.342  42.204  40.831
H  72.672  42.941  40.607
H  48.322  47.433  26.106
H  33.158  57.975  35.580
H  34.049  57.212  36.545
H  47.140  47.504  25.140
H  54.488  29.965  54.520
H  53.892  29.157  53.367
H  26.257  44.767  48.714
H  41.101  48.002  24.443
H  29.834  53.238  49.485
H  66.100  39.259  45.669
H  28.372  55.487  39.108
H  71.024  65.691  44.391
H  69.474  65.656  44.386
H  28.960  56.730  39.732
H  44.823  32.415  55.906
H  44.777  32.513  54.392
H  50.562  25.776  61.679
H  50.145  27.103  61.031
H  42.488  66.353  46.706
H  62.584  56.210  38.918
H  62.470  57.005  40.195
H  25.182  45.588  47.984
H  56.907  40.793  47.422
H  51.831  25.782  59.534
H  51.898  26.275  58.084
H  56.823  39.666  46.468
H  39.114  34.934  58.894
H  39.160  34.982  57.371
H  45.368  70.124  49.795
H  43.935  70.123  50.284
H  68.115  61.058  45.847
H  72.860  37.496  54.883
H  51.260  44.868  25.974
H  68.920  69.961  44.242
H  62.284  48.033  48.471
H  60.808  48.222  48.070
H  54.236  55.811  36.836
H  38.005  46.157  41.935
H  69.275  54.484  30.004
H  68.517  54.915  28.708
H  38.861  46.974  42.874
H  38.215  38.779  49.883
H  38.745  39.961  50.729
H  52.462  43.394  70.949
H  51.274  42.674  70.326
H  45.297  47.671  70.983
H  62.329  42.393  55.485
H  66.456  45.072  61.991
H  48.023  28.904  61.547
H  44.884  51.860  39.165
H  72.301  38.186  60.898
H  66.447  54.477  47.734
H  58.763  34.020  65.643
H  32.285  54.620  35.613
H  28.918  49.281  48.489
H  28.382  50.511  49.164
H  62.394  25.379  50.696
H  39.365  44.913  73.503
H  30.600  38.467  43.685
H  43.917  52.832  39.853
H  29.263  37.729  43.349
H  50.688  48.195  61.003
H  47.606  73.601  51.186
H  26.926  33.100  43.764
H  27.419  33.231  45.224
H  46.415  74.497  50.806
H  52.320  31.722  34.888
H  52.967  32.875  35.706
H  72.420  36.940  41.461
H  71.359  37.795  42.075
H  66.002  53.500  66.430
H  49.786  47.008  61.392
H  64.195  35.934  46.547
H  72.831  37.949  62.330
H  58.907  59.887  53.538
H  50.410  24.626  53.242
H  39.493  62.318  41.406
H  40.172  61.334  40.461
H  40.621  44.504  74.322
H  44.817  66.507  68.233
H  59.711  33.040  64.940
H  37.756  44.221  36.157
H  37.702  42.697  36.348
H  54.065  48.842  76.625
H  25.248  46.396  38.941
H  59.091  61.113  52.609
H  25.065  47.882  38.549
H  29.379  58.080  47.626
H  29.556  57.195  48.872
H  58.397  43.099  54.625
H  59.611  42.145  54.684
H  40.914  54.134  61.585
H  62.849  25.061  52.176
H  39.631  53.919  62.387
H  45.048  67.656  67.199
H  49.950  52.038  37.140
H  49.858  50.492  37.099
H  54.330  48.467  75.158
H  42.440  43.395  52.103
H  62.841  35.841  45.790
H  51.090  72.939  55.398
H  35.512  41.757  68.841
H  35.907  40.395  68.250
H  47.719  63.336  54.104
H  27.745  55.124  62.925
H  26.622  56.162  62.669
H  67.098  37.108  44.492
H  39.260  52.902  52.618
H  70.980  61.213  55.016
H  66.359  42.515  61.493
H  27.055  46.413  43.664
H  46.253  62.897  54.241
H  24.264  39.504  53.189
H  66.726  60.650  36.622
H  34.916  41.121  37.845
H  35.382  39.877  37.088
H  58.351  52.554  39.945
H  44.864  69.244  54.433
H  45.054  70.739  54.728
H  59.399  53.482  39.305
H  38.735  59.911  40.300
H  37.236  59.596  40.280
H  28.237  46.267  44.609
H  67.743  60.795  37.755
H  65.077  52.857  67.468
H  49.371  41.175  23.001
H  65.638  39.819  38.346
H  51.732  71.697  54.702
H  48.719  60.569  57.820
H  48.818  62.095  58.090
H  33.258  53.562  36.181
H  36.665  36.657  71.560
H  66.850  41.086  61.133
H  66.238  41.598  45.527
H  47.035  68.430  65.037
H  39.366  54.406  52.888
H  35.482  50.392  62.580
H  48.116  41.008  22.112
H  63.793  55.726  45.413
H  36.064  50.687  63.966
H  36.445  59.717  50.934
H  36.592  59.180  52.369
H  39.657  32.950  43.294
H  39.165  33.634  44.583
H  63.238  60.161  46.939
H  45.555  68.373  64.640
H  62.883  61.686  46.844
H  72.336  61.821  54.718
H  66.796  39.178  39.128
H  65.127  56.228  44.846
H  65.533  37.200  33.537
H  66.496  38.140  34.270
H  37.922  28.913  37.733
H  42.173  60.184  40.679
H  40.882  33.100  30.230
H  62.547  39.964  36.039
H  62.548  40.934  37.232
H  23.175  48.569  45.829
H  44.404  73.660  57.870
H  45.813  73.302  58.357
H  21.770  48.029  45.490
H  32.118  68.348  40.599
H  32.498  69.190  39.354
H  43.690  60.067  40.512
H  39.826  48.630  70.808
H  47.965  60.209  42.385
H  48.932  60.311  49.591
H  47.757  61.219  49.246
H  47.443  61.651  42.234
H  35.791  50.982  70.396
H  34.705  51.377  69.369
H  42.678  46.968  34.138
H  42.768  47.632  32.758
H  37.035  53.994  68.439
H  33.354  57.517  54.110
H  41.100  49.183  70.111
H  32.806  56.598  52.965
H  67.186  64.007  50.696
H  50.988  29.031  39.440
H  61.568  43.140  47.909
H  61.923  41.767  48.498
H  42.036  72.972  56.092
H  73.705  51.870  60.365
H  72.876  53.045  59.814
H  25.685  53.082  35.551
H  25.913  51.555  35.354
H  45.134  37.092  72.463
H  44.297  31.340  45.174
H  45.608  31.085  44.407
H  65.875  64.617  50.128
H  59.160  59.510  64.866
H  58.404  58.483  65.764
H  40.265  44.451  34.496
H  39.254  45.513  34.998
H  63.550  47.975  40.066
H  42.706  28.770  38.516
H  42.964  29.092  37.000
H  63.665  46.983  38.882
H  41.262  70.377  32.492
H  39.811  70.867  32.334
H  51.056  27.942  40.597
H  39.453  33.522  30.424
H  36.844  54.177  66.914
H  43.833  76.787  57.047
H  37.807  63.871  67.453
H  43.093  44.002  53.341
H  59.534  54.247  68.923
H  61.979  74.490  51.885
H  37.902  36.993  72.430
H  59.728  53.730  67.508
H  49.929  72.549  35.792
H  50.339  72.931  37.219
H  52.827  62.893  62.871
H  53.503  63.827  63.903
H  57.733  47.528  72.759
H  32.277  51.543  36.093
H  47.000  61.890  35.624
H  57.564  47.718  71.239
H  60.761  75.262  52.474
H  62.176  31.330  50.969
H  50.374  25.998  53.884
H  61.347  32.349  51.800
H  68.757  53.817  48.113
H  36.427  37.633  50.270
H  35.873  37.761  48.846
H  68.068  53.755  46.744
H  39.190  29.614  37.183
H  46.358  60.650  35.008
H  54.477  46.515  66.698
H  53.759  46.855  67.988
H  49.467  46.387  74.999
H  33.774  49.951  61.757
H  44.098  35.714  69.454
H  35.707  40.218  33.065
H  36.125  38.762  32.955
H  58.806  44.309  29.506
H  49.008  66.997  50.309
H  47.910  68.048  50.486
H  58.017  44.899  30.684
H  44.680  40.254  72.735
H  43.126  40.461  72.739
H  21.235  47.710  51.324
H  22.304  46.604  51.356
H  34.623  33.444  49.203
H  43.649  36.096  68.025
H  30.974  52.232  36.412
H  34.248  33.013  47.774
H  37.769  57.227  68.504
H  37.499  56.826  69.992
H  49.586  42.551  75.567
H  49.465  43.318  76.888
H  50.054  47.561  74.176
H  52.498  68.995  49.941
H  52.856  70.056  50.973
H  39.609  46.265  49.089
H  67.543  44.346  62.780
H  43.892  54.518  38.798
H  31.659  51.032  38.554
H  24.512  58.983  52.625
H  25.300  60.139  52.059
H  67.144  35.410  51.382
H  44.773  38.554  64.515
H  48.639  25.720  56.698
H  51.288  68.190  52.109
H  50.057  69.068  52.204
H  44.503  39.992  64.137
H  70.052  45.898  51.671
H  69.475  47.035  52.617
H  25.588  58.017  38.438
H  59.402  41.488  48.389
H  46.281  23.425  48.570
H  52.546  34.007  26.957
H  53.925  34.576  26.505
H  47.380  22.456  48.962
H  63.905  74.411  46.485
H  58.268  59.403  75.380
H  57.877  58.455  74.231
H  65.425  74.396  46.811
H  40.740  66.770  51.880
H  39.495  67.578  52.313
H  60.335  41.561  49.592
H  48.598  24.399  57.509
H  47.741  34.863  72.499
H  26.729  57.039  38.203
H  55.930  77.584  48.633
H  64.409  45.568  51.967
H  29.153  57.798  38.003
H  45.683  40.815  55.236
H  46.599  41.579  54.244
H  58.804  42.451  42.156
H  40.415  70.296  62.953
H  41.089  68.993  63.447
H  57.514  41.843  42.770
H  74.516  49.153  43.269
H  47.320  33.665  73.360
H  74.042  47.661  43.253
H  26.077  45.800  53.535
H  71.547  37.648  37.930
H  55.504  26.152  47.501
H  49.785  36.078  62.073
H  48.885  35.906  60.820
H  65.729  34.879  50.967
H  58.300  44.793  47.391
H  58.700  44.405  45.939
H  41.296  45.399  51.652
H  40.430  46.626  52.003
H  25.500  46.426  54.837
H  29.947  44.086  47.477
H  60.636  49.129  38.027
H  29.026  54.170  54.693
H  56.792  35.792  64.955
H  54.723  68.898  69.669
H  54.381  69.342  71.117
H  60.166  27.969  39.474
H  61.585  28.049  40.011
H  27.729  60.568  38.412
H  51.110  22.070  48.274
H  49.423  39.984  68.202
H  27.646  61.453  39.708
H  67.452  55.178  35.267
H  57.578  37.883  46.795
H  66.839  55.197  33.846
H  39.258  51.360  37.224
H  47.942  36.577  68.311
H  42.608  74.237  54.168
H  43.248  72.896  53.736
H  47.773  35.065  68.024
H  44.031  73.881  48.179
H  44.091  75.423  48.014
H  50.306  39.786  66.968
H  43.487  34.826  53.951
H  59.673  41.821  25.068
H  38.130  50.803  36.310
H  62.020  48.480  37.878
H  58.852  37.514  46.030
H  30.922  40.996  67.806
H  28.660  55.239  53.665
H  33.141  49.178  44.623
H  71.927  31.026  50.654
H  70.461  31.105  51.128
H  32.035  49.527  45.622
H  66.183  49.632  40.732
H  65.460  48.727  39.702
H  38.948  57.280  32.305
H  38.518  56.144  31.378
H  59.467  31.054  49.174
H  56.798  35.012  66.261
H  64.119  49.409  50.780
H  60.522  30.487  50.110
H  40.287  69.273  48.623
H  40.918  67.904  48.891
H  55.775  34.233  55.601
H  54.738  35.035  56.304
H  61.955  28.937  44.203
H  23.427  47.740  40.390
H  50.341  36.273  41.031
H  52.313  22.742  49.024
H  32.191  40.658  66.952
H  64.121  50.824  51.431
H  30.722  43.080  48.327
H  57.360  78.111  48.613
H  47.445  49.537  29.367
H  76.281  41.098  44.545
H  76.105  40.430  43.175
H  65.878  63.254  66.350
H  65.531  61.819  66.498
H  62.815  44.169  66.015
H  65.881  51.715  44.909
H  64.929  52.747  45.521
H  62.451  43.829  64.555
H  35.558  64.589  61.270
H  35.226  65.165  62.635
H  32.875  51.631  43.949
H  51.416  26.321  42.677
H  33.488  52.086  39.909
H  53.802  39.876  52.653
H  56.422  29.686  59.876
H  51.845  59.117  58.246
H  50.640  58.344  57.707
H  53.510  43.898  64.646
H  52.404  43.353  63.709
H  48.192  43.201  56.546
H  64.553  52.696  56.156
H  65.641  53.679  55.682
H  52.834  26.319  42.045
H  47.515  41.814  56.292
H  65.232  53.204  30.474
H  32.817  50.603  42.789
H  42.731  55.306  39.430
H  52.804  35.852  59.985
H  52.951  35.085  58.673
H  52.486  52.234  37.058
H  52.975  51.071  36.177
H  38.467  47.269  49.406
H  25.693  56.849  53.570
H  26.142  58.207  54.212
H  68.482  37.339  43.846
H  56.422  31.232  59.596
H  44.924  72.367  64.879
H  66.439  53.935  31.097
H  68.234  47.438  69.016
H  66.995  48.090  68.356
H  32.527  30.308  55.937
H  43.223  71.013  46.447
H  44.684  70.741  46.854
H  33.252  29.053  56.417
H  62.896  64.050  46.809
H  64.217  63.694  47.506
H  26.038  49.483  36.331
H  24.609  49.698  36.844
H  44.758  72.002  63.391
H  61.456  45.465  48.898
H  61.333  45.466  47.347
H  27.187  50.801  53.721
H  72.161  36.585  37.014
H  68.895  60.134  51.473
H  33.433  28.005  40.580
H  32.659  45.760  63.491
H  32.445  44.805  64.679
H  47.804  27.711  44.496
H  46.406  27.460  43.967
H  54.138  57.743  28.493
H  58.025  46.619  50.812
H  58.753  47.815  51.476
H  68.648  61.234  52.552
H  55.259  58.727  28.686
H  37.609  60.722  65.586
H  29.872  59.160  37.801
H  22.974  49.066  41.047
H  63.714  46.570  52.912
H  38.984  62.326  66.451
H  39.922  62.237  65.223
H  60.502  28.825  43.649
H  66.049  72.345  55.902
H  65.816  70.856  56.154
H  47.648  50.718  30.313
H  54.514  26.899  46.599
H  48.124  63.383  34.306
H  47.599  64.665  34.975
H  33.667  61.247  57.993
H  27.776  52.259  53.715
H  58.833  65.907  62.395
H  63.318  28.725  52.183
H  61.795  28.561  52.514
H  58.049  66.598  63.560
H  69.009  50.508  45.893
H  69.471  51.827  46.551
H  72.615  38.774  43.696
H  73.617  38.879  44.851
H  34.294  52.851  40.975
H  54.950  40.601  51.907
H  65.381  55.036  46.751
H  65.457  41.783  44.238
H  31.961  60.294  43.817
H  34.770  27.435  41.074
H  37.220  59.435  64.806
H  49.187  25.816  38.834
H  48.281  27.009  39.202
H  34.058  69.134  46.887
H  44.436  62.519  50.416
H  45.673  62.487  49.486
H  32.968  69.967  47.580
H  34.972  60.482  57.723
H  31.186  49.781  39.327
H  35.485  45.838  62.309
H  51.104  45.048  22.857
H  45.035  40.764  42.726
H  38.724  27.287  57.580
H  47.051  28.105  57.311
H  60.828  35.042  31.822
H  58.105  56.473  66.222
H  58.858  55.185  66.394
H  72.769  34.418  45.801
H  70.539  38.082  65.249
H  54.701  56.980  32.964
H  54.029  57.820  34.094
H  67.819  35.299  39.205
H  39.723  26.596  58.490
H  51.866  71.453  35.314
H  72.845  38.845  51.386
H  51.703  65.810  39.947
H  51.816  64.670  40.989
H  40.367  66.810  60.162
H  70.578  36.532  65.161
H  39.623  53.925  45.418
H  72.635  40.034  52.385
H  39.571  67.782  59.269
H  69.308  38.943  37.550
H  69.626  37.444  37.629
H  52.952  70.410  35.494
H  61.635  46.351  34.565
H  56.697  57.775  44.420
H  50.682  37.687  44.361
H  71.394  47.395  53.594
H  33.930  50.576  46.865
H  41.649  41.938  70.190
H  41.228  43.290  69.609
H  63.171  55.841  51.074
H  63.327  55.475  52.581
H  65.420  28.206  48.712
H  45.456  68.780  34.867
H  46.168  59.476  32.695
H  36.865  67.825  45.124
H  49.418  36.772  44.283
H  36.461  66.515  44.367
H  44.867  60.352  32.898
H  62.430  55.164  75.026
H  61.310  55.932  74.299
H  64.645  49.851  65.166
H  36.103  31.560  52.383
H  37.107  32.526  51.730
H  69.106  30.521  47.335
H  68.737  31.695  48.223
H  47.758  27.033  58.099
H  55.745  58.959  44.622
H  65.145  51.298  65.399
H  41.267  30.146  69.337
H  60.102  46.376  34.356
H  39.687  53.689  43.897
H  65.500  38.217  66.876
H  40.874  36.491  36.740
H  32.199  39.477  42.251
H  51.507  56.128  64.505
H  67.616  40.399  42.095
H  67.322  40.519  43.584
H  57.778  44.695  67.457
H  56.281  44.948  67.736
H  46.993  43.719  34.033
H  47.356  43.414  35.476
H  66.386  37.591  67.966
H  70.325  45.814  37.616
H  71.679  46.103  38.235
H  35.385  59.027  66.047
H  37.716  66.027  29.420
H  37.985  64.512  29.486
H  49.945  66.164  28.896
H  36.832  58.499  61.975
H  36.211  57.201  61.473
H  64.718  61.479  48.617
H  29.462  65.642  53.483
H  28.249  66.000  54.344
H  33.396  39.355  41.298
H  72.262  33.004  46.251
H  41.939  55.412  30.631
H  42.629  58.941  73.571
H  75.059  35.761  52.154
H  61.227  36.474  32.246
H  50.657  57.356  64.201
H  41.386  35.076  37.011
H  38.888  68.860  39.448
H  54.132  78.075  46.246
H  54.376  78.681  47.622
H  76.284  45.075  60.122
H  41.813  54.902  68.434
H  40.789  54.498  67.388
H  42.984  55.654  29.558
H  77.130  46.101  60.897
H  72.553  33.634  49.733
H  57.357  62.991  49.737
H  38.220  69.822  38.496
H  35.828  59.517  67.429
H  61.844  50.469  64.757
H  46.879  55.245  30.660
H  45.770  55.963  29.832
H  58.127  62.138  50.752
H  63.005  51.407  64.416
H  43.966  58.313  74.002
H  74.045  33.405  49.454
H  65.809  60.565  48.083
H  41.535  31.650  69.206
H  28.578  57.775  34.540
H  37.939  52.392  46.760
H  37.084  51.604  47.776
H  47.608  25.879  61.077
H  37.255  63.227  56.752
H  35.746  63.453  56.796
H  46.761  24.666  60.627
H  54.378  65.225  39.630
H  53.554  63.935  39.222
H  45.352  40.369  58.022
H  51.762  77.219  46.589
H  61.183  51.549  35.187
H  61.850  30.458  56.470
H  58.608  38.640  57.978
H  65.874  40.645  29.893
H  30.502  53.513  56.689
H  31.143  53.696  55.293
H  52.876  52.899  74.721
H  48.038  34.288  58.886
H  47.078  33.134  59.276
H  47.006  26.272  37.387
H  48.866  35.250  39.103
H  48.131  36.554  39.455
H  60.771  30.903  57.487
H  35.934  50.814  59.874
H  66.193  43.173  38.248
H  65.106  42.933  37.149
H  50.130  41.096  34.863
H  49.787  53.965  57.338
H  66.660  27.546  45.839
H  60.863  33.776  47.699
H  62.184  33.130  47.289
H  63.631  73.199  50.313
H  59.607  72.511  62.319
H  59.132  72.510  60.869
H  62.816  72.057  50.889
H  57.912  47.078  32.896
H  62.314  51.776  36.180
H  59.053  46.285  32.240
H  38.736  39.963  67.902
H  53.867  52.262  73.720
H  51.879  43.641  36.962
H  49.046  60.030  31.123
H  44.114  63.407  67.399
H  44.270  63.606  68.912
H  54.392  75.139  51.677
H  35.557  39.974  42.844
H  35.061  39.643  44.273
H  55.398  76.308  51.558
H  46.646  47.523  62.277
H  34.185  49.369  47.754
H  66.675  39.426  29.447
H  34.702  51.604  60.338
H  34.137  46.819  52.031
H  69.356  56.399  43.582
H  68.062  55.716  43.130
H  59.284  38.343  54.228
H  32.902  54.884  48.298
H  50.679  43.032  36.205
H  45.327  62.005  41.753
H  70.159  50.504  55.349
H  47.570  27.724  41.782
H  38.618  27.499  51.475
H  58.660  45.918  70.631
H  45.044  39.329  59.068
H  70.181  58.778  46.464
H  69.086  57.772  46.859
H  30.556  48.157  33.603
H  66.838  54.783  26.831
H  67.173  53.315  27.112
H  43.497  71.188  52.092
H  38.867  28.983  51.879
H  44.139  72.360  51.364
H  72.247  48.362  52.807
H  29.615  58.381  35.471
H  51.713  63.689  49.234
H  66.365  38.986  59.097
H  58.672  45.020  71.867
H  68.866  50.878  56.089
H  40.550  33.335  70.875
H  42.014  33.776  70.628
H  33.711  53.697  48.878
H  48.295  60.650  29.912
H  57.527  64.515  52.405
H  58.935  64.341  52.978
H  59.602  38.309  56.869
H  65.296  37.855  59.039
H  50.432  77.913  46.232
H  53.248  64.036  49.158
H  33.401  46.142  53.206
H  46.731  28.419  40.719
H  45.752  62.581  40.401
H  61.757  46.663  29.650
H  57.262  59.364  57.925
H  35.531  53.902  28.780
H  34.512  54.484  27.776
H  58.085  60.686  57.965
H  47.564  41.444  76.622
H  46.036  41.450  76.979
H  60.774  45.481  29.864
H  39.888  56.381  39.389
H  41.042  55.923  38.434
H  68.413  34.566  40.419
H  45.356  69.448  33.500
H  71.089  43.990  64.804
H  41.406  55.494  41.283
H  31.728  59.659  51.379
H  69.193  58.036  61.444
H  56.394  35.976  51.007
H  55.076  34.099  46.735
H  55.079  35.523  47.281
H  64.914  26.418  44.892
H  29.760  50.373  44.074
H  29.923  50.499  45.588
H  63.408  26.510  45.093
H  46.013  56.818  48.888
H  70.385  57.747  60.464
H  39.702  23.097  48.284
H  57.420  35.584  28.986
H  64.430  43.578  48.316
H  36.899  32.843  66.458
H  75.479  47.122  47.860
H  74.590  46.145  47.046
H  38.454  59.189  67.877
H  61.896  56.088  60.603
H  60.682  55.397  60.049
H  61.901  49.571  42.620
H  63.180  62.439  50.495
H  33.910  52.972  46.229
H  44.553  56.288  48.910
H  27.634  49.334  44.565
H  70.695  30.458  44.985
H  69.484  31.379  45.231
H  47.571  53.544  27.038
H  48.884  24.622  62.447
H  49.436  24.530  63.894
H  48.327  39.148  74.347
H  46.863  54.948  27.104
H  54.504  64.146  45.103
H  55.019  64.942  46.312
H  47.210  39.714  73.489
H  42.374  55.567  42.491
H  51.103  38.245  35.388
H  57.985  36.242  27.758
H  41.188  23.203  48.694
H  55.315  66.200  47.876
H  54.703  67.474  47.350
H  48.680  66.012  29.751
H  31.521  59.580  49.856
H  42.289  46.231  25.441
H  40.770  46.009  25.598
H  56.168  36.357  52.486
H  26.649  48.486  43.692
H  51.381  39.731  35.656
H  28.069  50.844  64.937
H  35.387  52.476  46.102
H  36.848  33.492  65.044
H  37.477  73.864  55.646
H  43.589  74.165  43.562
H  35.592  32.964  62.441
H  35.653  32.444  61.026
H  44.696  73.242  43.122
H  48.020  39.722  39.539
H  48.092  39.180  38.093
H  66.059  45.915  70.144
H  72.932  41.660  54.428
H  38.359  33.654  38.579
H  59.653  29.060  53.482
H  72.247  43.340  64.070
H  48.208  29.838  54.553
H  49.733  29.591  54.694
H  46.059  48.208  65.597
H  66.831  46.381  35.643
H  66.468  44.899  35.593
H  47.052  47.540  66.612
H  58.418  58.362  39.021
H  57.128  58.857  39.684
H  51.486  28.283  52.843
H  44.901  64.531  52.844
H  72.962  40.180  54.935
H  61.216  61.634  65.498
H  53.815  57.063  60.866
H  75.734  38.627  44.950
H  55.045  57.068  61.736
H  60.411  61.544  64.160
H  46.323  77.364  43.304
H  46.162  76.472  42.046
H  61.927  48.066  42.370
H  22.951  47.784  57.836
H  21.814  47.573  56.811
H  64.667  44.363  40.718
H  66.804  33.350  66.125
H  67.738  33.858  65.000
H  59.721  30.368  52.685
H  38.206  58.586  66.522
H  64.323  42.418  49.317
H  75.872  37.642  46.120
H  38.760  60.424  27.952
H  28.291  43.395  49.187
H  27.497  42.115  49.462
H  57.059  56.012  76.566
H  40.026  59.829  28.572
H  61.321  34.381  65.645
H  62.571  34.718  64.779
H  58.190  56.820  75.907
H  66.644  45.617  71.524
H  27.259  50.036  65.981
H  63.722  60.977  50.681
H  65.988  68.311  52.831
H  53.005  58.448  25.796
H  62.355  53.875  35.501
H  60.732  74.324  43.959
H  59.778  75.024  44.949
H  61.628  55.249  35.625
H  62.767  40.649  63.963
H  62.238  41.737  64.916
H  30.688  39.278  47.350
H  29.190  39.625  47.361
H  58.295  38.186  49.375
H  58.969  39.341  48.566
H  57.106  38.838  52.724
H  56.412  62.964  54.692
H  57.474  62.261  53.782
H  44.639  41.210  53.482
H  57.515  51.434  38.164
H  54.666  44.123  61.177
H  57.006  52.631  37.445
H  43.435  68.382  52.645
H  56.424  38.178  51.482
H  59.691  76.852  46.558
H  39.539  42.977  40.932
H  43.842  40.840  52.221
H  38.850  41.852  40.091
H  33.337  60.764  39.072
H  65.135  43.674  65.350
H  40.517  33.583  41.507
H  33.214  62.272  38.755
H  44.135  67.062  53.109
H  51.626  61.744  70.134
H  51.903  61.847  71.643
H  55.294  44.364  62.569
H  48.761  32.951  30.282
H  50.098  33.548  30.708
H  45.832  42.230  24.946
H  33.018  39.031  36.989
H  66.621  43.424  65.042
H  33.858  37.913  37.705
H  47.197  41.649  24.441
H  55.944  47.427  45.718
H  57.232  46.547  45.760
H  30.772  36.185  63.374
H  47.791  52.513  75.748
H  47.697  52.352  74.221
H  59.912  75.796  47.641
H  59.549  53.488  63.807
H  29.890  35.089  63.990
H  60.599  54.509  64.349
H  49.788  72.977  53.264
H  70.181  46.373  66.426
H  33.543  52.909  62.421
H  73.999  36.646  51.461
H  39.900  29.652  46.177
H  54.854  36.699  24.122
H  54.956  36.206  25.581
H  44.056  28.281  40.307
H  44.134  74.646  41.172
H  45.590  46.365  37.166
H  73.651  54.404  50.200
H  74.892  55.091  49.712
H  43.645  75.938  41.912
H  44.038  56.116  34.846
H  42.997  36.306  35.389
H  44.318  54.715  34.246
H  37.961  49.351  58.390
H  38.612  65.440  50.216
H  44.727  46.210  38.457
H  38.787  62.013  46.191
H  50.675  61.243  36.233
H  64.782  43.230  39.670
H  36.882  33.882  38.783
H  67.460  68.122  53.168
H  23.772  49.855  56.741
H  23.442  50.855  55.573
H  36.895  50.264  57.760
H  44.309  36.379  34.517
H  41.045  28.589  46.320
H  52.005  45.412  67.013
H  65.502  71.784  49.780
H  66.122  73.138  50.191
H  42.566  63.846  70.807
H  58.821  64.774  39.811
H  59.107  65.711  38.618
H  41.605  62.683  71.055
H  71.514  45.733  66.084
H  33.721  53.751  63.700
H  46.254  54.309  32.783
H  67.391  58.789  35.504
H  66.509  59.033  34.247
H  56.277  61.125  66.585
H  41.769  37.638  70.464
H  42.034  38.753  71.500
H  57.358  60.065  66.356
H  42.186  31.907  32.610
H  39.171  33.359  40.732
H  43.612  31.907  33.196
H  45.671  53.078  33.507
H  38.253  65.369  51.728
H  29.805  48.203  32.288
H  43.850  26.859  39.704
H  51.651  44.351  65.972
H  67.685  43.755  30.192
H  50.455  54.542  67.962
H  51.102  53.148  67.805
H  66.346  44.034  29.462
H  76.900  47.666  49.870
H  59.529  71.470  43.479
H  59.066  72.753  44.139
H  39.539  33.513  52.622
H  40.104  34.479  51.548
H  51.710  43.367  31.301
H  50.250  43.205  30.929
H  66.861  37.677  37.085
H  49.710  22.299  45.960
H  48.853  22.527  47.240
H  58.051  39.285  28.826
H  41.795  74.592  41.657
H  66.321  51.669  54.557
H  26.376  48.891  61.656
H  46.070  46.044  34.493
H  34.331  69.231  57.078
H  44.619  46.470  34.637
H  41.682  30.234  60.162
H  47.098  32.865  51.329
H  46.182  33.532  52.347
H  41.161  31.366  61.082
H  46.153  62.603  59.092
H  67.581  50.822  54.312
H  44.833  62.583  58.300
H  58.071  40.357  27.707
H  24.190  45.301  50.876
H  32.139  53.733  60.019
H  35.344  32.669  55.001
H  36.817  32.175  55.148
H  56.029  58.865  72.419
H  57.640  26.581  46.765
H  58.003  26.663  48.270
H  51.072  27.362  65.128
H  57.566  58.768  72.140
H  41.111  55.444  65.169
H  26.745  48.897  47.919
H  75.697  48.622  50.047
H  65.911  60.722  44.352
H  55.479  58.334  22.711
H  40.063  36.460  33.709
H  41.554  30.627  40.342
H  41.830  30.994  41.803
H  39.847  37.877  34.247
H  60.572  38.536  62.955
H  60.661  39.736  63.887
H  24.157  43.492  49.209
H  53.645  51.833  57.718
H  24.551  46.128  52.158
H  41.480  55.316  63.698
H  48.153  58.302  40.306
H  57.109  57.638  36.973
H  53.466  67.179  68.533
H  47.800  52.142  34.362
H  62.270  68.927  39.946
H  62.086  70.435  39.676
H  27.089  50.233  61.476
H  58.365  58.544  36.921
H  70.304  36.954  58.817
H  70.476  38.441  58.544
H  47.803  35.682  31.429
H  63.010  43.400  61.968
H  62.415  60.558  59.424
H  49.128  52.263  33.621
H  25.108  49.297  58.649
H  31.827  40.781  47.477
H  47.183  40.054  35.928
H  48.101  40.933  36.771
H  32.978  40.625  48.474
H  49.044  35.270  32.183
H  72.379  39.318  40.835
H  44.822  25.776  35.833
H  61.040  42.415  66.499
H  60.605  40.950  66.449
H  69.860  42.319  65.566
H  24.166  48.630  59.636
H  54.192  66.170  69.423
H  65.908  48.972  45.204
H  65.577  66.432  34.881
H  60.460  73.076  41.873
H  33.171  64.177  49.520
H  32.194  65.289  49.966
H  61.576  72.087  41.621
H  36.916  23.923  49.615
H  37.623  24.394  48.323
H  51.896  56.594  62.093
H  68.788  38.397  54.461
H  67.598  38.512  55.450
H  41.018  66.836  54.693
H  64.411  65.824  34.087
H  43.884  55.013  72.778
H  55.344  65.947  61.722
H  56.646  65.209  61.875
H  57.519  54.001  23.036
H  65.807  67.029  44.396
H  64.390  67.024  43.971
H  35.128  50.384  55.458
H  41.903  65.634  54.275
H  66.598  50.152  45.870
H  51.707  55.432  61.137
H  34.468  50.693  53.883
H  58.079  53.584  24.413
H  47.628  57.000  40.967
H  51.575  27.189  47.415
H  49.311  61.830  25.005
H  46.532  58.774  75.356
H  59.442  52.381  25.684
H  59.885  53.653  26.438
H  52.354  68.818  31.832
H  68.828  30.097  52.193
H  69.125  31.340  53.085
H  53.651  69.626  32.145
H  45.157  58.358  75.886
H  31.415  57.163  46.006
H  32.375  58.278  45.617
H  52.331  32.557  67.122
H  23.054  53.661  54.531
H  27.725  45.074  65.542
H  41.110  57.296  34.172
H  55.948  48.800  42.606
H  29.091  47.720  35.829
H  25.265  55.435  44.533
H  26.541  56.069  44.064
H  47.257  46.598  51.292
H  49.737  72.688  44.624
H  48.247  72.536  45.062
H  73.475  51.541  52.300
H  68.672  48.836  44.282
H  51.471  43.906  54.993
H  62.476  29.557  48.777
H  43.263  25.115  43.138
H  48.416  71.185  39.389
H  45.551  42.183  65.212
H  49.020  71.218  37.957
H  49.640  53.087  74.087
H  33.759  39.344  62.378
H  33.029  39.434  61.026
H  24.915  55.818  48.506
H  73.113  60.195  53.291
H  72.677  61.299  52.340
H  57.397  37.347  71.218
H  53.151  33.170  65.938
H  55.907  74.615  49.577
H  48.917  46.712  65.743
H  22.602  42.949  47.948
H  42.030  62.287  43.964
H  44.408  52.009  76.778
H  68.209  49.475  42.953
H  40.872  56.579  51.648
H  40.943  58.074  51.250
H  51.335  44.094  21.685
H  34.469  47.560  70.704
H  34.720  48.782  69.817
H  49.467  48.147  65.944
H  43.491  54.696  26.588
H  42.386  54.084  27.466
H  72.616  51.541  53.590
H  64.861  61.966  68.692
H  46.355  45.795  43.670
H  29.383  47.028  60.729
H  34.420  44.003  67.811
H  34.631  43.995  66.281
H  64.089  38.625  35.205
H  46.159  31.305  31.764
H  46.972  32.587  31.490
H  52.966  36.602  35.137
H  40.481  38.866  51.877
H  65.629  61.357  69.869
H  54.403  58.506  23.782
H  26.255  49.118  46.468
H  39.052  45.523  60.020
H  49.555  27.536  65.253
H  39.528  44.085  60.241
H  52.591  26.061  47.444
H  49.767  32.867  65.126
H  49.629  32.850  66.649
H  50.232  61.681  26.223
H  43.640  27.764  32.695
H  44.947  28.360  32.251
H  40.126  58.468  34.384
H  28.881  48.210  61.576
H  67.312  68.383  42.330
H  67.622  67.976  43.787
H  33.047  30.160  45.159
H  31.551  30.313  44.713
H  52.993  43.921  54.712
H  41.507  37.683  43.915
H  40.059  37.865  44.401
H  52.645  52.290  47.357
H  46.774  37.830  56.204
H  73.050  41.210  44.060
H  72.743  42.335  43.025
H  45.253  37.525  56.120
H  39.894  40.033  52.667
H  51.911  35.615  35.642
H  63.360  37.283  35.184
H  25.558  43.268  49.793
H  30.438  48.088  36.446
H  62.564  35.944  27.665
H  61.828  41.099  51.131
H  62.905  40.691  50.089
H  62.333  37.435  27.824
H  40.646  30.635  63.438
H  50.600  44.458  61.946
H  49.193  44.752  61.368
H  30.228  54.068  39.066
H  73.385  40.480  40.725
H  43.618  64.349  53.626
H  49.178  29.764  28.918
H  68.942  41.120  65.998
H  52.060  76.033  50.236
H  59.194  37.944  70.220
H  55.278  58.029  52.064
H  54.701  58.111  53.467
H  45.279  55.376  67.860
H  44.666  56.714  67.368
H  65.092  30.800  48.505
H  46.116  45.261  32.316
H  39.168  47.632  35.879
H  47.636  45.593  32.430
H  78.087  43.074  47.464
H  66.581  30.376  48.520
H  62.822  49.794  27.853
H  64.097  33.275  67.231
H  33.428  43.063  33.434
H  31.992  43.554  33.316
H  38.508  50.708  25.412
H  45.244  75.299  54.838
H  53.486  76.456  49.841
H  56.102  29.061  39.928
H  55.860  31.924  47.898
H  38.544  39.734  69.443
H  62.475  51.276  27.674
H  57.223  58.834  34.674
H  77.169  42.308  46.480
H  44.428  74.165  55.429
H  53.504  61.406  38.993
H  36.953  44.965  59.408
H  35.662  45.559  59.966
H  52.267  61.951  39.720
H  46.428  72.659  38.461
H  47.618  73.596  38.804
H  55.590  60.114  68.655
H  69.461  44.928  61.180
H  35.620  29.171  45.454
H  66.857  29.536  39.924
H  59.948  39.198  69.841
H  41.921  60.037  63.763
H  68.258  29.531  40.584
H  50.561  32.075  56.308
H  50.151  31.428  57.673
H  55.025  59.096  67.658
H  47.588  53.859  35.538
H  48.699  54.718  34.576
H  71.820  47.764  43.787
H  45.850  27.246  37.428
H  47.869  69.037  43.214
H  47.905  48.303  61.905
H  40.738  60.878  63.243
H  71.033  50.185  51.350
H  56.291  58.835  33.466
H  42.430  74.481  57.556
H  52.041  69.074  39.430
H  51.300  70.390  39.159
H  52.051  49.948  60.861
H  28.740  48.937  63.719
H  53.247  49.016  61.113
H  57.204  34.133  63.371
H  38.276  45.834  64.596
H  43.256  26.753  37.413
H  37.713  44.405  64.679
H  42.332  25.613  37.003
H  32.145  28.310  49.720
H  53.851  31.094  38.121
H  35.622  50.103  50.158
H  29.379  47.574  64.020
H  61.848  46.774  63.085
H  38.033  49.945  24.170
H  49.028  42.197  34.740
H  29.200  35.649  54.367
H  28.510  35.560  55.700
H  33.498  64.660  56.576
H  34.444  65.612  55.818
H  66.040  26.680  46.956
H  54.230  32.095  39.222
H  58.392  39.100  55.224
H  28.996  34.485  43.460
H  52.678  29.855  60.854
H  43.124  75.049  58.815
H  54.558  31.368  48.470
H  57.046  39.587  62.071
H  55.614  39.498  61.498
H  71.240  36.326  44.101
H  55.259  28.464  41.061
H  37.546  55.835  75.833
H  69.935  36.226  44.894
H  37.382  56.598  74.505
H  32.732  39.248  44.781
H  29.829  35.773  43.196
H  33.573  37.967  44.488
H  71.645  63.902  58.024
H  72.068  62.906  56.901
H  48.890  59.647  51.603
H  64.513  33.018  65.742
H  76.815  53.502  43.944
H  76.086  54.011  42.707
H  56.609  33.396  62.136
H  51.779  30.170  62.067
H  58.320  55.162  40.466
H  56.849  55.200  40.951
H  49.337  59.312  53.085
H  36.620  63.882  63.889
H  69.782  43.437  61.079
H  69.815  50.650  50.562
H  43.313  56.411  72.532
H  47.843  53.752  72.586
H  70.593  48.709  43.965
H  47.100  52.466  72.188
H  46.573  73.429  54.028
H  55.657  62.714  73.541
H  69.581  57.406  49.918
H  68.192  56.784  50.191
H  60.451  56.962  40.734
H  30.106  36.406  49.819
H  42.208  46.241  39.444
H  30.583  37.267  48.657
H  58.967  57.386  40.792
H  47.955  39.737  53.982
H  49.349  39.898  54.562
H  56.566  25.976  44.727
H  40.365  55.953  28.161
H  39.336  55.581  29.213
H  34.090  50.259  65.389
H  34.113  51.740  64.979
H  38.095  64.165  63.923
H  55.918  26.196  52.429
H  56.355  27.483  44.866
H  49.875  63.947  41.127
H  44.260  25.972  34.407
H  57.236  41.834  71.401
H  54.880  34.118  69.258
H  53.731  33.233  68.768
H  62.614  44.887  62.025
H  38.809  48.093  34.456
H  36.746  64.507  70.854
H  45.272  67.486  42.044
H  71.969  43.757  44.520
H  70.861  42.786  44.078
H  38.048  64.749  70.077
H  57.771  51.107  64.844
H  58.380  40.909  71.000
H  49.924  46.940  35.165
H  50.527  48.044  34.329
H  61.245  57.596  65.793
H  61.797  58.200  67.123
H  54.392  26.266  62.107
H  43.141  44.999  39.419
H  53.539  26.841  60.912
H  43.910  67.488  42.728
H  42.912  68.504  48.024
H  44.387  68.769  48.287
H  61.579  59.285  59.408
H  59.030  51.917  64.921
H  48.791  62.871  41.029
H  55.551  27.281  51.398
H  45.602  73.376  52.846
H  61.839  43.106  70.465
H  66.575  48.878  35.401
H  62.181  44.590  70.825
H  65.448  48.253  36.238
H  29.212  53.755  43.740
H  29.352  52.526  42.797
H  71.816  53.279  51.670
H  30.172  57.471  68.196
H  29.838  55.973  68.418
H  40.349  56.432  62.277
H  71.096  54.619  51.924
H  33.812  35.485  49.998
H  35.366  70.344  56.931
H  23.137  41.499  44.396
H  23.445  41.992  45.826
H  39.777  61.049  69.733
H  74.371  46.236  61.013
H  73.413  46.637  59.916
H  41.764  73.429  42.648
H  40.097  62.532  69.700
H  35.629  27.770  46.032
H  35.120  36.133  50.425
H  41.383  57.525  61.967
H  45.275  41.094  37.865
H  70.432  51.103  69.517
H  69.038  50.645  69.926
H  54.488  62.379  72.598
H  44.900  58.415  34.008
H  35.762  51.997  30.583
H  48.940  68.923  42.113
H  51.842  77.112  54.756
H  52.464  75.735  54.338
H  69.468  53.988  53.217
H  37.239  34.503  55.677
H  37.777  35.913  55.322
H  68.788  53.052  52.220
H  37.606  72.531  56.436
H  37.227  52.451  30.551
H  58.338  56.480  46.163
H  43.968  58.547  35.191
H  59.345  56.225  45.021
H  58.617  56.016  60.178
H  43.900  51.391  31.280
H  44.877  50.868  30.184
H  44.064  58.310  52.371
H  58.135  57.158  59.261
H  57.167  44.203  34.935
H  57.470  45.609  34.385
H  44.476  59.584  51.630
H  49.666  30.816  29.962
H  50.656  66.520  49.176
H  31.630  57.949  31.566
H  31.198  59.332  31.053
H  51.304  73.099  42.012
H  61.595  41.760  68.647
H  36.469  48.648  33.358
H  52.980  45.005  52.774
H  63.287  62.861  65.036
H  32.348  71.209  59.095
H  34.619  63.234  55.048
H  34.975  61.723  54.940
H  47.310  65.462  51.867
H  34.988  47.645  37.872
H  70.609  63.286  53.535
H  34.059  47.066  38.884
H  38.753  50.278  33.151
H  37.556  50.323  34.089
H  46.768  44.558  59.308
H  58.546  71.162  48.236
H  47.519  43.316  59.866
H  61.334  52.519  73.042
H  51.096  40.960  28.555
H  51.447  42.191  29.444
H  64.616  63.228  64.336
H  60.630  53.702  73.659
H  47.254  65.157  53.392
H  28.980  37.889  53.710
H  69.094  63.216  53.827
H  38.784  34.451  34.570
H  33.667  50.347  36.613
H  62.536  53.838  33.483
H  62.214  52.990  32.200
H  48.079  44.682  64.086
H  54.203  44.118  52.976
H  26.921  55.404  55.987
H  34.603  36.086  42.368
H  43.161  30.509  57.380
H  35.550  47.583  32.663
H  53.486  32.460  46.391
H  51.515  74.231  40.941
H  53.092  32.653  44.928
H  54.593  44.932  23.350
H  33.398  37.334  42.329
H  68.885  62.568  36.754
H  69.900  61.726  35.928
H  54.106  53.421  25.032
H  44.591  30.874  57.898
H  55.462  53.089  24.322
H  56.078  60.834  55.615
H  40.821  39.587  38.863
H  40.450  41.013  38.508
H  62.375  40.624  69.262
H  45.073  40.125  35.573
H  30.023  37.850  52.598
H  33.255  32.312  63.202
H  67.178  34.623  54.864
H  29.634  53.824  29.843
H  29.726  52.287  29.885
H  35.365  34.732  61.306
H  44.389  77.847  47.185
H  43.240  77.115  46.484
H  66.543  33.287  55.325
H  68.912  50.943  39.778
H  68.081  49.712  39.390
H  35.225  36.113  61.922
H  55.775  25.343  58.258
H  33.913  54.802  70.337
H  33.347  55.033  71.749
H  24.074  52.461  43.464
H  23.975  51.360  44.540
H  57.883  42.558  45.901
H  73.249  49.473  50.968
H  39.554  65.716  66.091
H  72.718  48.146  50.407
H  56.694  43.281  46.565
H  35.193  53.713  43.388
H  56.430  25.233  56.884
H  33.699  53.491  43.540
H  58.066  70.868  49.666
H  31.380  29.284  48.809
H  42.967  69.083  30.759
H  53.258  33.258  61.279
H  59.752  42.120  44.552
H  55.283  48.164  61.077
H  62.450  65.141  62.536
H  39.143  66.744  67.143
H  52.134  56.572  38.825
H  50.748  56.004  39.117
H  63.313  63.872  62.535
H  47.109  45.012  72.762
H  48.509  45.299  73.270
H  49.748  54.485  24.484
H  45.779  30.343  41.429
H  46.081  77.742  52.276
H  49.913  55.929  23.979
H  32.239  40.534  59.168
H  33.673  40.935  59.648
H  47.490  78.324  51.939
H  55.595  47.071  35.729
H  56.928  47.321  36.495
H  54.629  48.116  62.477
H  38.188  37.042  60.663
H  37.750  38.485  60.295
H  44.789  30.517  40.258
H  45.579  38.861  34.806
H  34.026  49.263  37.664
H  51.994  61.470  47.605
H  34.603  56.913  33.449
H  60.083  50.181  46.004
H  72.874  50.010  34.803
H  68.408  37.748  49.023
H  73.626  49.863  36.093
H  60.994  50.136  47.242
H  70.248  48.038  41.921
H  69.370  47.692  40.740
H  51.268  32.239  44.056
H  61.145  49.349  33.277
H  34.466  55.864  34.543
H  59.898  48.693  32.650
H  37.044  51.334  56.059
H  43.376  69.352  41.162
H  42.087  41.032  63.307
H  41.736  42.415  62.774
H  47.970  45.229  47.862
H  36.926  51.643  42.244
H  65.914  45.296  55.718
H  66.408  46.540  56.464
H  61.171  55.533  68.873
H  36.440  52.616  57.048
H  51.714  51.170  34.237
H  62.544  56.230  68.726
H  51.698  30.721  44.130
H  45.382  66.653  37.144
H  52.857  48.563  27.300
H  49.487  56.717  60.943
H  48.778  57.877  60.216
H  29.170  53.339  62.778
H  70.559  54.333  46.847
H  71.774  54.105  45.940
H  38.012  54.398  59.273
H  49.038  50.810  58.393
H  36.360  67.541  66.005
H  35.425  68.643  66.590
H  45.968  65.226  37.265
H  27.550  65.105  56.347
H  33.767  58.536  62.392
H  34.583  58.049  63.606
H  50.431  50.631  33.578
H  55.377  68.017  34.345
H  53.950  68.164  33.881
H  50.771  63.006  38.371
H  46.383  63.884  56.414
H  46.903  64.546  57.693
H  50.673  53.627  47.549
H  49.309  63.387  38.629
H  42.413  70.531  41.345
H  58.043  27.862  42.264
H  31.217  45.363  54.453
H  38.309  52.266  42.040
H  60.668  39.699  44.550
H  60.786  40.624  43.314
H  47.708  46.087  63.668
H  38.571  71.958  42.570
H  37.241  72.729  42.669
H  50.949  28.943  49.870
H  68.352  50.746  35.664
H  67.281  51.187  34.634
H  54.420  53.126  35.258
H  33.996  33.293  64.106
H  33.539  70.751  59.973
H  27.837  33.991  47.585
H  67.897  61.838  56.690
H  59.539  47.339  36.979
H  26.072  54.640  57.053
H  48.367  59.501  77.031
H  48.503  59.960  75.561
H  58.957  45.902  37.092
H  53.759  53.318  33.894
H  50.737  62.132  48.256
H  69.504  60.602  39.185
H  68.586  59.368  39.077
H  67.969  63.288  57.192
H  62.497  65.577  42.483
H  62.013  64.957  43.787
H  56.207  33.262  58.169
H  32.144  44.362  53.727
H  49.422  53.934  48.740
H  59.997  36.585  51.144
H  58.593  36.703  51.766
H  57.926  26.399  42.685
H  61.307  34.711  45.212
H  61.781  34.551  43.757
H  42.153  52.146  35.215
H  52.871  54.004  51.651
H  33.959  67.429  63.643
H  51.373  52.480  76.280
H  28.674  41.590  42.727
H  28.396  40.542  43.804
H  50.725  30.372  50.377
H  59.246  58.569  60.609
H  60.341  59.262  61.403
H  52.076  50.919  25.115
H  53.573  51.249  25.023
H  48.261  34.602  64.814
H  48.054  36.151  64.765
H  54.716  32.977  58.441
H  75.360  55.650  56.392
H  75.424  55.529  54.841
H  41.875  68.531  31.671
H  54.119  50.222  71.478
H  28.895  33.302  46.706
H  57.728  30.607  64.423
H  44.670  59.961  43.343
H  62.478  50.528  25.184
H  63.021  49.154  24.947
H  61.219  41.222  58.952
H  36.492  60.957  33.580
H  43.650  61.023  42.996
H  34.974  60.871  33.727
H  60.814  40.012  58.095
H  30.544  70.039  46.598
H  31.002  69.872  48.061
H  57.279  53.357  54.789
H  38.513  66.063  39.266
H  43.474  72.479  40.868
H  34.645  51.130  44.507
H  67.863  39.011  68.952
H  68.072  40.558  68.968
H  67.644  35.772  60.738
H  30.105  38.179  41.467
H  55.159  56.594  64.711
H  29.442  39.558  41.438
H  43.941  58.302  64.344
H  35.439  49.847  44.346
H  64.804  70.094  44.522
H  60.659  60.934  70.033
H  45.190  66.275  63.680
H  68.711  44.637  52.238
H  66.915  64.771  43.336
H  70.117  65.881  56.246
H  35.913  45.402  31.122
H  34.538  46.064  30.914
H  70.390  64.580  55.516
H  47.583  63.945  64.529
H  46.373  63.795  63.624
H  56.004  59.378  56.049
H  26.625  37.008  59.916
H  46.596  44.458  48.403
H  42.350  45.796  62.721
H  25.317  37.561  59.290
H  49.711  25.180  47.513
H  44.586  61.282  63.063
H  43.928  59.884  63.038
H  44.562  67.157  62.587
H  68.630  43.284  51.497
H  57.841  64.777  58.609
H  59.197  65.143  59.305
H  43.397  46.109  63.819
H  35.492  43.274  42.252
H  35.515  42.313  43.463
H  42.432  53.026  34.009
H  56.428  41.582  63.465
H  49.657  70.916  57.135
H  60.040  61.117  68.639
H  56.787  23.571  54.889
H  55.702  23.351  56.005
H  46.647  24.688  58.465
H  32.560  64.040  52.073
H  66.433  36.246  36.681
H  45.345  43.694  60.701
H  52.977  26.589  56.160
H  53.585  59.601  72.678
H  36.554  31.231  56.970
H  53.799  67.752  66.249
H  32.801  51.522  34.043
H  38.586  30.616  34.064
H  35.046  31.541  56.842
H  36.008  71.618  41.010
H  38.373  67.178  40.329
H  38.749  48.712  29.269
H  37.941  29.753  35.200
H  54.331  60.452  71.623
H  37.112  70.943  40.130
H  57.231  67.207  57.392
H  52.179  25.961  54.967
H  44.779  42.512  61.479
H  53.104  67.609  64.852
H  33.281  63.565  53.346
H  37.862  45.381  56.425
H  34.250  51.201  34.500
H  46.120  37.347  53.690
H  46.096  38.837  53.417
H  57.792  68.539  56.879
H  56.612  37.344  58.211
H  56.248  38.209  59.392
H  38.322  49.360  27.948
H  68.156  34.718  59.764
H  48.930  71.667  58.232
H  45.142  24.643  58.218
H  39.430  48.661  50.406
H  36.802  44.761  57.357
H  63.347  38.999  54.167
H  65.967  63.986  46.225
H  50.798  67.129  41.397
H  50.757  68.520  40.758
H  65.712  65.484  45.988
H  51.187  55.496  43.005
H  51.213  55.681  44.541
H  39.423  48.703  51.934
H  54.002  56.518  63.733
H  30.335  42.017  37.145
H  29.812  42.298  38.547
H  61.851  38.750  54.354
H  55.011  41.444  62.899
H  68.111  63.859  43.114
H  38.302  45.088  28.036
H  44.761  24.668  46.995
H  44.457  24.223  45.545
H  64.962  56.962  26.169
H  30.250  60.976  45.668
H  31.216  62.064  45.175
H  63.657  56.142  26.198
H  55.664  40.042  39.191
H  47.243  70.588  36.265
H  42.936  57.199  63.933
H  61.232  36.880  66.553
H  71.130  30.610  53.600
H  60.303  35.660  66.704
H  38.486  65.434  56.052
H  38.423  64.925  57.524
H  69.361  64.550  49.942
H  48.269  69.453  36.361
H  45.519  63.688  27.665
H  50.019  51.737  76.084
H  53.404  44.340  22.589
H  40.177  34.907  34.979
H  38.081  44.018  38.633
H  54.269  45.279  70.997
H  69.698  63.129  50.479
H  51.982  62.413  41.843
H  72.115  31.813  53.540
H  55.628  38.866  38.173
H  56.350  68.015  32.439
H  57.785  68.509  32.588
H  57.345  31.531  63.237
H  31.035  36.738  35.457
H  32.571  36.901  35.198
H  42.044  38.090  37.713
H  67.517  38.385  61.133
H  68.367  37.797  60.001
H  67.560  45.224  65.031
H  27.885  63.846  46.379
H  54.405  62.844  41.432
H  69.065  44.928  64.936
H  56.208  46.004  28.190
H  71.275  48.301  34.233
H  72.239  48.143  33.084
H  58.546  31.703  45.491
H  57.977  32.883  44.657
H  51.698  33.232  61.200
H  60.133  43.589  44.316
H  28.698  65.173  46.551
H  45.267  62.195  27.359
H  55.575  62.947  40.403
H  40.886  37.452  38.532
H  52.539  63.340  42.911
H  52.968  45.727  70.320
H  49.199  69.013  61.516
H  45.662  73.203  45.485
H  46.246  73.806  46.773
H  35.476  40.643  54.940
H  31.965  53.836  26.498
H  35.768  42.003  54.265
H  76.986  43.643  44.121
H  77.261  43.973  42.620
H  60.644  46.712  46.101
H  49.696  64.998  56.841
H  50.620  63.855  56.374
H  75.223  43.555  45.813
H  62.004  47.108  45.503
H  63.192  50.316  43.981
H  43.207  69.499  35.236
H  52.731  38.815  48.391
H  44.869  71.762  40.954
H  53.646  40.053  48.395
H  55.049  50.977  54.536
H  50.839  66.031  31.877
H  50.738  65.237  33.204
H  48.278  24.735  47.868
H  38.164  44.727  26.552
H  64.232  50.977  43.043
H  39.019  44.937  39.437
H  54.252  38.568  67.763
H  53.853  37.764  69.041
H  50.407  68.164  61.167
H  68.804  49.182  53.832
H  47.887  47.909  73.845
H  47.108  49.221  73.733
H  50.011  77.161  52.053
H  53.854  38.992  46.150
H  53.569  37.611  45.629
H  50.003  78.518  51.367
H  45.990  59.241  65.967
H  69.209  49.425  52.404
H  44.617  58.820  66.511
H  30.817  45.941  48.253
H  31.676  47.206  48.008
H  42.778  69.946  36.641
H  46.658  72.186  49.448
H  46.491  71.842  47.970
H  60.949  34.320  28.636
H  60.989  33.881  27.151
H  32.879  53.313  27.639
H  74.837  42.565  44.743
H  58.956  37.363  67.408
H  57.875  37.737  68.461
H  65.461  69.119  43.517
H  55.355  44.754  27.819
H  51.126  53.123  73.679
H  28.119  52.308  62.349
H  52.194  49.655  28.156
H  56.668  77.548  46.587
H  51.449  56.039  47.581
H  26.120  57.109  59.269
H  27.387  57.484  60.074
H  46.688  49.610  27.011
H  27.474  58.707  45.503
H  27.458  57.233  45.194
H  47.987  48.914  27.398
H  50.057  68.832  48.274
H  61.787  73.298  45.716
H  66.307  56.889  55.716
H  49.464  69.898  49.206
H  33.035  41.214  35.234
H  33.839  40.930  33.946
H  45.318  58.749  39.945
H  72.667  45.871  62.622
H  72.316  46.410  64.001
H  45.516  57.627  40.987
H  66.174  56.255  37.067
H  54.594  58.725  65.258
H  56.128  58.531  65.455
H  64.872  56.699  36.373
H  48.647  53.999  55.987
H  36.227  41.892  51.901
H  30.589  66.960  51.805
H  74.581  55.351  58.441
H  56.452  66.520  40.672
H  69.541  60.330  43.685
H  56.237  66.520  39.110
H  55.757  50.367  66.572
H  33.169  36.056  60.847
H  37.249  41.048  38.540
H  32.352  37.308  61.156
H  57.579  51.340  56.166
H  54.776  45.469  50.896
H  55.910  45.066  49.945
H  74.409  57.581  59.358
H  53.824  74.582  46.960
H  70.300  51.144  48.502
H  54.017  76.074  46.583
H  53.614  42.823  57.105
H  22.205  54.995  57.399
H  23.090  56.072  56.766
H  52.174  43.023  57.609
H  41.285  62.717  46.296
H  41.360  61.756  47.516
H  73.947  56.801  60.642
H  74.453  53.841  58.494
H  71.456  51.331  47.473
H  56.984  34.555  37.797
H  62.002  72.054  46.599
H  65.675  57.267  57.093
H  36.169  66.137  50.700
H  39.372  66.435  35.377
H  38.603  66.976  36.598
H  35.467  67.143  49.801
H  56.161  47.270  64.693
H  29.689  50.654  41.408
H  29.248  51.297  40.055
H  66.379  57.972  38.518
H  24.182  63.372  48.732
H  23.936  61.865  48.780
H  28.196  53.943  60.629
H  62.178  66.029  46.458
H  34.160  58.628  56.147
H  56.079  48.469  65.683
H  63.290  65.972  45.392
H  52.769  59.864  63.575
H  52.567  58.396  63.990
H  49.974  54.664  50.975
H  50.325  62.924  43.307
H  50.653  61.856  44.390
H  69.053  41.614  62.684
H  27.671  55.117  59.755
H  34.942  57.513  56.848
H  73.431  59.252  58.051
H  57.176  50.749  66.995
H  50.007  72.686  60.592
H  74.870  59.738  57.711
H  70.795  61.176  43.405
H  41.444  57.933  45.876
H  42.319  57.094  46.868
H  49.985  50.184  56.275
H  55.779  68.621  50.680
H  38.009  36.472  48.736
H  54.563  68.638  49.688
H  71.612  49.484  41.103
H  53.002  37.016  52.806
H  50.327  73.397  59.277
H  52.427  37.884  51.693
H  54.223  40.120  26.387
H  54.518  38.578  26.202
H  63.959  25.070  54.879
H  39.406  36.019  48.217
H  71.045  48.782  37.775
H  71.120  48.641  39.302
H  46.688  34.875  36.377
H  36.810  68.014  37.093
H  37.513  69.231  36.477
H  46.601  33.482  35.763
H  71.799  51.032  41.175
H  42.256  24.873  50.292
H  43.202  23.657  50.308
H  29.993  66.009  50.772
H  40.101  47.191  38.838
H  71.992  58.872  64.624
H  52.075  59.404  61.350
H  66.457  54.486  57.883
H  65.280  54.266  58.837
H  34.373  67.124  47.634
H  73.535  63.905  40.538
H  73.547  62.464  40.012
H  60.628  54.107  48.530
H  74.619  41.899  57.504
H  72.089  60.333  65.093
H  49.226  55.586  41.257
H  46.508  70.374  63.718
H  75.419  40.915  58.381
H  75.276  46.606  54.932
H  76.391  45.586  55.171
H  46.464  41.831  37.231
H  61.895  53.342  48.854
H  55.753  46.408  62.207
H  51.790  29.614  32.766
H  71.487  47.537  68.549
H  70.531  48.551  69.236
H  47.449  71.593  63.607
H  57.244  46.096  62.216
H  39.782  46.827  40.305
H  59.670  56.645  69.854
H  50.318  66.581  47.669
H  62.173  65.630  55.631
H  45.592  49.224  33.527
H  61.987  66.524  54.441
H  69.653  53.804  44.097
H  68.448  70.184  41.898
H  67.231  70.160  40.926
H  51.966  28.941  54.114
H  57.005  61.905  69.834
H  56.460  60.979  70.925
H  60.136  57.550  68.697
H  42.285  53.233  31.290
H  28.050  40.000  55.564
H  29.102  40.055  54.441
H  45.264  48.555  34.858
H  34.847  41.820  28.803
H  34.810  43.332  28.847
H  63.207  42.563  41.579
H  51.762  62.074  36.953
H  43.586  53.714  31.981
H  61.727  42.201  41.531
H  50.695  58.787  61.725
H  38.269  63.195  45.369
H  24.348  49.751  48.613
H  23.353  50.074  49.764
H  60.824  27.845  36.878
H  64.761  26.981  49.393
H  60.852  47.880  62.629
H  34.491  49.051  50.400
H  53.219  53.437  53.891
H  56.238  33.416  38.577
H  49.494  33.519  61.373
H  53.653  28.385  44.885
H  40.823  62.561  28.809
H  55.007  29.060  44.806
H  50.093  32.497  62.348
H  51.074  70.685  43.206
H  61.400  75.333  41.067
H  40.757  61.834  27.488
H  49.979  30.397  42.859
H  49.619  29.415  41.741
H  32.678  47.376  61.779
H  50.735  52.003  51.184
H  65.856  66.634  58.984
H  66.829  67.678  59.520
H  33.313  46.898  60.526
H  63.121  31.283  48.157
H  63.851  31.564  46.843
H  59.924  75.140  40.683
H  46.346  35.443  50.815
H  56.094  33.788  43.366
H  54.816  33.127  43.905
H  57.402  55.186  38.327
H  61.053  29.325  36.541
H  56.880  56.552  38.785
H  51.282  30.259  34.050
H  50.372  56.631  41.168
H  34.825  66.961  46.172
H  37.424  34.564  60.745
H  69.235  52.379  44.255
H  34.369  62.686  60.716
H  33.511  61.445  60.967
H  57.897  30.732  36.956
H  57.584  32.276  36.938
H  37.067  35.244  59.438
H  38.440  61.353  71.611
H  37.109  61.960  72.024
H  62.222  38.614  58.048
H  47.331  69.941  46.574
H  51.602  70.510  41.768
H  46.559  71.148  46.008
H  62.608  38.003  56.705
H  51.236  51.101  30.812
H  51.554  49.728  30.292
H  46.201  36.904  51.362
H  55.176  54.616  54.898
H  52.793  49.539  71.777
H  56.149  55.105  63.568
H  55.434  54.718  70.329
H  42.476  26.497  41.252
H  25.561  38.004  54.881
H  26.510  39.091  54.373
H  67.376  62.065  59.978
H  25.113  47.462  57.335
H  24.978  46.003  56.889
H  68.873  62.403  59.932
H  42.100  46.305  27.713
H  54.590  44.387  36.214
H  54.375  43.332  37.300
H  36.738  63.202  59.156
H  41.343  45.893  28.967
H  59.339  45.150  75.032
H  53.600  69.659  67.843
H  35.645  54.598  55.002
H  56.150  70.305  58.883
H  66.959  62.434  38.953
H  35.703  37.067  37.327
H  35.663  37.564  35.873
H  56.985  71.166  59.830
H  72.948  65.087  47.337
H  74.049  55.510  41.024
H  59.051  45.112  76.548
H  75.544  55.365  41.194
H  35.639  62.117  59.250
H  41.397  26.550  42.340
H  55.850  50.664  33.787
H  24.358  51.453  41.054
H  62.095  67.838  33.067
H  76.543  53.429  49.243
H  76.977  54.425  48.144
H  63.065  67.997  31.876
H  67.660  51.980  68.972
H  67.474  53.204  69.857
H  53.505  49.411  46.829
H  53.820  62.543  29.504
H  50.200  56.459  48.748
H  48.278  32.830  43.051
H  52.069  52.154  32.173
H  49.378  43.165  73.264
H  47.471  44.435  50.682
H  46.684  58.903  48.890
H  32.475  43.899  30.522
H  60.736  67.229  60.785
H  54.804  69.522  66.907
H  45.368  70.343  66.152
H  40.365  57.942  28.141
H  40.006  58.302  26.684
H  54.629  63.577  30.365
H  54.822  49.786  33.064
H  71.740  65.378  46.397
H  72.108  42.783  51.906
H  28.997  51.586  47.143
H  62.499  25.453  43.607
H  29.779  52.702  46.448
H  31.100  61.115  40.159
H  26.432  51.905  44.346
H  27.945  51.934  44.577
H  29.818  61.146  39.325
H  74.730  56.903  51.333
H  75.742  57.192  52.472
H  61.370  26.483  43.521
H  51.062  54.462  55.567
H  27.340  64.237  57.597
H  50.405  30.330  46.945
H  29.291  50.437  37.363
H  37.014  55.580  59.206
H  47.534  50.486  57.526
H  57.631  76.352  46.430
H  64.777  53.451  61.047
H  63.914  54.709  60.780
H  62.606  25.728  54.515
H  63.907  66.530  57.959
H  64.054  66.538  56.443
H  65.804  28.246  42.168
H  73.648  42.681  52.050
H  45.496  73.964  62.421
H  35.095  30.834  41.547
H  45.975  39.704  26.740
H  38.543  75.904  50.293
H  38.215  75.104  49.012
H  52.643  54.072  57.471
H  46.195  38.702  25.584
H  46.846  74.773  48.798
H  47.440  75.039  47.377
H  66.229  63.488  39.824
H  28.431  44.674  56.863
H  26.939  44.964  57.147
H  46.409  72.764  62.183
H  60.007  68.519  61.199
H  49.900  45.478  50.862
H  77.349  46.301  42.764
H  29.150  51.938  37.048
H  49.851  31.600  46.248
H  45.146  52.257  25.871
H  44.430  50.985  25.366
H  64.631  27.622  42.986
H  34.043  31.250  42.607
H  59.925  70.080  52.888
H  59.560  68.701  53.507
H  37.201  54.357  54.339
H  22.827  51.604  40.911
H  58.482  38.945  64.462
H  57.640  39.945  65.292
H  61.513  47.876  26.785
H  41.268  53.768  50.728
H  41.491  54.713  51.937
H  60.094  47.615  26.145
H  46.267  42.564  74.961
H  46.698  43.930  74.434
H  42.049  54.533  24.785
H  42.745  54.855  23.465
H  36.776  72.548  38.440
H  37.222  73.782  37.607
H  44.532  36.912  62.817
H  30.668  34.776  45.738
H  67.539  40.238  64.486
H  30.635  33.641  44.709
H  39.423  42.532  70.515
H  38.341  42.653  69.435
H  51.276  55.797  51.198
H  38.171  40.941  37.358
H  57.423  54.763  64.334
H  44.742  35.246  62.364
H  53.388  51.025  54.584
H  52.178  62.433  33.860
H  66.634  41.452  64.189
H  52.679  73.440  53.409
H  66.057  59.234  39.322
H  73.588  48.832  38.938
H  54.078  54.989  71.109
H  70.291  41.745  34.231
H  70.009  41.071  35.573
H  41.963  43.856  27.279
H  42.406  43.328  25.890
H  42.048  49.691  58.897
H  45.283  54.197  23.198
H  44.752  54.440  21.777
H  40.562  49.361  58.957
H  53.656  70.721  60.433
H  70.389  42.366  62.951
H  53.765  70.438  58.912
H  70.758  51.544  37.154
H  69.433  50.928  37.509
H  63.923  52.218  72.537
H  35.067  70.926  42.923
H  34.333  72.275  42.964
H  63.094  51.056  73.056
H  36.072  58.943  47.667
H  47.984  30.511  63.599
H  74.827  49.670  38.570
H  23.220  47.016  47.571
H  48.350  31.225  62.275
H  31.158  63.851  33.499
H  30.625  62.468  33.052
H  23.765  47.442  48.922
H  48.778  30.150  51.938
H  59.059  39.891  40.523
H  54.733  62.371  35.535
H  55.326  63.405  34.547
H  44.122  71.232  66.471
H  55.194  60.121  35.216
H  61.975  70.651  58.916
H  61.346  71.391  57.719
H  42.425  50.616  32.892
H  43.139  48.668  71.392
H  49.707  28.989  52.344
H  42.743  47.170  71.634
H  68.683  64.806  36.935
H  53.867  59.761  35.896
H  67.191  64.554  37.216
H  47.012  67.232  34.805
H  53.560  52.139  31.735
H  47.376  58.820  47.511
H  50.668  42.554  72.710
H  43.011  58.434  60.498
H  43.235  56.946  60.772
H  76.489  47.572  42.762
H  43.570  50.225  33.903
H  59.165  39.564  42.012
H  44.249  49.209  26.896
H  44.727  49.203  28.347
H  55.871  60.157  24.881
H  57.104  59.225  24.758
H  53.596  73.205  52.199
H  50.790  48.437  46.111
H  51.645  60.672  74.072
H  51.700  59.174  74.406
H  41.594  39.311  61.528
H  53.102  61.232  34.249
H  43.096  39.120  61.763
H  34.332  68.566  61.547
H  58.043  40.549  68.929
H  59.414  41.023  68.343
H  35.019  69.936  61.434
H  41.239  36.930  31.559
H  42.966  60.927  29.578
H  42.048  59.687  29.685
H  40.157  37.982  31.238
H  34.838  42.870  52.172
H  33.775  44.343  31.260
H  33.531  66.318  62.664
H  47.989  67.082  36.017
H  47.835  32.116  44.322
H  48.096  52.976  58.659
H  34.600  59.008  48.095
H  34.208  45.183  61.913
H  50.580  60.572  46.079
H  35.138  72.828  55.234
H  52.317  54.173  30.163
H  34.925  46.306  64.551
H  34.869  46.023  66.032
H  55.623  29.925  42.650
H  40.408  41.138  42.350
H  53.207  54.882  31.246
H  40.493  40.214  41.156
H  55.665  31.184  43.549
H  63.623  38.316  60.344
H  38.586  59.523  36.385
H  77.325  55.738  42.209
H  73.468  43.366  38.672
H  49.484  46.343  49.404
H  52.647  41.420  41.360
H  70.040  60.059  61.938
H  53.623  55.552  29.151
H  55.123  55.770  28.954
H  70.797  60.486  63.181
H  55.106  42.819  31.408
H  64.559  39.493  49.825
H  65.641  40.407  49.280
H  54.174  42.695  30.201
H  37.731  39.506  27.060
H  59.587  55.516  35.266
H  78.050  56.290  40.940
H  54.399  49.403  51.333
H  72.660  56.382  49.461
H  31.692  56.473  40.242
H  31.078  56.207  38.875
H  72.553  57.156  48.164
H  66.465  56.741  69.649
H  67.358  56.022  68.615
H  53.281  48.173  50.838
H  29.028  47.240  48.778
H  30.681  38.665  67.034
H  27.903  47.106  49.821
H  60.345  32.979  67.704
H  27.946  45.309  34.469
H  74.984  43.260  38.706
H  62.284  39.015  60.383
H  65.394  67.005  62.944
H  64.170  66.253  62.305
H  45.706  60.419  25.084
H  51.844  51.755  62.367
H  52.608  52.023  61.055
H  60.615  33.562  69.130
H  62.219  38.654  31.579
H  61.291  38.027  30.471
H  29.136  53.039  38.747
H  53.952  49.403  68.303
H  59.037  56.814  35.934
H  39.169  65.185  41.082
H  70.236  35.601  51.149
H  69.070  35.235  50.249
H  58.130  69.127  51.668
H  60.667  57.345  56.381
H  61.668  56.159  56.479
H  58.102  67.898  50.734
H  33.788  48.009  64.830
H  64.911  46.082  58.311
H  63.735  61.532  43.652
H  33.882  58.319  51.920
H  36.789  69.729  58.541
H  35.989  49.098  35.914
H  57.495  65.803  71.595
H  57.915  66.410  72.942
H  60.037  57.984  74.242
H  46.026  33.451  46.410
H  46.697  33.916  45.122
H  37.430  48.566  35.788
H  69.698  65.290  64.327
H  60.473  58.190  72.798
H  69.090  65.801  65.655
H  50.716  28.865  30.914
H  36.724  29.661  39.952
H  39.938  28.502  61.117
H  38.747  68.741  57.611
H  28.852  64.712  62.080
H  38.393  64.095  40.375
H  53.925  50.148  48.939
H  39.677  28.326  62.622
H  52.830  53.568  27.218
H  53.556  54.859  27.006
H  46.966  67.715  70.274
H  28.641  53.512  35.168
H  29.844  54.181  35.871
H  52.510  40.715  42.708
H  32.383  47.678  65.298
H  29.488  63.532  61.338
H  38.235  59.187  37.899
H  51.016  68.124  56.349
H  52.057  69.215  56.536
H  29.641  38.072  66.049
H  46.586  50.799  53.179
H  38.826  55.178  66.753
H  39.499  56.536  66.430
H  40.212  49.089  63.731
H  52.365  36.264  25.050
H  51.590  36.721  26.263
H  41.190  48.794  62.543
H  39.902  68.708  56.554
H  28.712  46.639  58.518
H  33.486  33.072  51.818
H  53.268  48.379  69.278
H  76.808  47.055  40.430
H  75.959  47.539  39.218
H  25.916  44.911  42.877
H  62.700  46.890  57.216
H  63.419  45.734  56.538
H  51.667  69.499  54.054
H  77.255  51.586  53.930
H  76.612  50.263  53.458
H  53.185  69.562  54.243
H  28.291  41.554  57.189
H  37.295  68.756  59.644
H  49.923  22.657  56.896
H  26.869  41.900  56.733
H  65.016  45.681  33.462
H  27.233  61.618  51.952
H  46.982  69.229  70.522
H  65.755  33.027  46.246
H  59.369  33.451  58.008
H  59.745  34.019  59.394
H  62.758  46.704  71.646
H  58.607  59.063  44.997
H  51.656  57.001  25.072
H  49.453  21.836  58.132
H  57.944  60.455  44.769
H  25.794  43.923  44.060
H  47.187  40.953  59.361
H  32.249  58.901  69.132
H  69.141  34.883  46.730
H  53.563  50.169  44.346
H  44.425  66.535  47.142
H  45.428  65.360  46.937
H  45.050  34.584  56.467
H  24.971  36.734  45.753
H  26.503  36.534  45.812
H  45.702  34.893  57.837
H  40.913  58.248  58.175
H  48.489  40.762  60.177
H  41.207  58.995  56.857
H  70.436  56.618  56.082
H  66.360  45.911  32.780
H  29.516  64.272  56.477
H  39.050  67.491  49.754
H  30.573  44.395  41.664
H  38.089  68.130  50.824
H  36.350  39.993  27.566
H  67.873  54.217  64.685
H  67.752  52.680  64.544
H  53.978  51.862  46.304
H  71.484  57.112  55.117
H  34.001  34.398  52.417
H  64.069  46.251  70.955
H  34.373  40.596  31.205
H  49.342  46.943  23.984
H  57.680  49.617  58.213
H  65.239  69.521  40.468
H  65.003  70.281  41.780
H  57.929  48.130  58.013
H  41.071  57.985  38.084
H  40.905  58.401  36.606
H  42.533  65.512  43.496
H  57.058  74.054  40.003
H  57.823  72.712  40.023
H  53.414  33.371  56.897
H  52.317  51.260  43.746
H  49.669  49.442  63.038
H  44.576  60.423  26.122
H  29.197  46.169  34.510
H  45.972  46.791  73.283
H  49.080  52.227  53.867
H  37.672  38.391  31.501
H  38.547  39.324  32.400
H  44.582  46.383  72.810
H  38.773  56.840  51.499
H  37.460  57.617  51.485
H  50.758  48.671  63.790
H  33.929  41.989  31.677
H  52.072  32.951  57.559
H  66.190  42.293  55.659
H  51.066  50.982  45.920
H  39.966  36.319  40.547
H  41.367  35.738  40.387
H  40.622  52.912  41.727
H  38.877  54.346  48.999
H  33.243  55.635  65.356
H  33.107  56.275  63.975
H  42.137  53.001  41.572
H  31.060  36.672  46.839
H  31.831  37.189  45.624
H  49.289  45.928  22.856
H  41.093  53.623  29.638
H  52.113  55.958  26.126
H  66.857  32.381  47.154
H  27.493  60.683  53.152
H  43.938  65.932  44.002
H  30.592  45.869  42.030
H  32.041  53.604  37.939
H  47.657  63.560  70.992
H  33.039  54.638  38.528
H  51.931  49.571  44.079
H  66.223  43.578  56.565
H  66.195  40.378  53.547
H  50.443  27.673  31.841
H  44.640  51.006  44.255
H  65.349  44.469  50.156
H  78.657  47.872  46.477
H  48.163  42.243  38.831
H  47.669  57.384  26.856
H  54.712  61.903  65.621
H  37.386  41.034  43.610
H  57.147  51.668  61.260
H  58.358  51.672  62.189
H  54.989  48.807  53.435
H  44.735  64.347  41.290
H  51.779  75.034  52.125
H  64.236  37.922  44.045
H  43.524  64.910  40.499
H  31.827  38.137  64.646
H  31.718  38.399  63.147
H  54.978  36.125  61.913
H  24.891  42.717  54.219
H  24.853  43.855  55.270
H  50.340  74.733  51.721
H  52.415  54.393  49.209
H  58.497  51.512  69.132
H  57.040  51.861  68.906
H  47.701  64.712  46.099
H  56.148  37.103  61.737
H  37.134  25.940  52.344
H  64.989  37.427  45.301
H  25.832  48.364  54.025
H  71.948  52.232  39.466
H  49.133  42.777  37.733
H  39.733  69.148  54.465
H  28.093  43.066  33.910
H  48.364  72.593  52.765
H  28.021  43.661  32.505
H  60.302  64.519  41.973
H  46.695  41.437  72.288
H  47.374  42.653  72.973
H  59.376  63.376  41.555
H  67.165  36.829  49.256
H  54.836  51.355  60.983
H  33.970  58.586  50.411
H  51.885  56.821  49.096
H  71.147  61.889  59.470
H  70.730  60.684  58.603
H  65.582  66.461  50.873
H  72.405  34.591  53.180
H  72.571  33.719  51.911
H  65.944  65.764  52.230
H  40.471  50.177  36.056
H  41.755  49.915  35.240
H  54.996  52.879  60.756
H  50.614  52.675  49.033
H  38.244  24.866  52.321
H  53.260  62.053  65.203
H  54.291  37.122  71.443
H  34.510  66.449  59.464
H  35.614  62.816  67.025
H  58.969  43.328  65.015
H  34.757  61.597  66.649
H  58.036  57.908  49.006
H  59.102  57.789  50.104
H  59.297  56.993  24.365
H  48.718  46.991  52.139
H  66.361  55.499  50.074
H  55.383  37.102  70.385
H  66.879  54.081  49.988
H  37.938  43.680  61.389
H  36.661  43.809  62.207
H  66.063  51.697  70.939
H  43.648  32.045  41.430
H  44.540  32.426  42.639
H  71.658  42.807  47.889
H  71.738  44.007  48.876
H  35.044  62.929  30.635
H  33.710  63.669  30.439
H  47.839  39.254  57.903
H  65.698  50.494  71.838
H  47.763  65.823  47.171
H  59.814  65.296  34.666
H  51.654  74.885  62.108
H  46.941  67.629  52.334
H  38.368  41.824  42.698
H  46.961  57.401  28.236
H  45.870  68.608  51.803
H  44.605  75.802  52.538
H  60.871  63.983  72.461
H  53.551  40.631  60.561
H  60.027  65.279  72.402
H  46.023  75.839  53.094
H  36.845  49.655  71.617
H  51.601  73.460  62.702
H  37.076  48.118  71.613
H  70.147  33.660  59.031
H  70.125  32.555  60.117
H  32.102  59.039  54.687
H  36.921  71.391  50.745
H  42.558  39.568  45.130
H  42.612  38.964  46.538
H  31.409  60.417  54.882
H  42.275  36.493  63.563
H  42.496  38.012  63.705
H  61.016  66.251  34.369
H  47.065  52.795  57.252
H  52.540  69.957  64.677
H  52.121  71.281  64.107
H  72.018  50.904  38.666
H  51.500  69.879  46.083
H  47.433  55.414  47.593
H  46.937  56.124  46.325
H  52.610  69.510  45.148
H  26.716  49.254  41.614
H  27.001  50.629  42.308
H  46.622  31.970  39.342
H  33.786  38.694  29.706
H  58.527  27.042  53.320
H  59.534  49.610  68.631
H  52.572  48.101  59.078
H  64.228  28.924  36.888
H  32.595  44.029  41.363
H  34.059  44.435  41.029
H  69.891  59.270  41.042
H  70.657  60.584  41.410
H  39.056  43.307  54.829
H  56.949  48.317  62.781
H  56.680  49.837  62.717
H  37.772  43.074  55.584
H  68.193  37.231  63.522
H  48.220  51.302  46.651
H  64.520  30.101  37.844
H  67.621  35.972  64.186
H  31.558  34.430  50.148
H  53.702  47.833  58.060
H  66.582  44.705  51.070
H  45.361  35.420  64.734
H  34.386  63.902  33.950
H  27.965  61.162  35.986
H  26.470  60.796  35.950
H  45.365  36.117  66.092
H  47.975  31.350  38.942
H  44.484  51.284  45.982
H  58.389  60.244  42.496
H  59.347  61.342  42.106
H  32.334  33.277  49.487
H  35.984  28.375  39.580
H  55.805  61.127  44.198
H  37.210  67.724  63.639
H  37.950  66.474  64.071
H  55.197  61.242  42.806
H  69.733  37.304  52.330
H  35.793  72.017  49.928
H  70.888  37.740  53.270
H  47.669  53.086  44.976
H  38.605  46.845  25.880
H  38.943  48.272  26.349
H  64.325  47.493  27.686
H  42.478  45.115  33.635
H  50.018  44.044  34.295
H  49.758  45.292  33.410
H  47.105  50.694  44.524
H  46.095  61.355  57.225
H  46.954  60.150  56.874
H  63.414  46.455  27.025
H  37.677  56.152  57.010
H  36.308  55.496  57.121
H  77.319  47.193  46.888
H  25.275  49.511  54.853
H  41.210  69.393  54.887
H  53.253  55.172  56.264
H  50.766  53.348  38.505
H  57.294  27.902  37.616
H  52.752  60.381  41.242
H  41.385  49.745  74.801
H  42.159  50.609  75.795
H  53.649  59.172  40.837
H  53.684  36.417  40.016
H  45.660  58.324  70.708
H  44.139  58.350  70.689
H  54.511  37.722  40.015
H  35.185  42.080  71.282
H  36.508  42.539  70.661
H  58.515  28.763  37.319
H  60.683  46.695  50.763
H  61.414  45.557  51.474
H  44.882  57.636  45.279
H  31.542  52.412  40.735
H  45.300  48.618  67.729
H  43.802  48.919  67.686
H  31.029  53.082  42.032
H  34.841  65.384  58.409
H  66.771  46.710  66.740
H  60.178  49.710  67.233
H  58.457  26.913  51.769
H  65.554  45.999  66.163
H  35.599  64.849  33.665
H  53.912  39.088  58.795
H  43.569  73.530  60.704
H  43.028  74.788  61.397
H  53.734  37.728  59.497
H  64.413  38.734  51.964
H  64.261  40.115  52.613
H  44.987  49.708  45.390
H  50.488  55.529  28.388
H  51.597  54.038  37.396
H  50.141  54.023  28.146
H  46.182  58.402  45.641
H  36.821  58.484  44.243
H  36.537  57.014  44.667
H  31.586  59.569  67.889
H  45.203  56.684  65.017
H  38.592  35.692  45.477
H  37.485  34.799  46.100
H  58.451  39.467  31.113
H  59.924  39.480  31.572
H  43.734  62.401  25.695
H  31.930  27.300  47.154
H  33.071  26.766  46.252
H  28.125  48.761  57.133
H  27.350  47.463  56.885
H  26.460  52.541  42.080
H  67.112  31.298  58.339
H  26.402  52.205  40.589
H  42.511  63.000  26.460
H  59.639  50.701  39.472
H  58.017  73.505  46.497
H  68.170  32.082  60.282
H  68.146  30.752  61.017
H  46.900  53.618  24.996
H  34.289  44.169  58.918
H  32.816  44.413  59.252
H  46.706  52.478  23.999
H  65.933  31.435  57.388
H  55.310  63.708  52.920
H  55.867  63.240  51.558
H  56.783  73.953  45.712
H  48.972  59.319  37.230
H  64.989  39.149  64.311
H  55.527  43.042  54.779
H  51.028  40.196  63.669
H  59.423  39.383  60.394
H  61.904  62.639  33.345
H  60.901  63.817  33.496
H  57.980  39.265  59.958
H  32.251  61.505  56.298
H  65.328  52.195  27.450
H  56.568  51.792  63.418
H  55.191  52.399  63.082
H  60.376  32.578  56.161
H  66.055  38.076  64.673
H  22.559  55.422  52.555
H  60.109  33.988  55.568
H  56.694  27.562  62.626
H  57.455  28.897  62.551
H  39.894  46.774  54.045
H  39.429  48.227  54.330
H  47.593  59.894  37.234
H  57.299  43.705  50.470
H  64.335  52.950  28.373
H  44.825  43.120  55.110
H  58.451  49.792  39.308
H  23.827  55.546  53.390
H  50.133  41.405  64.025
H  37.378  66.548  32.692
H  30.634  65.195  58.732
H  33.850  38.428  33.688
H  47.665  41.715  41.394
H  46.654  41.394  40.282
H  44.909  52.394  69.156
H  64.385  61.242  31.434
H  63.346  62.402  31.447
H  46.141  51.499  69.129
H  43.059  57.837  24.226
H  41.928  56.790  24.358
H  63.787  39.656  62.121
H  59.476  42.338  39.276
H  64.845  40.690  62.443
H  41.097  44.080  61.495
H  41.842  43.385  60.321
H  55.367  38.536  41.660
H  66.054  33.457  58.316
H  66.100  34.979  57.923
H  55.467  24.869  50.076
H  56.311  26.172  50.035
H  32.620  28.457  43.285
H  36.464  68.427  39.693
H  35.260  67.493  39.980
H  56.820  39.062  41.781
H  40.685  69.853  45.806
H  60.572  41.286  39.248
H  52.006  32.271  41.869
H  29.094  65.246  59.023
H  40.655  68.327  46.079
H  35.556  38.206  30.742
H  35.492  36.735  31.097
H  46.924  32.971  28.702
H  47.105  34.335  29.354
H  37.625  65.351  31.795
H  48.031  39.496  70.532
H  48.699  40.844  70.329
H  46.026  73.202  34.651
H  52.764  33.344  41.049
H  34.079  38.757  35.143
H  33.672  41.681  41.847
H  32.248  42.035  42.245
H  37.450  46.610  47.252
H  54.458  47.441  23.610
H  53.571  48.384  22.739
H  36.862  47.639  48.239
H  38.381  59.693  63.069
H  39.303  58.568  62.537
H  49.772  57.508  22.577
H  48.527  58.181  21.967
H  46.068  74.630  35.227
H  29.702  69.944  51.181
H  29.940  71.240  51.984
H  56.452  42.445  50.816
H  60.084  30.368  62.683
H  33.476  61.482  53.134
H  38.903  50.749  65.096
H  57.527  44.146  41.454
H  56.186  43.543  42.009
H  33.499  60.292  52.171
H  37.986  43.964  75.043
H  38.003  45.490  75.318
H  65.405  68.126  46.257
H  65.119  69.379  47.123
H  35.278  69.350  35.906
H  53.643  54.716  42.002
H  24.267  54.588  58.766
H  53.667  55.443  43.329
H  32.855  40.081  69.006
H  66.932  51.643  56.972
H  67.642  52.593  57.924
H  29.115  56.166  45.165
H  69.329  67.204  61.321
H  66.631  58.211  45.244
H  67.087  54.042  44.930
H  67.409  55.554  45.248
H  24.882  54.318  60.188
H  66.728  57.646  46.635
H  34.217  69.449  37.028
H  56.302  53.555  73.992
H  36.493  47.186  25.505
H  44.106  39.742  43.471
H  49.896  27.544  54.798
H  48.447  27.147  55.181
H  31.643  50.077  61.145
H  60.280  73.424  56.675
H  59.189  72.453  57.210
H  31.442  51.515  60.732
H  64.903  52.945  63.739
H  63.977  54.168  64.009
H  38.024  55.860  61.140
H  51.665  50.018  67.455
H  35.017  47.511  25.890
H  39.300  49.676  66.060
H  55.022  59.895  76.411
H  60.464  29.159  63.513
H  26.315  45.685  63.292
H  27.073  47.011  63.092
H  66.377  52.497  60.272
H  67.901  52.599  60.263
H  37.806  55.995  62.656
H  55.603  54.335  72.847
H  50.252  50.311  66.900
H  45.600  26.449  51.015
H  44.625  26.284  49.839
H  74.408  53.673  53.317
H  35.074  64.694  36.153
H  47.357  33.818  38.995
H  48.635  33.144  39.477
H  36.167  34.354  42.148
H  36.527  34.731  40.704
H  52.826  65.086  53.649
H  27.571  37.978  47.470
H  26.614  39.196  47.551
H  52.347  63.643  53.584
H  44.027  50.782  59.924
H  52.319  73.135  44.705
H  42.881  51.796  59.929
H  61.083  60.007  48.451
H  45.441  63.117  61.714
H  54.510  70.087  64.789
H  55.926  70.566  64.942
H  46.155  43.263  55.872
H  55.367  58.405  76.169
H  54.592  42.067  54.011
H  31.790  62.952  56.623
H  41.130  51.398  73.303
H  41.380  51.505  71.773
H  62.094  60.002  49.603
H  51.968  74.460  45.340
H  34.416  64.864  37.519
H  63.509  45.905  67.375
H  75.461  54.320  52.402
H  49.413  43.025  27.984
H  28.804  54.908  45.980
H  48.781  44.116  28.895
H  33.523  39.126  70.028
H  43.874  61.413  52.686
H  42.744  61.795  51.736
H  25.906  43.257  46.865
H  26.964  42.403  46.130
H  36.158  50.840  51.959
H  68.869  68.784  56.369
H  69.856  69.429  55.413
H  37.829  50.556  52.064
H  61.872  38.077  42.726
H  61.496  36.605  42.924
H  33.343  68.548  42.732
H  68.102  66.489  60.708
H  56.212  35.492  30.436
H  55.062  34.667  29.790
H  46.462  61.934  61.888
H  53.346  53.737  68.461
H  54.809  54.097  68.067
H  64.315  44.706  67.867
H  33.757  27.503  42.816
H  41.986  27.656  60.758
H  69.965  37.803  61.368
H  53.629  40.189  62.020
H  61.505  58.537  47.023
H  32.973  48.819  27.003
H  34.249  48.920  27.815
H  60.095  58.058  46.658
H  38.305  35.762  29.302
H  39.603  36.087  30.077
H  43.982  66.777  58.243
H  40.427  51.471  24.208
H  34.683  59.595  60.256
H  33.241  59.392  59.710
H  36.459  30.399  37.309
H  53.110  46.882  33.951
H  62.577  55.466  66.319
H  53.479  46.550  35.414
H  61.892  68.987  65.102
H  61.717  70.282  64.308
H  45.914  53.482  50.559
H  39.420  64.031  71.883
H  48.686  36.913  36.221
H  53.254  39.903  56.116
H  65.669  55.568  65.419
H  40.372  69.734  65.715
H  61.156  54.913  66.561
H  28.249  35.709  61.310
H  41.775  51.608  23.419
H  46.732  51.956  50.224
H  32.845  32.687  55.698
H  67.556  43.675  48.615
H  33.173  31.877  54.398
H  45.422  53.000  53.644
H  73.323  45.776  32.337
H  72.099  45.586  33.276
H  53.901  24.852  48.517
H  51.521  68.397  62.786
H  52.826  69.189  62.727
H  53.141  24.980  49.857
H  34.974  30.260  37.674
H  49.320  51.293  31.760
H  55.469  43.477  64.381
H  49.415  52.358  30.595
H  51.823  30.452  36.903
H  51.090  29.067  36.981
H  48.837  35.398  36.531
H  40.367  63.059  72.643
H  41.591  44.749  71.084
H  56.794  35.915  48.593
H  46.948  53.702  54.169
H  68.298  43.573  47.253
H  56.222  44.434  65.284
H  41.097  45.556  72.292
H  27.824  36.911  62.174
H  23.063  54.838  50.048
H  53.354  58.240  36.957
H  61.617  34.592  60.438
H  30.804  34.331  56.036
H  73.072  37.686  49.152
H  72.483  36.391  49.672
H  52.207  57.272  36.679
H  41.165  60.413  50.100
H  42.703  60.560  50.023
H  45.887  67.888  30.546
H  46.007  54.486  52.904
H  60.435  35.529  60.769
H  61.423  29.262  65.952
H  45.774  67.686  32.078
H  64.246  59.858  29.835
H  65.484  60.480  29.161
H  49.177  29.786  65.730
H  48.526  31.152  66.061
H  38.668  49.205  62.147
H  52.688  52.894  45.698
H  68.626  36.230  47.257
H  30.032  65.660  56.285
H  45.713  55.214  65.131
H  59.955  29.620  65.626
H  40.493  70.501  67.053
H  31.262  34.025  57.482
H  61.319  35.460  38.108
H  22.197  53.753  50.732
H  47.978  53.217  51.971
H  64.814  65.165  37.162
H  38.417  48.481  38.055
H  65.211  64.899  38.604
H  43.721  52.035  71.837
H  35.234  61.275  41.452
H  35.484  60.799  40.045
H  45.193  52.167  72.252
H  59.932  54.108  33.344
H  60.378  34.615  39.003
H  59.017  53.281  34.252
H  63.152  54.111  44.444
H  44.290  24.089  55.991
H  44.413  25.571  55.809
H  41.184  51.419  65.834
H  48.246  71.180  54.561
H  67.147  55.874  65.688
H  64.727  59.244  55.353
H  48.948  70.571  53.324
H  65.075  60.712  55.136
H  59.063  32.667  62.779
H  39.612  49.417  38.139
H  56.455  40.738  58.028
H  56.696  39.374  57.417
H  58.287  36.256  48.696
H  65.117  32.515  63.696
H  42.768  63.678  56.966
H  45.279  51.978  51.215
H  50.300  68.128  30.447
H  63.994  69.679  64.475
H  65.108  68.935  65.235
H  61.158  45.154  27.530
H  53.387  24.194  56.656
H  54.158  23.590  57.845
H  59.965  44.401  26.930
H  37.059  50.333  45.881
H  55.783  34.192  27.554
H  56.682  34.238  26.311
H  46.192  52.979  44.019
H  58.309  31.726  30.544
H  59.219  30.481  30.357
H  58.108  23.244  53.117
H  44.876  47.249  26.381
H  45.690  45.971  26.082
H  57.511  24.634  52.841
H  36.871  48.806  45.987
H  66.301  33.495  63.544
H  50.860  69.457  29.930
H  61.671  54.258  55.799
H  29.626  50.642  62.299
H  48.371  47.069  43.965
H  60.139  60.625  32.374
H  59.001  60.014  47.403
H  59.473  42.180  57.145
H  57.972  41.829  57.321
H  46.816  46.901  46.432
H  57.588  60.460  47.957
H  43.551  57.152  56.528
H  42.246  56.345  56.637
H  23.829  48.784  52.570
H  62.053  47.960  73.354
H  29.982  50.815  63.752
H  60.930  47.706  74.369
H  63.764  46.773  59.403
H  62.666  52.759  43.854
H  61.727  45.866  75.925
H  60.735  61.768  31.561
H  36.012  54.749  38.286
H  34.883  54.204  39.161
H  24.026  50.318  52.402
H  41.560  35.335  66.666
H  42.282  36.491  65.971
H  32.853  45.118  45.575
H  63.008  45.375  75.212
H  60.162  54.402  55.655
H  31.609  45.082  46.469
H  65.082  50.128  47.693
H  57.517  31.242  54.258
H  58.819  31.966  54.649
H  62.111  70.102  61.851
H  38.628  36.343  38.654
H  56.881  52.472  43.332
H  58.138  51.653  43.614
H  37.704  37.317  37.906
H  71.322  36.682  55.979
H  70.019  37.406  56.362
H  46.108  53.327  45.740
H  61.456  71.265  61.108
H  25.107  52.049  47.657
H  24.160  52.727  48.624
H  32.560  48.492  67.755
H  42.914  40.042  66.758
H  44.059  40.958  67.258
H  31.175  47.902  67.464
H  67.440  32.626  51.121
H  66.276  32.639  50.140
H  43.967  64.299  56.227
H  41.717  52.597  66.703
H  54.534  40.083  56.971
H  52.894  28.326  66.453
H  47.873  58.627  55.325
H  54.429  28.075  66.398
H  46.863  57.577  54.791
H  37.321  49.442  67.504
H  35.703  55.941  50.220
H  36.638  56.981  49.584
H  38.401  48.403  67.704
H  70.164  68.104  50.203
H  69.223  69.267  49.980
H  65.777  60.566  45.896
H  31.218  45.238  66.297
H  69.778  53.053  32.161
H  69.816  52.180  30.885
H  71.765  39.999  64.424
H  40.882  52.041  38.735
H  40.702  50.723  39.470
H  70.659  40.407  63.439
H  62.823  34.782  67.500
H  32.504  45.590  67.021
H  62.463  34.805  69.006
H  52.070  49.617  53.080
H  65.758  37.705  53.698
H  66.314  36.398  53.118
H  37.778  50.421  61.817
H  63.673  50.292  48.286
H  52.513  47.933  53.014
H  53.940  49.089  64.298
H  41.957  27.916  59.241
H  58.695  44.831  65.177
H  33.404  53.382  31.444
H  67.031  64.116  63.961
H  71.300  56.769  67.322
H  64.267  63.451  33.272
H  58.286  61.915  67.436
H  38.795  25.456  42.469
H  56.361  29.263  57.672
H  38.971  26.418  41.276
H  57.522  30.255  57.520
H  48.350  74.865  53.922
H  42.976  60.257  56.511
H  44.647  32.371  29.043
H  42.187  61.548  56.152
H  41.506  43.523  64.825
H  40.230  44.371  65.075
H  54.302  45.082  77.048
H  38.260  35.867  42.476
H  51.969  64.328  58.352
H  53.471  64.450  58.763
H  72.838  54.424  37.773
H  32.834  41.999  64.051
H  31.964  43.013  63.257
H  72.494  55.956  37.847
H  49.673  75.505  53.471
H  66.712  33.014  41.369
H  31.871  51.842  30.671
H  35.355  52.121  25.388
H  36.924  36.212  32.359
H  58.049  45.940  25.173
H  63.183  64.211  32.497
H  43.171  32.785  28.965
H  69.901  56.840  67.935
H  27.577  39.601  60.351
H  27.591  40.035  58.842
H  68.198  63.609  64.775
H  44.820  37.974  69.109
H  54.915  46.388  76.502
H  34.980  50.629  25.394
H  45.431  39.316  68.597
H  49.014  74.468  36.336
H  49.321  74.876  34.866
H  32.523  38.738  54.834
H  69.822  68.159  58.518
H  71.216  68.040  57.867
H  32.261  37.505  53.894
H  37.709  73.231  40.128
H  35.634  59.013  36.739
H  35.427  60.275  35.850
H  59.619  62.147  66.725
H  38.729  74.007  40.961
H  38.221  35.712  33.005
H  67.638  33.142  42.580
H  57.392  74.601  49.143
H  40.650  40.225  75.936
H  54.323  72.186  49.881
H  33.107  64.681  59.204
H  32.437  63.326  59.426
H  49.734  68.727  44.793
H  69.210  41.403  57.074
H  68.687  40.345  56.021
H  56.468  65.614  30.356
H  56.701  64.308  31.153
H  49.813  33.632  44.634
H  42.698  52.819  56.665
H  50.815  34.726  44.304
H  38.562  30.864  52.950
H  40.099  30.622  52.888
H  41.501  27.470  64.146
H  64.068  57.724  61.499
H  51.601  45.406  46.535
H  64.637  56.773  62.565
H  36.918  65.076  46.621
H  74.932  49.643  54.793
H  74.058  48.709  53.911
H  41.466  52.565  55.760
H  40.609  28.351  65.030
H  39.436  36.772  42.867
H  33.316  36.492  31.642
H  38.777  62.059  62.118
H  65.917  32.983  33.108
H  66.899  34.052  33.598
H  44.734  43.685  26.681
H  32.568  37.804  31.263
H  38.203  65.883  46.853
H  43.264  40.227  37.648
H  42.184  41.320  37.379
H  54.519  31.091  64.628
H  36.820  62.540  54.231
H  38.000  63.524  54.136
H  37.368  62.453  61.582
H  48.107  43.125  45.485
H  63.759  32.109  39.503
H  63.646  30.844  40.360
H  41.904  30.596  35.290
H  42.566  30.230  46.431
H  43.915  29.828  47.056
H  53.468  52.025  70.329
H  74.986  50.041  51.950
H  40.751  30.619  34.316
H  75.618  50.996  50.893
H  54.814  52.629  70.727
H  53.557  30.509  63.523
H  40.958  52.451  48.493
H  52.379  50.412  74.368
H  53.819  67.514  39.870
H  57.710  36.053  41.705
H  63.135  61.468  36.942
H  64.411  61.471  37.834
H  32.094  42.950  57.106
H  58.192  37.333  40.971
H  24.394  57.926  56.877
H  56.530  35.984  68.947
H  45.150  67.598  50.081
H  41.551  50.210  41.512
H  53.057  69.123  47.478
H  60.001  53.661  45.146
H  45.634  72.266  36.474
H  39.374  53.282  35.907
H  39.460  63.176  35.931
H  75.926  62.376  51.595
H  74.547  62.265  52.314
H  39.940  64.377  36.695
H  52.997  56.290  66.074
H  48.385  55.207  69.435
H  53.656  54.938  66.327
H  30.967  43.674  56.391
H  47.287  71.222  34.309
H  40.623  53.942  35.390
H  47.519  71.860  32.921
H  58.468  53.875  45.020
H  58.856  27.444  59.347
H  41.600  47.006  30.627
H  40.997  46.585  31.950
H  54.439  34.248  35.062
H  44.440  34.688  36.800
H  43.221  34.542  37.783
H  44.866  70.966  36.783
H  55.275  68.078  63.488
H  44.971  66.362  50.996
H  30.703  51.031  31.267
H  56.915  34.553  68.566
H  73.927  47.935  37.180
H  44.383  28.300  34.673
H  63.604  48.013  66.878
H  24.460  57.101  58.132
H  23.022  58.648  54.903
H  22.946  57.123  54.743
H  65.005  48.610  66.732
H  74.628  53.880  47.033
H  73.901  52.709  46.333
H  72.693  47.130  36.695
H  58.575  26.438  58.213
H  42.654  50.495  40.470
H  44.629  29.652  35.336
H  67.019  41.945  58.576
H  63.459  70.158  52.170
H  63.902  69.763  50.763
H  70.514  40.894  47.517
H  57.553  47.399  25.388
H  75.241  39.225  41.501
H  57.821  30.635  50.635
H  71.075  41.123  46.093
H  51.682  49.477  73.401
H  66.407  31.378  53.047
H  36.926  44.182  72.847
H  60.798  56.586  29.604
H  60.018  55.346  29.185
H  54.430  41.418  65.197
H  42.054  63.340  34.767
H  68.110  34.071  62.317
H  41.288  63.029  33.510
H  37.983  43.587  71.872
H  48.917  39.070  34.537
H  47.722  39.614  33.686
H  69.608  49.063  62.476
H  31.484  44.447  49.761
H  31.173  45.045  51.147
H  40.630  53.670  47.612
H  54.666  68.733  40.291
H  68.544  32.693  62.736
H  61.981  69.776  56.148
H  62.766  69.574  54.836
H  69.540  71.924  55.397
H  66.014  40.956  57.972
H  49.552  56.174  69.671
H  71.603  47.094  60.414
H  70.166  46.938  60.903
H  51.307  40.254  59.821
H  33.352  63.135  35.884
H  52.744  74.464  38.316
H  56.386  30.924  50.181
H  50.803  61.832  29.625
H  53.726  42.181  66.342
H  49.846  61.403  28.493
H  74.285  38.021  41.730
H  37.659  51.889  49.646
H  37.955  50.403  49.960
H  68.145  71.511  54.887
H  29.345  42.587  69.134
H  29.218  43.062  67.678
H  60.012  45.358  23.670
H  68.455  31.751  39.192
H  68.771  33.217  38.782
H  60.920  45.284  24.904
H  30.481  59.934  33.543
H  31.096  60.591  34.800
H  53.079  71.933  50.699
H  40.964  55.743  70.392
H  46.987  41.647  47.100
H  44.793  38.899  51.584
H  75.071  51.741  36.986
H  67.869  47.748  60.844
H  66.923  47.953  62.002
H  50.527  27.530  56.758
H  70.729  55.562  48.719
H  73.988  51.674  38.081
H  70.494  54.349  49.590
H  50.586  28.624  57.849
H  42.624  47.144  77.735
H  44.117  46.923  77.425
H  58.866  30.179  59.454
H  53.709  45.349  44.767
H  31.228  63.767  38.265
H  32.767  70.457  52.450
H  48.245  65.297  38.981
H  56.727  61.506  36.611
H  57.175  43.250  25.154
H  57.264  48.179  42.114
H  56.964  38.484  70.229
H  73.791  54.372  42.883
H  69.349  31.430  57.502
H  35.288  58.740  29.819
H  32.469  64.570  37.915
H  36.077  60.053  29.847
H  59.088  31.543  58.802
H  50.761  47.544  43.222
H  55.465  23.387  60.114
H  30.240  47.623  43.887
H  31.061  46.430  44.372
H  54.690  24.721  60.120
H  57.676  57.560  28.614
H  57.616  58.991  29.116
H  52.183  45.122  42.435
H  34.153  55.412  41.416
H  57.629  72.433  52.827
H  32.745  54.798  41.259
H  52.797  42.273  61.776
H  41.118  32.248  51.894
H  38.331  56.456  34.185
H  41.764  31.315  50.900
H  59.573  45.419  39.336
H  58.252  44.651  39.169
H  58.959  72.331  53.572
H  50.992  31.347  63.798
H  32.797  70.265  53.953
H  53.773  51.815  67.293
H  58.241  61.307  36.454
H  53.720  50.680  66.215
H  38.699  55.627  35.403
H  46.964  64.325  72.155
H  36.511  42.857  30.366
H  37.984  42.572  30.046
H  51.623  75.554  48.053
H  31.852  53.420  61.512
H  32.555  67.042  38.317
H  33.581  67.100  37.209
H  43.117  41.168  34.034
H  56.889  72.765  50.446
H  32.383  37.343  50.539
H  32.095  36.209  51.570
H  42.862  39.880  33.191
H  45.095  37.392  38.791
H  51.153  74.205  47.457
H  46.508  37.805  39.187
H  53.594  45.822  29.663
H  52.274  45.430  30.347
H  64.146  34.561  63.287
H  43.552  52.394  78.004
H  61.289  61.737  72.471
H  22.933  44.378  47.442
H  44.095  42.364  64.772
H  41.230  61.486  42.865
H  61.757  48.720  31.085
H  62.572  49.108  29.808
H  55.902  71.843  51.139
H  67.618  56.814  63.456
H  47.883  20.289  49.752
H  59.915  61.116  72.395
H  67.744  55.449  62.884
H  58.881  65.897  50.801
H  57.487  55.689  26.674
H  58.039  54.385  27.325
H  59.926  66.947  50.452
H  47.820  65.426  68.975
H  47.767  66.693  68.093
H  23.713  52.459  53.845
H  63.132  29.655  50.180
H  39.155  58.725  60.565
H  51.459  55.519  21.452
H  40.262  59.392  59.754
H  67.939  54.123  67.138
H  68.969  54.029  68.276
H  64.441  30.699  62.353
H  73.480  54.056  44.394
H  69.545  30.457  58.677
H  62.925  34.242  62.442
H  34.000  72.075  54.430
H  26.453  44.470  64.911
H  48.648  21.276  50.655
H  51.924  55.277  22.888
H  64.168  29.939  63.686
H  42.414  49.003  25.729
H  42.327  50.472  25.282
H  49.531  65.705  39.790
H  31.367  50.258  56.565
H  44.526  57.530  59.093
H  44.508  58.497  57.871
H  30.176  63.146  63.694
H  29.585  60.867  42.137
H  29.748  62.355  42.495
H  31.933  49.521  57.789
H  56.788  29.145  65.665
H  55.419  29.230  64.952
H  44.717  42.176  47.883
H  43.320  39.052  56.558
H  29.151  57.695  52.475
H  58.579  56.469  30.908
H  30.539  57.371  53.147
H  60.283  61.224  50.524
H  60.548  62.660  50.835
H  44.337  42.224  26.502
H  29.048  64.106  37.707
H  49.867  67.587  54.263
H  29.249  65.425  38.478
H  45.898  67.433  39.279
H  49.479  70.285  44.695
H  57.224  57.166  31.102
H  43.787  38.627  50.449
H  31.220  62.098  64.201
H  30.617  64.318  40.038
H  45.318  66.362  40.248
H  30.887  63.232  41.067
H  49.295  68.803  54.959
H  43.560  44.161  47.020
H  58.030  55.417  72.998
H  59.339  56.255  72.883
H  44.511  43.270  33.480
H  43.882  31.943  35.484
H  43.073  33.068  36.156
H  43.852  43.340  32.094
H  43.091  37.873  55.616
H  42.256  54.621  36.313
H  69.749  40.737  43.266
H  70.087  40.130  44.642
H  41.999  57.616  66.806
H  42.687  56.537  65.987
H  38.766  56.149  44.480
H  48.510  63.866  43.438
H  48.245  63.020  44.678
H  39.247  57.593  44.437
H  57.479  43.765  23.744
H  44.681  45.632  45.397
H  42.722  56.052  36.601
H  41.049  32.110  63.419
H  39.920  54.836  24.636
H  63.862  40.542  67.519
H  65.220  48.991  29.163
H  53.883  48.752  54.793
H  53.581  59.953  58.931
H  28.121  43.783  37.489
H  53.821  58.993  60.127
H  58.618  44.579  55.917
H  35.928  56.418  37.320
H  36.814  57.111  36.254
H  57.494  45.269  55.133
H  63.073  31.667  34.706
H  64.850  49.403  30.602
H  63.147  31.641  36.251
H  46.892  46.061  48.836
H  54.790  37.277  43.877
H  54.678  36.718  42.420
H  53.393  35.005  37.650
H  59.316  49.085  72.727
H  59.996  49.561  74.001
H  33.805  62.560  40.962
H  51.559  42.835  61.077
H  52.399  44.171  44.620
H  51.975  32.579  63.942
H  27.650  45.018  36.691
H  43.298  54.153  64.789
H  58.420  47.756  46.984
H  53.026  34.060  38.772
H  52.546  47.545  37.892
H  53.127  46.133  37.644
H  59.314  34.657  29.862
H  58.514  57.376  63.561
H  59.063  55.950  63.113
H  59.683  33.197  30.255
H  38.665  68.484  61.500
H  50.029  45.960  42.943
H  37.589  67.407  61.454
H  39.786  53.176  28.995
H  66.043  29.803  60.934
H  66.831  28.569  61.466
H  51.910  26.956  62.768
H  40.925  40.491  71.198
H  40.668  41.170  72.547
H  53.119  26.945  63.758
H  67.356  39.742  50.746
H  62.941  42.605  29.612
H  62.250  41.783  28.495
H  66.428  38.836  51.565
H  63.911  39.067  67.891
H  38.435  55.005  24.300
H  33.423  62.299  42.425
H  39.987  40.173  74.554
H  51.074  59.763  44.844
H  55.020  34.367  36.483
H  48.584  43.113  23.785
H  46.923  70.277  52.539
H  46.359  69.270  56.458
H  47.691  69.624  57.164
H  54.040  30.449  31.616
H  52.964  27.175  39.259
H  53.865  27.779  38.145
H  54.171  51.193  53.109
H  55.553  30.699  31.752
H  73.171  62.859  59.679
H  71.971  63.668  60.199
H  48.877  62.221  32.122
H  64.794  52.182  49.999
H  60.158  49.297  29.042
H  56.556  40.712  26.085
H  42.156  49.355  28.511
H  64.371  53.543  50.566
H  42.643  47.967  28.985
H  50.975  22.737  44.162
H  67.474  58.464  48.876
H  48.713  43.830  49.605
H  69.224  55.278  57.565
H  73.456  48.544  63.383
H  58.829  49.932  29.550
H  71.927  48.747  63.373
H  49.566  63.551  32.575
H  67.548  59.532  47.753
H  43.548  62.368  46.604
H  46.677  51.478  47.447
H  45.708  35.210  39.910
H  59.935  49.795  60.973
H  58.592  49.120  61.228
H  51.074  47.185  69.455
H  45.465  45.709  66.742
H  46.746  44.810  66.776
H  55.739  29.251  37.400
H  72.104  54.821  33.344
H  41.887  43.849  32.972
H  51.448  48.126  70.617
H  54.707  29.596  36.319
H  38.469  34.421  63.202
H  38.287  35.487  64.297
H  46.213  49.070  47.164
H  30.066  53.559  52.884
H  30.507  52.151  53.310
H  60.452  25.492  55.661
H  39.707  53.084  72.741
H  55.540  41.845  26.113
H  49.558  23.450  44.158
H  71.805  55.897  32.265
H  43.655  61.978  48.092
H  64.905  35.260  48.861
H  49.503  29.434  35.399
H  70.109  62.628  63.184
H  45.072  75.795  49.931
H  46.073  76.949  50.234
H  31.238  49.183  43.194
H  61.775  32.935  42.390
H  58.920  46.700  47.974
H  47.417  42.977  65.155
H  30.781  48.666  41.805
H  49.199  53.559  62.279
H  50.626  53.468  61.780
H  53.055  56.423  77.775
H  48.084  42.323  66.384
H  40.737  48.370  48.759
H  25.841  54.613  40.960
H  30.640  31.775  49.331
H  70.201  64.030  62.585
H  48.018  44.844  76.209
H  52.387  56.181  72.183
H  51.597  54.873  72.421
H  43.793  69.483  56.539
H  61.668  52.743  25.969
H  42.362  60.428  59.913
H  40.686  49.412  47.661
H  49.493  30.843  35.991
H  54.245  57.289  77.262
H  48.592  45.959  77.129
H  66.176  34.405  48.919
H  53.553  43.832  49.082
H  53.570  43.641  50.620
H  32.632  61.277  48.364
H  31.633  60.764  47.320
H  45.880  64.421  44.310
H  46.424  65.596  43.475
H  37.059  59.995  42.434
H  34.977  50.267  39.265
H  36.375  50.000  39.866
H  43.303  69.707  57.997
H  38.549  60.286  42.620
H  55.747  50.564  57.606
H  59.617  62.155  38.970
H  45.998  71.472  52.642
H  67.874  56.037  57.617
H  67.579  41.005  53.793
H  38.649  53.909  50.470
H  43.352  52.610  64.733
H  63.173  32.950  41.803
H  39.638  42.396  36.612
H  40.334  41.473  35.610
H  60.860  62.996  39.333
H  45.332  33.817  40.561
H  58.784  60.020  34.592
H  38.689  43.715  31.739
H  28.292  63.667  54.280
H  76.321  41.596  54.227
H  26.503  40.917  39.976
H  27.087  62.922  54.844
H  61.925  63.439  67.162
H  63.288  62.694  67.014
H  46.780  48.923  51.969
H  54.353  58.333  38.907
H  55.274  59.524  38.614
H  69.413  41.184  52.110
H  43.888  35.700  59.456
H  48.048  53.800  22.507
H  56.180  41.592  66.273
H  69.723  39.952  53.001
H  29.032  42.682  45.540
H  29.607  41.261  45.765
H  49.387  54.365  21.933
H  63.295  38.081  41.325
H  63.936  39.061  40.311
H  53.570  59.842  26.145
H  63.971  63.060  43.808
H  28.478  45.206  58.976
H  57.299  42.544  66.722
H  26.354  39.580  39.213
H  51.488  49.964  50.639
H  33.474  53.117  29.892
H  69.214  67.569  54.422
H  59.217  55.660  25.114
H  28.160  64.965  43.250
H  27.828  66.476  43.175
H  46.007  57.458  32.140
H  68.007  64.438  46.998
H  47.164  29.692  36.958
H  47.082  28.458  36.047
H  47.424  56.883  32.298
H  40.268  57.884  64.576
H  49.082  38.459  57.396
H  39.663  59.151  65.170
H  49.311  38.216  52.271
H  49.006  36.842  51.621
H  52.914  46.636  42.944
H  28.878  47.258  38.674
H  43.752  56.800  25.736
H  45.235  56.355  25.739
H  29.704  46.068  38.062
H  53.666  61.757  69.936
H  54.883  62.639  70.192
H  60.595  32.463  62.567
H  69.394  64.729  46.396
H  43.599  58.129  28.885
H  68.129  66.517  54.825
H  44.049  56.926  27.998
H  42.114  28.539  43.100
H  39.322  65.494  54.060
H  35.475  62.585  62.855
H  36.234  61.439  63.621
H  34.473  39.758  28.783
H  34.594  35.475  38.500
H  38.126  50.018  40.728
H  37.897  48.583  40.153
H  33.612  36.030  39.550
H  39.981  65.754  63.189
H  43.097  29.508  42.459
H  39.009  65.697  61.993
H  38.106  39.922  65.207
H  39.507  54.513  72.293
H  38.286  41.347  65.786
H  71.371  60.250  35.847
H  59.967  49.937  36.138
H  58.961  51.119  36.205
H  70.641  60.011  37.202
H  69.263  65.454  52.870
H  38.074  66.251  53.558
H  60.251  26.903  55.097
H  48.919  49.556  48.296
H  38.845  44.713  32.882
H  68.197  66.258  52.059
H  59.909  59.534  35.544
H  59.008  28.234  48.702
H  41.593  74.980  48.021
H  40.697  73.756  47.948
H  49.387  49.396  68.944
H  58.770  34.086  48.087
H  57.531  34.306  47.168
H  48.225  48.474  69.377
H  59.244  28.633  50.158
H  44.659  32.807  62.152
H  44.913  32.400  60.706
H  44.651  65.388  58.086
H  41.704  41.796  30.539
H  41.928  41.823  32.033
H  65.380  30.872  35.512
H  50.641  60.100  67.630
H  49.135  59.798  67.668
H  49.248  48.705  50.348
H  66.546  31.614  34.876
H  45.651  43.318  41.614
H  45.324  43.223  43.111
H  76.342  42.402  55.543
H  47.703  44.691  43.602
H  44.549  34.642  60.387
H  73.024  44.245  46.690
H  49.768  44.051  23.980
H  72.730  45.431  45.755
H  47.867  58.033  57.659
H  59.410  55.689  42.633
H  34.747  44.625  43.565
H  33.674  43.796  44.334
H  68.546  56.422  31.085
H  59.676  39.539  38.426
H  68.152  56.401  32.599
H  59.233  38.073  38.043
H  29.253  38.149  63.693
H  34.901  34.033  36.820
H  69.746  69.186  52.417
H  55.263  37.415  66.194
H  45.644  44.722  63.921
H  44.685  44.807  65.131
H  62.411  30.073  46.204
H  65.009  58.596  47.598
H  63.815  57.704  47.935
H  47.604  29.600  45.228
H  60.934  52.144  65.742
H  60.507  52.050  67.218
H  51.038  48.709  75.661
H  47.908  30.047  43.800
H  49.643  36.001  25.490
H  29.123  69.276  48.952
H  48.207  36.521  25.273
H  55.313  36.057  66.886
H  62.990  53.516  26.021
H  60.991  41.882  35.336
H  34.976  42.444  48.717
H  65.709  46.956  45.309
H  35.671  62.002  37.562
H  36.785  60.969  37.833
H  65.961  47.168  46.850
H  52.934  62.914  60.498
H  53.134  61.401  60.751
H  69.140  38.346  33.208
H  42.050  51.568  50.830
H  59.836  54.264  42.964
H  38.379  70.795  54.337
H  35.411  32.794  37.556
H  62.631  46.931  69.089
H  48.962  61.712  64.942
H  49.990  62.740  64.431
H  61.700  46.804  67.854
H  52.711  41.790  31.904
H  52.126  41.455  33.294
H  69.532  70.224  53.558
H  27.542  62.532  43.438
H  26.941  62.501  42.028
H  29.088  68.252  50.111
H  33.995  42.850  49.818
H  49.724  48.859  76.511
H  63.503  43.232  51.001
H  52.678  54.635  35.411
H  32.511  69.819  62.052
H  52.553  67.893  48.226
H  60.204  62.091  59.020
H  59.445  60.917  59.714
H  73.598  65.140  57.453
H  53.979  67.586  62.882
H  28.520  45.486  51.989
H  47.612  60.026  71.984
H  72.299  65.721  56.873
H  51.242  54.743  34.928
H  46.351  60.308  71.154
H  34.532  62.217  35.438
H  64.397  47.972  62.299
H  64.860  46.849  61.305
H  31.799  66.284  61.309
H  31.509  43.997  43.722
H  30.519  42.851  43.615
H  30.816  66.649  60.176
H  59.196  49.555  63.114
H  60.256  50.628  63.401
H  39.463  55.792  70.112
H  52.134  41.286  58.963
H  62.581  43.660  52.184
H  41.902  42.948  67.181
H  50.422  64.603  72.778
H  70.791  38.619  49.454
H  60.149  38.552  28.377
H  68.064  37.286  33.462
H  59.921  37.070  28.668
H  69.982  38.725  50.750
H  23.588  43.951  57.783
H  23.243  45.288  57.098
H  41.174  50.864  49.782
H  47.764  40.316  29.386
H  31.294  39.197  39.708
H  48.999  64.705  73.390
H  66.487  32.890  53.381
H  37.109  30.715  46.422
H  38.225  31.324  47.310
H  29.751  45.215  52.786
H  71.111  58.674  56.939
H  71.212  58.407  58.427
H  43.706  53.755  29.307
H  28.566  37.982  35.001
H  45.197  53.925  29.072
H  28.905  37.635  36.459
H  41.365  41.590  66.762
H  31.645  68.538  62.010
H  59.576  42.426  35.641
H  30.648  56.752  33.520
H  32.067  56.117  33.413
H  52.171  74.707  57.980
H  53.088  73.849  58.878
H  39.007  54.103  40.737
H  63.997  54.927  57.011
H  63.704  55.209  55.530
H  39.146  55.020  41.957
H  44.239  47.271  40.634
H  45.138  48.402  40.088
H  50.388  46.245  58.215
H  25.801  50.171  49.918
H  51.379  45.416  59.050
H  27.855  55.796  47.786
H  32.615  38.535  39.341
H  48.459  40.591  30.736
H  54.029  37.430  50.119
H  68.296  58.223  68.292
H  42.353  31.405  48.297
H  69.940  61.310  33.953
H  70.727  49.751  61.678
H  37.009  54.677  41.712
H  36.048  55.038  40.565
H  49.467  30.520  59.624
H  26.882  55.322  46.652
H  30.752  52.856  34.090
H  52.841  75.667  39.261
H  43.410  53.738  67.883
H  46.785  58.656  58.544
H  39.094  33.760  54.988
H  62.406  64.744  51.163
H  63.684  65.199  51.897
H  61.789  33.171  37.873
H  41.710  60.818  58.586
H  40.250  33.325  36.682
H  39.162  32.326  37.012
H  47.014  54.208  76.681
H  27.095  46.666  41.478
H  44.428  53.490  66.779
H  25.821  47.405  41.203
H  71.993  61.217  38.095
H  61.935  31.705  38.332
H  71.504  62.404  38.982
H  29.386  31.054  48.793
H  26.454  55.864  40.281
H  40.861  31.464  48.611
H  71.295  60.959  33.311
H  32.908  71.109  49.715
H  31.715  70.279  50.213
H  54.447  38.875  50.290
H  46.110  53.254  77.490
H  38.813  29.572  40.397
H  39.573  30.811  40.965
H  48.795  29.475  58.689
H  72.784  64.807  50.618
H  27.677  49.386  34.428
H  57.488  40.936  54.061
H  63.441  28.963  46.342
H  56.735  40.322  55.238
H  60.163  67.336  70.702
H  40.837  26.918  36.367
H  39.472  27.660  36.198
H  37.230  70.078  55.074
H  33.572  33.804  44.973
H  73.903  63.753  50.714
H  33.254  32.776  46.039
H  76.331  53.500  54.685
H  59.107  66.498  69.964
H  77.273  53.596  55.913
H  59.975  62.528  61.154
H  58.899  62.583  62.225
H  23.985  54.806  47.844
H  49.392  77.647  55.458
H  51.619  54.762  75.832
H  53.049  54.794  76.385
H  49.975  78.131  54.104
H  32.997  41.104  39.038
H  28.111  50.651  35.146
H  61.646  49.693  54.222
H  62.189  48.257  54.131
H  29.665  40.659  59.032
H  30.361  42.030  58.939
H  31.332  53.935  33.168
H  50.263  41.690  25.837
H  51.055  42.238  27.037
H  26.569  51.510  50.064
H  48.595  51.357  26.399
H  35.621  45.404  33.362
H  35.874  44.386  34.522
H  49.638  52.362  25.829
H  28.871  51.985  31.721
H  28.289  50.599  32.042
H  68.936  58.878  67.025
H  44.639  43.061  30.173
H  43.908  43.152  28.862
H  28.138  37.319  64.378
H  64.161  35.549  33.590
H  33.323  42.580  39.468
H  62.624  35.451  33.820
H  54.691  32.140  33.782
H  55.353  33.140  32.808
H  25.106  48.985  64.791
H  24.890  50.411  64.227
H  39.107  32.229  55.038
H  45.007  34.900  54.072
