10074
Supercell generated
Cl  41.259  60.751  72.504
Cl  47.816  30.708  60.247
Cl  36.479  47.994  74.989
Cl  39.106  49.969  60.184
Cl  62.646  58.926  60.688
Cl  64.214  44.247  60.337
Cl  61.242  67.541  41.063
Cl  39.148  40.485  72.982
Cl  31.247  50.946  48.398
Na  35.918  45.033  51.340
Na  37.083  30.360  63.863
Na  46.336  56.344  34.969
Na  35.533  36.977  44.303
Na  41.179  68.089  69.505
Na  36.045  52.744  54.029
Na  47.489  37.290  62.212
O  36.431  65.411  42.414
O  67.443  45.630  45.603
O  68.359  43.086  54.523
O  59.902  61.888  26.734
O  24.901  52.290  51.995
O  61.102  36.683  55.334
O  71.279  56.117  59.229
O  48.637  63.626  27.633
O  48.262  50.179  24.401
O  56.075  66.348  33.949
O  66.298  65.926  54.185
O  69.831  48.448  45.987
O  29.609  40.322  65.015
O  44.405  25.896  53.398
O  46.962  28.622  48.728
O  64.842  28.400  58.974
O  74.857  41.910  41.833
O  61.925  48.975  33.936
O  54.575  43.013  67.823
O  42.153  30.762  30.427
O  68.971  51.431  66.409
O  48.932  74.673  45.769
O  38.146  26.099  47.255
O  55.605  54.552  33.093
O  64.275  48.624  42.465
O  63.380  32.816  56.995
O  57.564  54.032  32.004
O  32.330  43.493  36.270
O  47.762  42.709  62.717
O  56.077  50.987  30.501
O  46.513  21.896  52.613
O  40.247  67.595  32.417
O  34.030  51.908  48.431
O  63.784  46.708  48.397
O  35.394  36.402  63.467
O  43.478  37.536  32.884
O  44.251  57.008  30.865
O  64.909  40.940  43.163
O  58.357  42.165  32.213
O  67.345  48.817  50.344
O  48.185  35.974  28.931
O  49.082  73.724  49.746
O  39.117  70.614  42.097
O  60.137  24.217  52.632
O  32.484  39.866  55.898
O  50.681  38.287  70.734
O  67.066  54.338  55.681
O  58.854  25.863  38.608
O  36.862  74.537  51.000
O  30.247  50.397  57.830
O  43.183  35.498  71.595
O  50.445  29.022  39.465
O  40.460  71.051  32.715
O  48.289  54.675  60.198
O  46.791  61.308  68.338
O  21.954  43.689  52.203
O  48.090  32.523  34.072
O  70.062  31.750  41.894
O  40.835  39.486  66.723
O  45.322  43.488  68.492
O  64.212  71.388  37.674
O  63.168  58.198  58.623
O  34.964  69.177  43.220
O  33.994  67.104  54.839
O  61.531  64.618  56.662
O  27.281  63.282  40.092
O  28.130  60.544  48.062
O  31.276  45.424  62.335
O  51.588  31.083  47.566
O  40.580  71.960  51.324
O  59.583  55.722  38.457
O  41.210  27.671  39.253
O  30.334  32.689  40.859
O  32.884  35.448  43.982
O  59.394  49.104  23.261
O  46.433  36.815  32.932
O  40.501  62.894  63.585
O  54.182  49.336  31.495
O  47.720  27.350  63.940
O  41.517  38.638  48.602
O  55.050  29.987  34.027
O  34.331  51.095  28.381
O  55.752  53.306  41.348
O  37.593  51.641  71.486
O  44.313  31.574  52.484
O  62.842  59.320  50.441
O  37.064  69.457  33.299
O  37.458  38.603  54.247
O  43.167  63.664  30.895
O  41.417  32.357  57.638
O  59.892  64.597  44.045
O  59.509  53.567  70.493
O  55.090  53.194  37.529
O  33.676  67.464  34.202
O  50.950  28.337  43.547
O  41.834  69.645  59.551
O  69.039  44.121  31.613
O  69.063  34.281  57.540
O  61.976  45.353  59.134
O  54.453  56.755  39.842
O  71.236  40.427  49.196
O  66.077  51.943  48.352
O  42.041  62.691  62.027
O  72.191  52.326  56.892
O  42.524  34.909  32.465
O  56.497  66.826  36.579
O  51.415  41.073  23.372
O  36.997  71.202  36.213
O  72.701  40.453  37.467
O  40.343  65.535  28.373
O  30.136  64.261  49.929
O  24.435  52.120  58.149
O  58.138  71.795  33.147
O  62.038  56.920  63.279
O  42.322  26.668  57.849
O  58.228  51.797  74.530
O  47.424  54.104  66.271
O  40.864  56.219  58.793
O  67.744  46.953  58.777
O  62.353  69.968  37.194
O  41.949  71.846  45.230
O  47.057  60.214  27.955
O  55.968  59.682  62.992
O  44.262  25.013  38.412
O  69.971  57.602  40.999
O  33.862  45.486  72.012
O  42.632  28.818  37.602
O  68.519  57.296  37.386
O  31.736  36.685  67.611
O  54.774  50.098  37.186
O  63.318  56.846  29.469
O  61.382  64.936  39.073
O  40.733  34.076  46.972
O  60.590  39.059  52.721
O  61.956  55.119  25.085
O  62.267  63.912  49.325
O  33.547  55.930  43.381
O  41.908  39.813  54.857
O  34.624  42.468  47.144
O  63.229  49.027  63.190
O  55.282  69.903  61.529
O  60.410  51.628  51.882
O  43.578  31.445  62.935
O  65.304  43.889  46.505
O  45.733  48.509  31.953
O  41.412  59.904  45.339
O  39.645  51.124  52.771
O  29.178  61.196  49.884
O  43.992  24.817  43.626
O  37.519  46.932  31.979
O  50.817  40.569  51.660
O  62.767  29.328  54.957
O  48.972  71.830  41.053
O  39.522  44.361  34.858
O  42.550  60.666  40.761
O  43.409  31.841  44.157
O  63.170  64.233  36.155
O  45.023  54.088  36.793
O  70.947  50.650  59.738
O  60.252  42.998  62.523
O  56.908  25.398  37.274
O  41.503  67.511  37.057
O  58.119  54.410  60.805
O  63.448  36.398  59.761
O  44.202  27.859  45.228
O  39.314  31.651  33.129
O  64.170  33.117  48.956
O  43.898  59.337  44.775
O  49.360  58.680  25.953
O  56.527  45.794  74.468
O  68.140  62.730  34.009
O  50.845  32.383  67.979
O  25.793  52.139  64.387
O  41.578  68.754  43.816
O  34.648  36.102  33.564
O  59.172  64.393  37.053
O  33.588  72.568  49.856
O  55.378  40.424  69.073
O  65.638  56.162  29.199
O  38.108  54.297  27.379
O  41.066  44.348  67.211
O  39.268  67.762  44.279
O  60.311  48.424  64.719
O  32.586  46.087  34.720
O  49.760  32.907  36.399
O  62.600  75.297  45.880
O  52.342  61.133  68.723
O  43.758  73.963  38.954
O  62.752  58.048  44.383
O  69.456  35.353  54.513
O  64.723  51.009  61.033
O  38.806  41.967  52.515
O  35.549  49.602  66.684
O  57.587  66.404  42.599
O  52.341  36.905  65.243
O  51.025  49.636  71.163
O  26.849  60.057  54.334
O  31.718  50.328  50.467
O  29.194  43.419  62.652
O  50.543  34.192  69.400
O  31.745  65.226  35.258
O  51.751  59.640  43.556
O  37.534  56.033  29.941
O  47.417  45.262  53.914
O  30.885  47.152  58.490
O  28.950  36.009  59.347
O  56.277  43.541  70.460
O  70.082  54.827  62.669
O  65.522  73.736  52.528
O  72.082  35.177  40.463
O  67.504  68.334  48.910
O  48.127  70.555  66.133
O  45.344  31.758  35.142
O  60.857  42.330  27.258
O  33.544  49.568  62.046
O  42.228  51.872  52.946
O  48.262  32.311  52.325
O  60.196  35.981  57.618
O  40.043  73.587  37.153
O  30.368  38.434  58.002
O  37.231  39.743  71.764
O  37.603  54.090  36.874
O  66.925  61.162  65.676
O  45.900  31.848  71.012
O  70.084  34.179  42.561
O  49.495  40.318  75.375
O  30.798  55.980  50.701
O  72.346  50.641  55.342
O  64.140  35.152  56.300
O  49.496  57.744  28.383
O  36.137  54.707  47.034
O  30.685  62.111  51.835
O  41.814  46.814  68.166
O  24.314  48.324  61.396
O  65.438  44.001  70.604
O  66.687  42.664  35.601
O  35.047  57.531  39.733
O  38.605  65.223  44.081
O  39.204  41.383  60.672
O  31.518  53.605  63.107
O  49.594  50.321  28.425
O  47.782  37.364  66.119
O  55.757  39.152  67.204
O  49.134  68.801  64.594
O  61.001  51.267  23.796
O  43.198  71.925  49.376
O  57.743  30.466  65.999
O  36.147  44.891  69.357
O  32.708  61.385  63.482
O  52.158  39.247  55.029
O  35.646  45.563  28.761
O  42.061  72.853  36.667
O  56.201  49.297  25.156
O  25.972  52.103  35.086
O  73.432  53.050  59.428
O  62.194  42.612  47.902
O  66.081  64.437  51.062
O  48.660  49.362  33.595
O  32.848  56.560  52.790
O  43.128  47.633  32.968
O  61.150  51.715  61.861
O  35.060  50.375  70.509
O  40.079  48.430  70.027
O  32.516  68.551  39.640
O  44.780  72.802  57.887
O  62.081  40.221  36.613
O  40.376  33.695  31.332
O  42.098  48.166  37.965
O  56.128  49.545  27.927
O  48.479  61.247  49.622
O  64.694  41.658  68.189
O  62.173  44.389  42.685
O  50.527  39.150  25.125
O  41.677  58.091  41.798
O  41.933  22.698  53.335
O  42.600  59.874  35.929
O  56.718  50.371  36.194
O  41.751  65.527  63.853
O  38.829  49.070  31.297
O  60.951  62.205  43.160
O  53.164  70.087  36.920
O  65.515  50.061  67.201
O  60.603  53.293  37.665
O  65.032  58.193  53.772
O  60.649  44.321  52.543
O  49.250  73.189  64.786
O  30.314  34.677  60.446
O  49.199  54.548  65.050
O  58.247  35.569  61.606
O  48.067  51.742  61.864
O  58.796  59.374  64.961
O  30.252  41.001  61.495
O  50.528  47.952  30.327
O  57.793  65.457  45.373
O  65.984  48.353  72.970
O  69.707  53.004  35.096
O  63.709  72.529  40.911
O  32.229  48.197  51.930
O  73.451  42.217  35.634
O  28.288  44.115  42.157
O  37.820  65.132  59.359
O  41.313  35.804  27.555
O  43.600  42.791  24.648
O  64.323  47.801  55.339
O  63.103  48.738  45.302
O  63.466  72.940  53.637
O  31.491  59.184  57.652
O  67.561  37.754  41.403
O  38.916  52.010  32.064
O  71.921  50.145  46.021
O  34.482  52.566  66.490
O  34.669  53.535  32.647
O  67.054  61.767  48.895
O  57.005  69.809  55.479
O  45.343  58.568  57.018
O  46.842  66.009  72.567
O  47.946  32.282  56.353
O  41.967  35.900  58.181
O  55.710  72.650  54.970
O  46.529  42.063  30.219
O  39.083  52.778  54.927
O  63.682  51.245  66.618
O  61.539  55.570  41.633
O  52.703  53.557  40.845
O  36.801  54.519  43.989
O  34.330  47.058  35.839
O  38.522  57.998  74.117
O  28.313  61.186  64.264
O  26.166  52.854  46.693
O  72.564  43.314  37.780
O  46.198  44.885  70.629
O  58.935  67.608  35.436
O  71.410  61.627  54.881
O  25.545  57.242  53.404
O  52.563  51.837  35.898
O  53.190  36.105  58.391
O  31.442  49.918  38.638
O  27.779  46.239  43.778
O  37.424  59.543  39.401
O  68.132  44.456  39.404
O  44.544  69.498  54.368
O  67.057  60.849  37.867
O  32.873  59.850  43.046
O  30.128  53.045  49.088
O  35.998  54.064  51.222
O  47.015  56.218  24.120
O  55.942  47.335  32.968
O  53.925  62.227  47.433
O  35.800  40.266  38.185
O  38.110  53.800  52.342
O  57.432  47.613  30.077
O  50.558  26.197  60.281
O  63.678  51.852  40.364
O  70.887  45.059  49.576
O  50.118  59.605  35.868
O  58.557  68.338  40.644
O  66.038  60.789  52.061
O  51.394  76.140  42.596
O  55.515  65.421  64.893
O  61.097  47.285  39.771
O  29.555  46.662  46.322
O  47.572  65.923  41.657
O  48.148  36.832  72.522
O  26.463  66.289  46.959
O  72.199  57.220  40.709
O  75.050  43.422  56.897
O  35.840  42.538  57.240
O  67.809  53.637  41.010
O  37.770  49.323  42.741
O  34.909  40.162  40.192
O  50.752  72.257  50.495
O  45.137  32.146  55.159
O  70.146  65.692  44.416
O  65.019  50.150  57.858
O  50.085  42.824  68.915
O  35.157  26.844  52.851
O  62.654  26.548  40.379
O  41.360  64.470  42.569
O  67.100  66.698  63.220
O  26.051  54.568  53.650
O  49.587  74.158  56.850
O  38.685  57.888  54.719
O  24.686  40.366  47.281
O  62.119  48.050  24.336
O  70.952  45.473  40.043
O  56.100  64.089  69.080
O  60.002  66.629  37.379
O  37.013  71.187  63.435
O  65.141  55.078  45.493
O  36.685  59.221  51.626
O  38.584  33.255  44.327
O  63.509  35.883  46.965
O  71.902  37.543  42.603
O  52.300  31.798  35.173
O  27.335  33.780  43.537
O  50.429  46.887  61.906
O  30.409  37.825  43.689
O  61.913  24.351  50.786
O  39.974  61.558  41.697
O  53.691  45.986  67.672
O  51.937  69.553  51.704
O  49.422  43.103  75.971
O  37.741  56.897  68.277
O  44.277  36.009  68.583
O  21.944  47.008  50.765
O  43.895  40.144  73.427
O  51.370  72.079  54.307
O  49.235  60.470  57.866
O  29.172  50.200  48.425
O  59.913  34.417  65.395
O  52.727  30.364  56.437
O  47.845  28.102  61.283
O  39.582  63.430  60.735
O  33.462  42.924  54.583
O  32.703  37.109  58.739
O  67.252  43.596  62.101
O  66.393  42.618  45.076
O  49.158  68.118  50.586
O  65.816  54.329  48.200
O  59.139  60.722  52.596
O  50.579  51.258  36.654
O  39.930  54.031  60.539
O  59.113  42.284  54.217
O  29.263  57.353  47.750
O  25.063  46.875  39.686
O  37.329  43.272  36.635
O  44.851  52.129  39.126
O  36.424  39.783  33.249
O  31.434  51.370  36.637
O  50.454  25.739  52.124
O  54.276  40.381  53.430
O  72.754  38.695  44.273
O  68.807  50.740  45.586
O  62.639  28.236  52.425
O  27.970  51.193  54.054
O  61.473  44.715  48.200
O  64.804  52.153  55.074
O  51.161  26.738  42.040
O  52.244  43.936  64.191
O  65.861  53.496  29.931
O  67.316  36.873  45.045
O  27.030  56.027  62.615
O  36.086  41.205  68.209
O  48.590  41.912  23.242
O  66.266  39.062  38.048
O  46.050  68.408  64.582
O  51.694  59.220  57.721
O  62.790  61.890  41.071
O  68.357  48.068  68.253
O  63.446  63.312  46.768
O  65.857  38.140  34.556
O  38.204  28.946  37.059
O  36.242  36.632  49.531
O  62.098  31.907  51.568
O  61.896  75.612  52.647
O  46.047  61.631  35.735
O  52.850  63.112  63.590
O  44.064  70.738  47.130
O  50.497  72.618  35.691
O  65.989  41.157  61.390
O  35.527  64.484  62.437
O  65.525  52.671  44.585
O  64.954  62.354  66.872
O  76.559  40.556  43.807
O  44.980  72.035  63.862
O  25.132  49.206  37.179
O  36.918  36.529  71.405
O  24.982  60.288  44.773
O  47.835  65.519  32.386
O  71.000  53.484  60.153
O  37.602  63.398  67.675
O  41.642  47.008  74.741
O  60.870  45.858  66.347
O  62.904  31.666  54.133
O  26.367  48.110  66.415
O  53.874  28.182  34.482
O  72.217  46.232  42.651
O  75.095  56.844  38.069
O  33.466  28.099  53.863
O  67.296  31.438  55.417
O  44.690  45.659  69.211
O  68.830  44.092  41.940
O  50.124  71.066  62.912
O  39.792  36.815  72.671
O  62.045  61.952  28.079
O  64.423  56.929  66.829
O  73.877  61.721  48.033
O  39.239  72.091  57.694
O  34.149  71.105  39.703
O  36.051  66.287  35.211
O  63.193  49.181  57.119
O  58.364  75.563  50.245
O  44.439  61.737  54.351
O  35.998  33.114  43.272
O  68.506  46.737  47.887
O  55.795  60.641  40.337
O  34.633  35.421  54.000
O  53.805  22.386  44.661
O  63.124  43.232  58.701
O  64.930  40.913  70.963
O  36.087  52.320  37.839
O  45.201  45.167  57.601
O  26.283  62.573  46.280
O  39.375  60.307  55.966
O  55.185  25.407  42.795
O  51.802  36.488  56.136
O  41.376  64.830  58.256
O  57.072  33.539  31.857
O  31.622  39.946  31.332
O  54.066  29.649  51.982
O  56.165  27.563  59.504
O  43.906  67.948  71.448
O  48.833  45.132  36.582
O  70.392  65.806  48.912
O  58.470  23.376  50.216
O  24.853  62.174  53.682
O  56.041  56.892  75.006
O  73.858  46.883  49.560
O  63.502  41.260  46.724
O  32.809  39.934  49.526
O  55.212  42.130  23.332
O  47.738  71.315  68.637
O  46.422  21.704  45.745
O  48.459  67.826  37.322
O  60.892  54.228  28.697
O  43.014  57.352  50.280
O  62.030  26.854  49.778
O  69.998  38.521  46.452
O  57.043  72.786  59.531
O  50.584  26.564  44.804
O  33.267  49.089  41.300
O  40.595  39.112  59.971
O  47.460  69.791  41.186
O  66.045  49.349  32.194
O  50.329  31.882  38.276
O  42.303  51.756  47.762
O  64.727  61.208  39.209
O  53.904  72.692  41.641
O  40.166  45.084  54.475
O  57.164  67.559  68.051
O  67.472  70.208  60.375
O  43.637  63.062  63.495
O  49.908  34.975  58.200
O  61.128  58.983  57.055
O  36.115  47.947  57.122
O  53.649  54.883  36.971
O  68.661  54.588  29.390
O  37.603  39.466  51.337
O  38.961  38.536  35.998
O  40.764  50.231  68.466
O  37.573  38.782  63.676
O  62.061  43.908  37.631
O  61.631  61.417  54.456
O  69.679  46.657  34.673
O  47.517  49.802  77.261
O  40.484  46.959  63.032
O  40.793  37.207  69.212
O  43.266  61.360  31.959
O  46.699  55.348  70.014
O  66.394  67.533  57.174
O  35.382  34.223  58.415
O  71.535  55.489  64.188
O  36.648  67.560  41.388
O  29.977  50.025  55.681
O  65.778  46.918  42.973
O  37.736  73.589  59.468
O  40.307  48.273  23.517
O  37.697  70.486  44.696
O  39.373  48.924  72.787
O  39.841  71.263  61.205
O  62.014  41.787  56.626
O  64.222  45.190  42.549
O  63.055  26.420  46.743
O  53.036  35.388  62.771
O  57.624  35.185  56.593
O  56.871  54.921  68.371
O  48.699  60.730  73.193
O  42.071  34.804  48.565
O  57.393  50.847  72.057
O  44.611  31.972  38.288
O  38.696  57.437  57.182
O  34.495  31.565  59.760
O  33.794  56.833  46.106
O  39.899  36.730  64.839
O  51.709  23.130  55.892
O  45.067  66.077  70.416
O  48.289  51.398  67.620
O  44.923  69.410  49.975
O  39.486  34.653  58.813
O  52.099  25.274  58.968
O  31.672  61.262  66.672
O  32.012  59.020  39.058
O  28.291  36.537  56.804
O  66.673  43.966  42.372
O  72.978  36.736  54.334
O  49.805  28.000  47.394
O  61.746  48.450  48.040
O  53.936  29.521  54.794
O  33.823  57.490  36.037
O  71.550  42.045  41.691
O  37.747  40.213  34.957
O  62.799  56.683  39.336
O  51.643  43.428  71.237
O  51.830  45.651  25.741
O  65.234  55.066  32.016
O  32.099  40.922  43.526
O  40.028  61.029  33.684
O  43.983  64.926  61.101
O  63.740  64.362  40.428
O  64.629  31.378  60.664
O  46.774  49.983  71.370
O  61.028  40.557  73.524
O  44.215  68.372  39.428
O  39.813  27.995  42.506
O  38.371  70.189  48.289
O  65.254  67.849  39.795
O  51.408  38.624  57.022
O  45.731  53.856  60.759
O  37.775  60.290  59.145
O  52.045  39.375  30.216
O  32.782  67.915  58.422
O  34.983  47.227  55.413
O  45.108  45.201  77.484
O  34.547  28.544  47.565
O  50.286  29.566  63.090
O  53.676  55.974  24.500
O  53.178  41.818  24.845
O  37.115  37.550  69.466
O  43.308  37.862  53.827
O  70.400  48.793  66.636
O  57.344  71.035  68.340
O  22.495  54.614  46.407
O  61.120  35.495  70.299
O  59.556  70.163  37.566
O  59.294  51.231  58.690
O  33.548  46.777  43.633
O  39.659  72.374  53.940
O  59.207  60.993  29.047
O  37.008  46.736  44.303
O  27.210  44.915  40.162
O  53.192  61.572  27.840
O  30.160  50.975  34.524
O  60.909  67.098  67.833
O  50.580  46.217  65.016
O  48.185  65.582  49.733
O  37.205  34.002  50.022
O  48.723  61.078  40.356
O  59.878  66.912  54.031
O  50.118  37.717  31.113
O  34.715  43.491  26.406
O  54.545  65.380  49.164
O  29.781  43.309  53.897
O  39.834  55.328  46.991
O  26.565  39.480  61.241
O  50.526  21.845  51.272
O  46.719  72.536  55.898
O  36.757  48.855  30.077
O  53.349  65.643  36.061
O  51.380  53.206  23.962
O  50.450  60.463  41.983
O  49.429  23.459  53.394
O  58.721  58.317  25.544
O  43.274  49.346  66.010
O  33.571  60.472  32.065
O  41.243  25.537  53.974
O  66.140  43.802  53.398
O  25.241  53.742  62.868
O  73.650  44.463  53.985
O  51.574  51.153  22.552
O  55.723  41.840  36.029
O  61.694  59.243  29.052
O  60.264  31.615  47.188
O  66.164  30.998  42.140
O  41.465  50.784  30.986
O  61.224  67.401  63.609
O  25.907  42.907  64.135
O  32.254  53.515  45.469
O  36.526  54.043  73.940
O  33.895  62.403  48.551
O  57.266  30.748  33.858
O  45.694  27.633  55.380
O  32.903  48.551  33.609
O  39.501  27.725  48.116
O  39.640  39.576  56.348
O  57.768  51.798  33.928
O  32.050  65.561  43.145
O  42.458  57.269  53.963
O  67.857  40.342  36.176
O  64.999  55.127  54.170
O  29.983  43.413  31.089
O  62.268  49.560  69.406
O  50.403  59.846  32.747
O  45.521  29.325  37.697
O  50.363  40.468  38.283
O  61.826  62.956  59.730
O  52.378  67.520  35.425
O  34.090  32.312  35.869
O  47.823  59.757  44.750
O  66.688  44.048  59.049
O  29.255  55.539  42.532
O  74.299  42.512  49.231
O  47.316  35.252  55.793
O  59.147  49.572  52.362
O  56.736  71.876  56.756
O  29.561  52.174  65.614
O  31.879  55.375  48.019
O  41.645  65.357  60.377
O  31.749  47.537  40.849
O  59.735  44.460  49.947
O  35.516  72.018  57.872
O  61.932  50.662  59.556
O  39.261  63.363  48.649
O  65.240  50.362  26.166
O  55.002  31.796  55.372
O  58.688  50.203  26.442
O  42.700  66.810  51.560
O  74.787  41.464  51.604
O  31.358  39.252  36.585
O  39.394  58.119  42.329
O  72.950  56.414  62.771
O  69.345  41.933  58.581
O  32.508  60.595  30.112
O  34.737  41.613  60.558
O  42.547  54.312  57.931
O  57.527  39.392  44.856
O  72.411  52.339  63.983
O  43.801  59.878  48.480
O  46.858  63.734  30.549
O  69.070  44.581  57.195
O  35.795  40.644  50.880
O  39.899  60.189  68.296
O  59.521  47.544  70.035
O  31.487  44.811  29.285
O  38.904  37.534  26.455
O  42.360  74.430  51.431
O  52.739  68.798  43.274
O  29.147  42.049  40.598
O  36.158  68.140  47.875
O  55.800  70.436  43.067
O  70.928  59.159  53.705
O  51.575  36.828  28.335
O  59.514  53.361  75.420
O  25.847  57.847  47.837
O  33.429  56.825  48.595
O  36.800  31.274  41.013
O  31.974  67.306  45.976
O  42.983  62.232  36.705
O  24.341  60.734  42.301
O  57.996  62.756  72.800
O  59.315  59.568  71.552
O  55.916  56.593  25.711
O  42.509  44.712  31.816
O  58.319  68.869  61.621
O  39.855  33.055  48.811
O  57.782  65.822  55.598
O  65.951  61.950  43.321
O  69.742  33.516  53.337
O  32.823  52.029  52.370
O  44.804  60.501  60.742
O  65.915  35.229  38.306
O  45.669  62.484  44.645
O  29.856  46.113  56.703
O  67.719  68.723  45.768
O  56.806  65.979  70.410
O  44.145  66.322  55.699
O  58.929  40.688  62.381
O  53.795  28.205  57.145
O  47.298  56.666  66.583
O  63.065  48.889  72.287
O  77.402  45.196  48.195
O  67.902  36.888  68.453
O  56.513  29.937  53.846
O  36.863  27.526  57.835
O  38.092  51.296  27.954
O  64.751  70.124  53.396
O  70.193  47.655  29.788
O  59.475  44.985  61.593
O  54.953  32.002  51.887
O  51.219  52.430  70.538
O  58.569  52.523  28.233
O  50.034  26.616  50.135
O  57.278  73.401  62.757
O  63.319  59.946  67.882
O  60.705  26.403  60.437
O  60.022  23.897  45.340
O  50.250  37.275  38.303
O  49.028  39.220  42.219
O  69.271  43.885  67.427
O  45.392  75.422  45.818
O  54.640  43.574  28.561
O  62.787  52.349  46.174
O  34.384  57.658  42.083
O  38.688  48.380  45.352
O  36.524  26.872  49.286
O  39.724  51.060  46.718
O  30.114  49.385  53.351
O  51.808  28.999  46.820
O  27.409  57.141  42.660
O  41.971  55.703  32.339
O  62.184  60.764  71.620
O  61.402  58.089  26.958
O  38.091  53.985  32.814
O  57.659  64.519  48.088
O  32.193  34.817  40.454
O  59.054  65.661  65.039
O  68.857  42.968  45.345
O  48.924  50.386  40.746
O  67.461  64.799  62.139
O  49.004  75.830  43.481
O  70.551  50.080  31.041
O  54.899  66.253  56.186
O  41.830  65.049  38.855
O  62.508  37.306  37.731
O  46.791  61.459  46.866
O  36.647  56.414  65.243
O  65.671  61.294  58.902
O  35.318  54.462  35.570
O  55.974  50.296  69.876
O  47.926  61.005  61.121
O  54.162  71.746  44.896
O  40.644  44.475  37.494
O  42.543  66.263  68.848
O  41.526  35.030  30.015
O  65.584  36.578  46.605
O  65.216  34.181  61.503
O  32.252  49.193  47.517
O  75.722  43.930  41.154
O  61.228  59.219  53.159
O  34.806  44.777  73.891
O  67.277  61.685  54.283
O  49.436  65.964  51.511
O  70.173  46.186  45.534
O  35.206  61.710  44.431
O  54.103  44.890  60.293
O  25.214  40.246  50.134
O  50.096  62.503  52.401
O  37.448  52.083  65.074
O  49.133  66.643  45.444
O  37.250  27.481  60.692
O  49.815  36.065  55.292
O  60.551  33.734  49.626
O  42.549  75.651  53.252
O  62.906  39.422  43.925
O  35.692  41.760  34.177
O  34.114  35.713  46.515
O  36.910  40.031  58.631
O  41.770  39.637  69.633
O  36.800  43.442  66.413
O  47.068  55.584  75.391
O  39.114  25.438  59.867
O  59.658  68.709  55.633
O  38.212  46.403  67.420
O  51.441  73.722  65.643
O  56.347  56.773  69.443
O  36.817  37.380  51.675
O  54.477  39.430  31.777
O  65.263  69.121  61.854
O  59.491  41.082  51.615
O  51.196  35.963  47.241
O  60.829  28.336  57.964
O  54.567  68.535  53.180
O  55.651  41.602  42.900
O  66.099  67.001  66.451
O  36.922  62.850  34.472
O  66.572  35.879  42.058
O  54.745  47.562  72.214
O  50.233  42.399  59.323
O  33.615  62.512  33.947
O  72.837  46.478  52.500
O  51.385  60.879  53.472
O  60.875  56.202  50.356
O  29.547  31.100  45.338
O  62.671  68.238  35.244
O  31.308  41.030  53.868
O  46.156  39.886  71.998
O  64.024  32.977  44.916
O  37.155  38.970  40.989
O  33.878  56.475  59.720
O  61.419  67.367  51.856
O  73.702  51.787  42.779
O  64.897  49.875  54.136
O  27.815  49.028  59.144
O  56.584  37.734  36.100
O  31.977  42.934  66.207
O  34.706  64.629  41.292
O  29.915  38.172  61.749
O  51.061  31.956  54.321
O  54.146  46.555  63.835
O  66.843  29.960  45.926
O  46.756  45.280  28.776
O  31.547  56.696  55.170
O  49.298  56.784  75.844
O  38.696  30.883  43.229
O  55.562  72.896  65.901
O  51.588  39.224  68.646
O  31.269  44.941  32.984
O  47.457  65.997  56.091
O  43.743  50.273  77.163
O  67.535  49.778  57.797
O  56.201  37.356  33.457
O  35.142  40.518  27.148
O  57.535  36.731  73.386
O  62.870  59.150  73.204
O  59.342  70.725  66.173
O  50.470  40.888  56.059
O  57.742  36.640  38.365
O  62.426  43.614  45.743
O  71.678  50.996  32.939
O  44.504  70.149  44.291
O  59.769  50.395  70.355
O  64.431  37.393  30.032
O  71.625  62.154  42.162
O  60.787  51.273  31.003
O  50.941  78.844  49.760
O  69.161  52.654  63.008
O  34.328  58.476  71.525
O  36.780  56.490  71.425
O  74.228  38.590  56.528
O  47.059  58.370  29.734
O  71.635  51.422  65.960
O  60.733  58.500  38.045
O  42.424  48.020  61.262
O  46.576  56.266  38.022
O  46.216  56.588  52.637
O  60.537  63.447  55.094
O  52.247  72.371  38.984
O  49.874  57.374  30.519
O  63.943  37.252  50.030
O  34.465  56.317  67.248
O  21.453  51.186  50.793
O  49.397  39.750  27.915
O  45.743  68.597  37.768
O  63.979  46.591  31.346
O  61.029  38.180  50.048
O  71.719  61.327  50.700
O  61.378  51.590  68.789
O  51.147  34.915  30.093
O  63.522  44.213  54.656
O  48.456  35.872  42.962
O  48.387  53.642  30.030
O  59.743  73.301  51.058
O  49.414  73.680  39.114
O  28.487  47.652  53.572
O  70.973  55.472  36.151
O  55.729  60.392  59.571
O  63.755  33.909  52.547
O  22.778  56.337  48.497
O  62.591  35.002  50.500
O  64.067  41.072  56.855
O  34.394  51.205  31.691
O  40.726  66.261  71.970
O  40.657  31.601  38.058
O  56.870  35.399  44.550
O  71.488  52.678  41.931
O  33.453  54.701  51.781
O  51.724  53.542  64.725
O  43.247  60.061  70.726
O  60.727  45.296  32.895
O  70.108  53.360  39.458
O  37.778  52.699  61.682
O  67.157  36.481  56.673
O  57.069  50.944  47.434
O  31.427  60.912  59.062
O  51.599  39.451  40.276
O  28.664  61.178  56.943
O  55.405  31.812  29.065
O  36.026  71.251  53.232
O  70.575  57.224  38.166
O  38.220  29.507  49.033
O  29.459  67.221  47.295
O  31.211  56.956  35.773
O  55.878  26.111  34.999
O  37.560  35.072  53.085
O  74.320  57.188  47.452
O  33.170  38.938  66.147
O  25.706  51.594  60.107
O  31.457  32.241  62.707
O  42.154  71.945  60.486
O  56.780  69.591  40.979
O  40.217  74.827  57.991
O  55.162  34.673  29.893
O  56.020  70.466  65.296
O  61.670  60.589  49.077
O  42.588  50.596  60.018
O  26.827  38.754  48.106
O  36.542  34.821  41.955
O  48.445  33.465  39.636
O  52.391  73.404  45.204
O  63.951  44.895  67.329
O  53.870  53.660  68.672
O  67.307  52.029  56.754
O  50.654  50.674  67.209
O  64.268  53.989  62.977
O  59.578  73.123  56.951
O  49.581  27.309  55.104
O  68.790  66.910  61.533
O  67.530  55.478  44.629
O  44.880  26.431  50.601
O  74.985  54.128  52.411
O  33.645  39.909  52.160
O  67.360  55.888  52.610
O  60.838  65.916  69.691
O  36.040  57.475  57.670
O  43.681  50.692  23.486
O  52.181  38.422  42.594
O  33.386  46.348  50.318
O  54.553  45.898  25.157
O  59.052  40.635  45.899
O  63.183  34.260  59.274
O  31.973  67.659  42.066
O  61.117  37.571  41.945
O  69.302  68.926  56.655
O  25.959  43.248  47.027
O  43.288  60.914  51.700
O  29.931  55.761  44.616
O  69.825  43.099  38.317
O  54.912  63.025  55.920
O  35.803  57.681  53.654
O  54.054  28.790  31.820
O  65.069  66.505  49.189
O  64.053  41.016  60.357
O  52.012  41.385  68.688
O  50.889  33.830  72.315
O  60.061  23.932  48.445
O  32.331  50.555  27.192
O  57.282  42.240  61.230
O  52.780  57.819  67.129
O  62.966  35.992  41.161
O  53.481  67.473  57.748
O  66.814  46.949  52.976
O  60.505  43.448  55.930
O  36.678  46.875  40.602
O  38.784  44.157  50.705
O  46.392  62.363  52.051
O  42.179  38.164  73.692
O  43.318  58.978  68.133
O  53.677  64.195  67.324
O  29.647  42.765  50.736
O  41.199  31.681  43.378
O  69.466  49.221  48.582
O  67.820  55.291  60.460
O  71.850  55.050  56.796
O  40.219  71.619  35.461
O  67.848  60.506  61.688
O  50.982  37.216  62.935
O  44.863  22.647  50.426
O  63.267  47.106  33.720
O  55.779  60.703  52.103
O  70.231  31.588  56.036
O  42.018  63.872  45.280
O  38.103  30.039  55.727
O  35.931  26.726  42.591
O  58.670  28.235  55.142
O  25.713  41.786  60.598
O  32.256  46.710  56.603
O  49.581  59.632  54.869
O  43.351  53.627  60.992
O  48.247  55.485  32.451
O  63.355  58.652  38.526
O  60.777  65.268  60.860
O  53.087  40.794  50.971
O  70.478  65.422  59.228
O  71.186  53.533  67.989
O  49.944  52.038  65.237
O  24.083  55.899  43.304
O  55.782  32.223  65.020
O  35.473  47.645  62.085
O  36.405  46.299  37.519
O  58.175  43.390  27.245
O  40.034  33.806  65.611
O  46.985  74.753  59.777
O  53.977  28.683  59.902
O  42.727  71.353  65.521
O  43.859  36.695  49.147
O  35.244  44.440  37.319
O  44.389  40.113  42.537
O  36.313  55.225  62.820
O  39.124  61.219  37.284
O  58.535  63.213  32.341
O  45.453  62.692  38.486
O  26.055  42.137  41.776
O  57.848  68.567  65.353
O  59.399  49.094  44.669
O  44.636  45.743  30.719
O  56.971  65.614  66.749
O  51.126  56.387  77.589
O  34.184  48.452  59.501
O  58.991  62.781  56.522
O  44.026  34.047  50.120
O  64.113  56.623  64.676
O  62.882  52.385  57.515
O  76.699  39.838  51.279
O  66.119  29.495  53.873
O  50.964  58.471  40.090
O  45.332  62.126  71.237
O  44.582  51.930  66.294
O  35.825  45.508  61.706
O  42.721  45.412  66.232
O  50.619  24.336  39.673
O  32.414  33.011  39.220
O  40.527  28.843  66.644
O  68.805  38.811  66.129
O  66.986  42.563  49.955
O  39.264  72.287  46.072
O  49.969  54.723  33.618
O  44.369  38.201  36.674
O  32.081  47.191  54.461
O  34.074  64.267  46.582
O  55.442  37.586  73.440
O  60.062  44.345  41.674
O  56.551  62.570  64.886
O  60.977  37.685  58.770
O  69.275  66.517  41.447
O  35.934  45.985  42.469
O  43.783  41.766  57.340
O  41.874  43.285  74.889
O  43.966  42.991  35.457
O  65.570  48.977  59.756
O  72.318  38.561  47.268
O  31.898  50.660  64.627
O  35.905  36.968  66.666
O  60.085  65.541  47.945
O  67.853  48.054  64.624
O  40.580  66.220  48.573
O  45.616  58.072  22.814
O  42.331  51.399  63.601
O  67.957  29.996  50.551
O  38.841  33.212  60.586
O  69.296  36.144  35.877
O  31.602  42.544  45.783
O  43.704  34.017  44.311
O  63.121  72.389  47.352
O  39.046  75.707  55.203
O  45.791  57.047  72.962
O  47.172  40.967  68.310
O  35.240  43.816  64.776
O  75.769  51.269  43.950
O  41.565  31.817  54.306
O  35.956  53.697  65.118
O  39.199  39.015  43.964
O  46.178  62.324  32.096
O  40.433  75.629  51.747
O  51.960  57.512  23.057
O  44.901  48.673  62.946
O  66.681  69.218  37.259
O  65.820  31.950  38.353
O  69.190  46.171  62.472
O  47.555  76.079  57.710
O  65.077  35.392  65.902
O  44.576  64.489  65.446
O  52.149  60.996  55.772
O  36.625  68.739  52.341
O  56.982  41.707  39.823
O  53.641  33.982  72.375
O  66.635  59.354  41.847
O  64.193  63.194  52.568
O  28.566  60.137  43.225
O  53.628  73.720  48.648
O  42.532  51.140  70.219
O  58.090  35.819  32.365
O  54.967  41.777  33.958
O  71.274  63.123  47.551
O  68.628  50.902  61.299
O  47.960  41.069  32.132
O  22.627  41.651  50.167
O  56.375  46.639  69.781
O  41.727  60.218  65.820
O  36.399  47.621  52.922
O  75.344  40.312  46.613
O  59.414  68.975  68.099
O  34.587  38.378  54.556
O  39.563  62.225  31.070
O  60.473  36.334  47.206
O  59.135  57.985  54.928
O  38.207  46.359  70.377
O  39.352  44.169  24.830
O  35.470  37.490  31.572
O  30.054  65.574  59.418
O  51.480  32.473  41.063
O  59.668  41.292  39.142
O  35.681  68.425  39.150
O  55.794  25.778  50.403
O  65.474  34.816  58.020
O  41.643  43.515  61.298
O  64.232  40.062  62.331
O  42.253  57.387  25.260
O  63.686  62.219  31.398
O  47.559  41.166  41.228
O  34.058  37.958  34.719
O  54.500  64.222  51.801
O  39.372  47.593  53.489
O  46.725  33.153  29.228
O  48.891  40.778  69.726
O  45.906  73.678  35.492
O  33.308  41.152  41.522
O  40.502  58.425  30.405
O  35.981  47.245  25.677
O  39.298  50.135  64.821
O  24.667  54.222  59.785
O  65.593  68.660  46.358
O  37.603  44.812  75.428
O  57.482  43.742  42.228
O  57.171  27.537  63.006
O  60.142  29.779  62.808
O  55.016  54.740  74.581
O  66.957  52.591  60.533
O  26.832  46.396  62.360
O  55.715  59.118  75.927
O  49.702  57.878  23.027
O  38.772  59.287  62.177
O  54.320  47.556  22.265
O  34.821  68.652  36.560
O  23.410  55.128  53.207
O  56.402  51.536  63.405
O  32.843  62.110  56.765
O  54.911  71.083  38.685
O  43.316  64.901  49.420
O  38.283  51.259  74.688
O  62.008  47.645  59.223
O  53.238  39.604  64.257
O  48.548  71.202  59.898
O  28.001  55.325  50.766
O  45.306  56.670  62.387
O  68.683  34.041  48.925
O  35.843  64.144  45.280
O  62.539  54.401  30.282
O  43.067  37.444  28.310
O  40.594  75.020  44.730
O  47.052  57.775  61.629
O  44.160  44.060  38.098
O  34.491  30.770  46.735
O  45.389  47.891  56.965
O  37.791  47.788  64.487
O  36.849  64.130  38.330
O  42.512  64.701  36.490
O  60.548  62.869  33.163
O  50.461  40.554  64.247
O  29.895  70.243  51.165
O  41.030  51.908  71.811
O  65.031  52.972  27.961
O  66.274  30.527  58.281
O  33.708  43.194  58.924
O  68.370  46.646  41.621
O  68.861  31.524  60.829
O  26.374  53.253  41.419
O  27.758  47.873  57.275
O  32.659  27.394  46.023
O  59.797  40.005  31.602
O  64.688  38.506  65.185
O  54.379  42.676  54.149
O  31.681  64.007  47.357
O  57.623  74.740  46.430
O  64.380  67.730  37.299
O  60.641  28.082  39.535
O  51.824  37.156  49.573
O  58.954  55.719  71.991
O  31.612  63.976  40.661
O  43.337  37.651  56.205
O  29.415  64.564  38.189
O  60.014  61.846  50.729
O  56.982  56.852  31.554
O  56.097  28.534  65.701
O  29.251  61.711  40.820
O  44.160  58.405  59.330
O  40.537  40.052  74.665
O  38.350  61.942  61.796
O  75.243  50.565  51.292
O  43.206  30.560  46.823
O  64.471  31.977  40.092
O  37.420  62.980  54.343
O  43.138  32.651  34.920
O  41.915  55.924  36.920
O  42.291  57.220  66.609
O  48.520  64.216  44.431
O  39.990  39.534  51.904
O  72.630  42.195  44.045
O  40.673  37.651  44.885
O  33.023  29.487  44.649
O  42.652  54.309  27.015
O  48.912  72.100  44.547
O  26.362  55.899  44.144
O  42.857  41.054  38.169
O  30.109  48.309  36.131
O  34.192  44.376  67.594
O  64.364  61.958  70.047
O  67.714  67.655  42.698
O  50.409  44.516  61.860
O  61.991  41.178  50.570
O  56.906  48.665  42.027
O  57.692  43.331  24.311
O  46.728  32.307  32.048
O  55.011  57.899  22.699
O  33.060  37.526  31.225
O  74.787  49.243  53.663
O  34.303  62.494  41.642
O  62.176  42.232  29.016
O  41.016  40.539  71.490
O  66.284  29.119  61.082
O  38.248  67.756  61.842
O  59.051  56.579  63.042
O  53.237  47.776  37.279
O  38.927  54.710  24.712
O  60.088  50.102  73.471
O  55.129  36.910  43.964
O  63.152  31.415  34.885
O  35.879  57.619  36.810
O  53.335  59.822  59.477
O  65.331  49.893  29.792
O  59.223  46.933  46.829
O  53.887  51.634  67.558
O  58.683  30.544  58.511
O  67.303  47.911  62.304
O  70.148  55.109  49.272
O  63.967  57.638  61.957
O  39.361  30.466  53.336
O  50.480  34.180  45.073
O  68.392  41.272  55.898
O  32.129  64.169  59.621
O  44.357  38.187  51.577
O  58.972  44.967  38.960
O  54.254  72.370  50.268
O  38.278  56.390  34.887
O  57.120  58.002  29.495
O  30.816  47.124  43.877
O  42.196  50.038  26.320
O  51.524  32.665  64.318
O  57.059  61.949  36.604
O  32.022  63.804  38.500
O  44.199  47.277  77.289
O  33.204  55.026  41.103
O  41.940  30.858  40.636
O  60.249  38.508  63.968
O  24.395  45.467  51.435
O  34.368  33.378  45.237
O  40.082  27.223  36.893
O  56.461  40.540  54.051
O  72.804  63.531  50.301
O  61.308  48.560  54.575
O  54.612  33.240  33.528
O  32.668  41.843  39.067
O  76.358  53.895  56.060
O  52.648  62.020  61.581
O  36.772  61.670  37.716
O  34.353  42.370  49.495
O  31.130  55.868  33.737
O  52.723  54.884  75.119
O  59.661  62.547  61.160
O  65.785  33.664  33.610
O  28.740  68.696  48.934
O  63.951  57.903  46.767
O  60.257  52.488  65.709
O  49.502  35.804  24.964
O  39.744  33.042  36.293
O  62.932  65.063  51.091
O  47.150  59.032  58.231
O  73.252  44.143  46.298
O  44.294  43.052  29.815
O  35.399  33.823  37.601
O  60.145  38.919  37.668
O  49.151  47.639  66.853
O  34.092  44.254  44.320
O  26.658  61.408  43.162
O  51.131  41.219  32.423
O  48.689  62.270  64.540
O  45.084  44.180  65.307
O  24.040  44.465  57.303
O  60.518  37.566  29.042
O  63.531  43.320  52.289
O  55.207  36.551  65.795
O  72.953  61.649  53.310
O  33.341  39.729  62.026
O  48.235  71.452  38.647
O  32.374  37.163  51.355
O  34.096  66.866  37.684
O  51.260  74.535  48.122
O  51.350  55.173  22.684
O  26.630  45.558  65.002
O  40.227  57.338  34.477
O  58.427  26.082  47.382
O  45.549  38.002  39.053
O  36.116  32.709  54.784
O  44.487  28.948  33.124
O  49.349  33.687  65.750
O  39.839  44.713  60.639
O  26.647  49.718  47.157
O  50.827  43.883  30.833
O  59.257  71.748  44.168
O  58.843  39.409  28.540
O  47.869  57.755  41.356
O  66.915  40.920  53.767
O  53.405  46.384  31.076
O  35.277  59.994  30.358
O  50.168  59.763  45.276
O  62.057  48.702  30.499
O  23.481  43.197  47.543
O  68.556  48.274  43.101
O  31.815  57.263  45.075
O  68.973  30.499  53.348
O  59.800  52.798  25.368
O  73.251  53.982  43.039
O  53.390  32.551  66.205
O  40.293  57.193  52.427
O  63.251  35.457  62.214
O  68.284  54.102  67.920
O  39.605  58.243  60.413
O  47.057  65.904  68.424
O  58.310  55.312  26.587
O  67.241  56.179  63.668
O  34.367  47.331  70.925
O  26.284  47.246  41.590
O  31.158  37.572  45.994
O  40.300  36.050  40.700
O  64.807  59.715  55.941
O  39.682  63.674  72.594
O  52.194  29.312  37.925
O  55.730  44.345  65.835
O  52.154  68.613  63.906
O  72.137  46.081  33.254
O  33.464  31.615  55.099
O  56.747  40.431  57.061
O  56.685  35.957  49.083
O  61.686  69.979  63.938
O  62.059  55.315  65.918
O  34.687  59.579  60.557
O  38.410  35.733  29.344
O  33.377  48.493  26.461
O  35.259  30.555  38.107
O  60.416  33.930  38.209
O  60.895  35.423  60.618
O  73.400  37.316  49.901
O  41.462  60.503  49.131
O  44.903  46.984  25.397
O  58.715  31.094  30.035
O  55.965  34.980  26.510
O  54.134  23.479  57.417
O  65.031  69.513  64.007
O  43.485  63.394  56.677
O  53.981  39.841  56.110
O  65.078  46.072  59.477
O  44.636  25.056  56.700
O  35.641  60.734  40.835
O  65.461  65.494  37.627
O  22.320  55.094  50.577
O  28.158  36.581  61.319
O  66.727  55.814  66.239
O  65.261  61.031  30.054
O  60.918  28.971  65.293
O  59.065  53.587  33.812
O  65.478  33.409  63.918
O  29.118  46.178  59.329
O  29.347  42.171  45.413
O  54.183  62.051  70.321
O  44.429  56.073  26.017
O  49.299  37.749  52.394
O  40.328  58.319  65.298
O  47.795  28.967  36.092
O  27.453  65.675  43.042
O  44.171  35.509  60.377
O  42.041  49.464  28.779
O  58.902  49.145  28.359
O  72.649  63.494  60.053
O  52.681  27.030  38.275
O  47.662  68.301  55.971
O  48.900  62.315  31.863
O  49.573  23.219  44.030
O  68.523  55.167  58.358
O  33.687  53.546  30.518
O  58.777  43.403  65.603
O  59.342  57.664  49.762
O  67.002  54.671  50.022
O  56.806  42.436  65.682
O  54.237  59.335  38.115
O  61.481  62.579  66.845
O  27.074  40.563  39.312
O  43.851  58.259  29.088
O  45.985  42.402  42.479
O  50.248  60.150  67.523
O  64.221  38.518  40.790
O  41.846  41.941  31.692
O  58.400  34.241  47.166
O  40.987  73.689  47.570
O  69.162  67.138  54.708
O  41.856  27.655  60.228
O  34.412  62.958  30.545
O  44.366  32.637  42.188
O  36.973  43.195  62.621
O  43.991  33.441  61.356
O  29.341  50.501  63.325
O  58.309  42.437  58.624
O  42.880  56.545  56.125
O  76.421  51.178  53.860
O  63.169  46.440  57.641
O  76.358  46.786  39.045
O  47.968  41.509  59.920
O  67.902  52.872  64.805
O  50.197  49.745  63.746
O  29.457  54.438  36.791
O  53.542  54.461  26.093
O  38.169  64.465  40.819
O  59.951  56.297  35.449
O  64.435  39.502  50.039
O  53.706  55.812  28.714
O  53.501  41.307  42.520
O  32.960  47.145  64.291
O  61.510  56.232  56.192
O  49.470  22.739  57.725
O  38.714  68.244  49.258
O  30.135  65.473  56.644
O  37.520  35.164  45.707
O  34.695  40.461  31.599
O  58.264  59.554  45.095
O  59.092  34.199  59.255
O  66.349  33.769  46.959
O  57.402  73.198  40.103
O  40.535  57.907  37.278
O  65.235  70.630  41.030
O  69.784  35.492  51.381
O  52.827  32.964  57.245
O  32.349  54.560  38.524
O  27.349  60.726  52.297
O  65.088  45.870  34.132
O  41.098  59.129  57.180
O  25.869  36.788  45.838
O  45.646  66.102  46.816
O  31.792  59.233  68.141
O  65.903  43.125  57.056
O  29.409  64.522  61.444
O  51.857  36.584  25.087
O  39.651  55.792  66.746
O  69.305  52.469  30.530
O  69.555  68.937  50.703
O  36.032  56.502  49.186
O  63.897  50.046  47.790
O  66.700  32.576  50.147
O  43.497  40.364  66.479
O  24.665  52.096  48.669
O  40.196  51.677  39.231
O  71.021  36.693  56.206
O  57.952  31.834  54.264
O  47.780  58.377  55.011
O  61.336  54.159  55.474
O  42.353  36.063  66.932
O  35.826  54.847  38.167
O  62.542  46.234  75.718
O  61.444  47.632  73.521
O  57.548  52.303  44.476
O  33.071  56.098  65.026
O  62.869  34.550  68.120
O  48.415  31.171  65.467
O  51.532  69.267  56.597
O  74.426  43.695  39.391
O  27.725  46.583  48.447
O  66.554  56.940  69.479
O  31.392  56.378  39.587
O  33.097  33.851  52.257
O  38.010  56.638  51.620
O  66.581  36.905  53.668
O  38.483  38.741  32.313
O  63.009  38.757  59.777
O  40.838  40.131  41.614
O  35.494  46.774  64.889
O  76.504  56.359  40.716
O  61.483  38.114  30.980
O  52.245  51.887  61.515
O  64.283  66.522  62.313
O  28.584  45.546  34.732
O  61.051  62.737  39.649
O  72.380  61.594  39.215
O  40.324  42.635  36.016
O  60.357  65.634  33.812
O  51.350  75.601  51.898
O  36.959  55.005  57.413
O  52.153  70.067  46.052
O  60.761  57.636  74.462
O  35.041  64.222  34.011
O  51.207  52.913  38.078
O  33.894  43.538  40.384
O  35.314  65.152  59.461
O  51.928  47.178  70.185
O  37.860  65.411  53.471
O  39.999  54.215  73.409
O  31.949  61.294  48.233
O  46.604  71.790  52.932
O  64.779  53.145  50.193
O  53.432  41.067  61.428
O  54.735  36.665  40.538
O  25.714  49.599  55.099
O  33.560  58.405  51.130
O  29.750  66.513  51.072
O  38.552  36.003  47.437
O  61.120  72.239  45.505
O  65.480  57.043  37.414
O  27.974  52.504  62.194
O  64.844  28.325  42.499
O  61.715  25.453  43.315
O  69.016  64.218  45.603
O  38.604  51.744  41.346
O  51.711  31.118  44.052
O  22.985  51.131  41.585
O  47.945  32.418  44.203
O  54.616  60.248  35.118
O  72.188  65.307  47.107
O  66.095  62.975  38.981
O  67.749  62.380  60.540
O  51.116  50.463  33.315
O  41.240  62.051  28.177
O  60.193  56.514  24.130
O  59.234  28.691  48.974
O  46.702  68.890  70.750
O  52.438  69.578  54.231
O  69.046  35.921  46.022
O  70.507  57.390  55.906
O  57.603  48.380  59.050
O  51.250  56.499  26.035
O  38.568  53.967  50.198
O  27.125  44.516  37.501
O  63.218  39.463  67.738
O  67.153  39.170  51.721
O  74.328  51.162  38.153
O  48.397  65.069  39.805
O  57.823  72.214  52.872
O  56.504  64.575  30.294
O  36.886  65.070  47.437
O  54.767  42.662  30.575
O  39.761  69.231  57.438
O  29.623  38.276  66.726
O  54.178  49.153  69.305
O  76.150  42.245  55.385
O  48.498  54.113  21.474
O  41.344  52.150  24.261
O  67.928  44.615  47.791
O  49.416  51.428  30.997
O  52.165  58.072  35.945
O  48.334  69.772  54.208
O  71.943  43.874  48.046
O  38.638  48.827  37.901
O  36.566  48.865  45.684
O  23.585  49.717  51.698
O  62.334  70.071  60.867
O  53.484  27.803  66.732
O  32.201  45.414  66.590
O  45.759  60.767  25.944
O  52.399  54.986  31.057
O  50.833  68.972  30.936
O  52.072  42.394  57.726
O  38.251  41.413  37.661
O  41.784  54.903  23.623
O  61.369  48.486  42.344
O  48.328  69.737  43.505
O  44.112  57.961  52.243
O  59.425  57.438  41.472
O  37.459  63.726  63.168
O  54.925  60.006  67.785
O  65.514  48.418  35.600
O  41.988  74.705  42.660
O  35.002  50.370  53.825
O  26.988  49.417  61.918
O  57.741  58.740  36.330
O  49.677  47.318  35.392
O  61.590  60.384  58.908
O  72.746  39.699  40.290
O  46.199  26.648  37.132
O  67.189  45.932  71.068
O  39.495  59.998  27.260
O  47.634  38.818  73.778
O  64.402  61.363  50.707
O  33.740  53.775  62.964
O  40.349  33.304  41.177
O  72.258  39.458  51.406
O  45.506  59.699  32.804
O  48.257  27.486  58.081
O  56.881  44.175  67.708
O  65.797  38.013  67.021
O  48.706  59.716  30.628
O  57.776  62.291  50.856
O  39.528  47.063  40.557
O  51.875  28.909  52.896
O  69.945  53.596  43.675
O  62.748  38.229  57.524
O  49.989  55.990  41.873
O  61.204  28.415  35.965
O  56.144  35.509  52.173
O  50.844  62.099  37.121
O  61.668  51.737  35.816
O  45.496  40.102  58.895
O  34.865  50.637  46.801
O  39.485  34.394  34.115
O  39.239  49.041  51.133
O  54.662  56.543  64.089
O  57.288  67.433  57.747
O  51.853  26.252  55.552
O  64.667  68.385  43.334
O  32.397  53.663  28.188
O  62.695  41.199  68.982
O  68.608  48.549  53.638
O  45.271  60.546  42.993
O  67.362  65.095  43.669
O  70.372  42.151  35.518
O  47.945  31.018  63.198
O  55.544  47.004  66.219
O  23.287  46.834  48.818
O  34.204  69.500  60.717
O  68.570  43.342  51.808
O  41.111  30.817  34.847
O  63.496  63.416  65.077
O  52.511  51.435  24.703
O  60.942  45.956  29.562
O  58.739  38.574  54.443
O  37.723  55.759  74.620
O  52.317  76.433  49.131
O  64.287  33.038  66.929
O  66.173  26.413  46.132
O  61.065  47.323  62.157
O  32.718  71.191  58.814
O  42.281  26.555  37.613
O  39.539  65.561  66.666
O  54.503  48.568  61.921
O  71.505  31.613  53.708
O  45.524  62.925  28.119
O  41.280  38.824  37.499
O  27.874  33.464  47.384
O  51.084  62.025  46.917
O  35.294  34.979  60.513
O  52.347  55.403  73.000
O  32.846  50.038  56.493
O  69.876  40.911  44.022
O  31.234  43.464  43.251
O  65.009  47.781  61.968
O  51.472  40.468  59.169
O  43.707  32.264  28.121
O  35.683  51.386  26.597
O  35.254  60.288  36.134
O  70.076  67.526  58.252
O  49.054  74.551  35.064
O  45.250  38.928  69.783
O  28.559  39.590  60.319
O  70.387  56.056  67.936
O  67.536  33.841  41.727
O  31.980  42.344  64.056
O  52.492  64.562  57.905
O  41.008  43.753  65.090
O  60.328  50.152  63.318
O  49.291  43.846  24.583
O  41.037  47.328  30.485
O  43.201  34.415  36.909
O  56.145  35.469  68.343
O  70.629  47.112  60.062
O  63.034  70.060  51.110
O  46.897  71.322  34.432
O  52.916  55.211  65.598
O  75.061  62.007  52.346
O  39.748  54.056  36.206
O  42.262  60.957  56.794
O  45.601  66.564  49.948
O  59.691  61.441  58.761
O  51.132  54.952  35.903
O  48.427  64.650  73.258
O  29.216  37.649  35.109
O  72.137  58.897  57.441
O  37.159  30.547  46.724
O  46.598  60.076  71.351
O  54.666  67.197  63.153
O  44.329  29.101  35.832
O  56.860  30.496  57.245
O  58.318  47.048  25.715
O  32.416  70.089  49.615
O  70.897  61.178  34.591
O  29.438  51.371  32.483
O  36.516  44.034  34.174
O  49.978  42.608  26.311
O  29.986  41.428  58.399
O  39.064  29.864  40.771
O  36.904  54.586  41.793
O  41.733  31.719  49.000
O  30.351  31.204  49.225
O  40.983  49.070  48.041
O  50.022  54.357  61.744
O  63.250  33.610  42.054
O  45.913  75.626  50.034
O  53.994  56.471  77.582
O  43.846  53.612  67.873
O  52.982  73.850  58.814
O  63.765  54.904  56.180
O  44.581  47.833  40.163
O  62.089  69.299  55.230
O  31.361  60.244  34.288
O  68.107  32.652  39.275
O  29.245  42.663  67.894
O  38.094  50.989  49.754
O  50.361  62.177  28.747
O  56.956  30.530  51.335
O  63.753  63.686  33.301
O  37.816  35.908  32.996
O  31.257  44.358  51.092
O  48.183  38.292  34.342
O  68.528  33.361  62.826
O  59.849  56.469  30.648
O  66.965  32.370  52.918
O  48.646  40.269  30.200
O  26.554  55.236  47.178
O  54.310  68.004  40.168
O  23.282  58.677  55.427
O  74.753  53.486  46.525
O  58.887  27.167  58.899
O  42.977  69.149  57.488
O  47.252  42.258  65.355
O  31.285  52.849  34.228
O  69.354  58.359  68.053
O  50.440  45.634  58.702
O  37.273  44.178  72.248
O  52.045  49.715  73.938
O  68.635  71.238  54.809
O  38.546  26.210  42.283
O  38.780  36.562  42.502
O  38.876  74.138  40.585
O  33.747  62.702  36.677
O  39.658  54.910  70.832
O  44.469  54.002  29.164
O  53.330  68.670  47.642
O  41.194  61.252  59.640
O  68.699  56.770  31.450
O  69.937  69.552  53.348
O  49.968  48.301  76.975
O  40.033  31.071  63.284
O  63.748  37.969  35.670
O  52.558  44.333  54.702
O  24.878  43.506  50.284
O  39.147  33.436  51.778
O  52.252  26.546  47.882
O  60.418  62.155  72.505
O  49.498  55.815  69.244
O  56.574  72.226  51.034
O  43.889  52.920  77.026
O  45.717  58.465  74.663
O  44.837  41.826  64.612
O  56.691  74.124  48.591
O  60.140  41.978  34.969
O  25.527  49.277  63.578
O  59.336  67.610  69.825
O  37.055  42.936  31.153
O  63.746  48.714  65.983
O  58.074  36.784  40.546
O  40.461  51.484  50.229
O  42.205  43.697  34.264
O  43.830  66.339  58.582
O  62.310  52.908  43.540
O  35.955  69.295  58.382
O  40.068  52.462  29.522
O  45.106  43.419  27.047
O  50.076  27.539  66.014
O  36.687  71.866  49.769
O  23.237  53.586  54.766
O  62.042  32.627  37.389
O  26.397  50.490  49.722
O  54.692  45.403  77.150
O  45.055  71.826  36.919
O  67.213  37.377  36.114
O  63.637  61.443  37.313
O  59.547  53.745  45.963
O  67.605  37.375  33.344
O  49.800  68.000  55.179
O  45.047  71.571  66.799
O  66.758  58.695  39.359
O  29.291  53.725  39.126
O  34.693  38.832  29.193
O  43.627  58.729  63.446
O  46.137  41.844  36.528
O  49.537  73.242  53.011
O  29.853  39.773  46.989
O  43.634  67.596  53.742
O  63.146  26.079  54.305
O  30.588  35.023  63.795
O  46.113  50.098  34.367
O  37.313  73.439  56.155
O  34.639  70.179  56.839
O  34.066  53.885  49.408
O  31.661  28.490  49.029
O  26.615  54.378  57.226
O  38.040  44.595  39.198
O  74.460  36.180  52.490
O  46.166  50.465  65.749
O  35.034  50.578  40.027
O  52.748  42.888  50.036
O  70.243  50.768  70.376
O  48.895  63.842  41.633
O  34.119  50.603  65.335
O  40.437  55.974  29.266
O  49.128  39.582  53.633
O  30.169  36.239  49.156
O  68.991  57.036  50.856
O  46.061  73.681  54.138
O  44.150  58.190  34.028
O  57.365  45.403  34.892
O  44.267  51.138  30.976
O  59.739  56.869  45.804
O  36.886  51.982  29.661
O  37.610  34.905  56.095
O  52.319  76.485  54.067
O  70.023  49.895  51.219
O  36.277  45.160  58.973
O  46.679  73.192  38.953
O  69.278  44.190  61.184
O  65.072  65.336  34.765
O  41.672  65.820  55.480
O  64.806  66.687  44.858
O  56.040  65.471  60.968
O  43.705  55.211  72.213
O  46.858  53.389  72.654
O  73.282  46.667  61.207
O  62.898  54.962  51.608
O  23.365  41.003  44.987
O  29.765  56.726  68.140
O  29.503  53.396  43.912
O  61.827  44.232  70.126
O  34.204  35.282  49.475
O  46.923  54.191  35.632
O  50.431  32.206  56.932
O  40.680  60.520  63.249
O  40.225  56.434  62.301
O  48.282  52.620  32.825
O  67.380  33.776  65.297
O  45.906  77.328  42.590
O  69.991  57.299  61.878
O  29.309  49.506  45.239
O  54.465  34.504  47.404
O  30.982  59.397  51.281
O  45.512  56.470  48.907
O  26.765  48.709  43.978
O  41.266  46.155  26.218
O  37.781  33.021  39.052
O  57.302  55.255  38.117
O  23.247  49.824  48.776
O  70.635  47.366  69.373
O  61.818  53.825  48.639
O  75.801  45.695  54.783
O  47.029  71.051  63.464
O  51.196  29.812  33.687
O  55.711  66.633  47.310
O  23.653  50.053  56.377
O  27.781  50.677  65.406
O  69.760  30.467  45.815
O  36.433  33.152  65.915
O  34.394  52.840  46.177
O  61.230  55.035  60.138
O  75.517  46.397  47.702
O  54.390  58.038  61.041
O  47.999  38.989  38.430
O  36.300  32.580  61.624
O  22.189  47.398  57.258
O  60.027  29.357  52.167
O  62.040  34.867  65.062
O  27.948  43.245  48.572
O  64.586  43.393  49.489
O  41.244  23.022  47.716
O  50.811  39.306  35.772
O  54.624  64.417  45.167
O  49.676  24.437  62.499
O  74.923  38.278  45.443
O  61.496  69.725  39.274
O  68.200  38.386  55.036
O  67.750  51.667  53.748
O  43.588  75.185  57.835
O  56.273  59.946  33.503
O  47.377  48.498  61.554
O  51.232  43.383  37.162
O  68.911  55.426  42.911
O  58.568  45.130  70.561
O  40.455  55.642  38.693
O  46.351  41.228  76.558
O  35.440  54.642  28.067
O  45.415  62.181  41.486
O  69.560  50.759  56.025
O  41.550  43.194  70.500
O  41.849  31.027  69.365
O  29.410  58.085  34.515
O  38.576  28.029  51.764
O  56.197  39.221  61.485
O  70.151  37.013  44.080
O  33.268  38.490  45.026
O  71.422  63.771  56.513
O  58.436  47.377  32.045
O  60.355  71.783  61.643
O  61.435  34.115  47.557
O  49.447  41.421  34.204
O  51.360  54.265  68.284
O  34.127  65.404  56.244
O  28.663  34.746  54.875
O  66.913  54.088  27.641
O  76.744  54.034  43.285
O  62.378  50.704  28.496
O  46.963  45.185  32.225
O  45.484  55.421  68.155
O  55.221  57.942  52.735
O  77.200  42.696  46.561
O  44.778  74.834  55.990
O  55.123  28.446  40.186
O  33.187  42.709  33.562
O  70.138  59.345  47.123
O  47.631  28.186  41.320
O  51.514  77.722  47.032
O  24.319  48.700  59.178
O  62.853  44.146  62.449
O  42.390  45.371  38.656
O  57.788  41.350  72.185
O  43.630  68.584  47.013
O  54.205  25.838  61.621
O  61.329  57.219  66.991
O  47.291  39.979  35.984
O  58.218  51.392  64.638
O  69.972  37.710  59.081
O  37.425  24.538  49.781
O  32.798  64.958  50.387
O  53.560  66.679  68.589
O  45.654  62.323  59.040
O  46.049  33.798  50.949
O  45.346  46.340  35.392
O  71.249  43.865  43.486
O  51.483  70.953  41.956
O  49.004  35.151  31.673
O  49.714  30.505  29.533
O  53.953  64.891  39.245
O  37.019  62.904  56.579
O  37.205  51.460  46.884
O  65.530  42.804  37.469
O  36.101  39.456  43.033
O  44.738  63.208  68.548
O  60.809  30.629  56.690
O  60.783  41.805  66.739
O  65.635  38.831  58.909
O  40.476  33.058  70.207
O  65.972  38.991  29.927
O  48.537  35.954  39.136
O  48.118  33.442  58.998
O  30.955  54.379  56.495
O  71.555  48.520  44.573
O  54.289  33.527  70.004
O  58.020  64.553  53.514
O  28.751  48.204  64.379
O  55.289  33.409  42.936
O  47.284  70.715  45.176
O  39.893  67.174  52.309
O  49.193  35.310  61.363
O  55.036  26.209  47.893
O  58.822  46.964  51.092
O  46.899  27.467  43.896
O  33.286  44.712  63.978
O  69.005  60.911  52.108
O  47.638  64.081  34.602
O  34.107  60.949  58.473
O  44.951  63.541  49.997
O  48.488  26.398  38.366
O  37.689  60.247  64.995
O  29.615  57.402  37.347
O  25.468  46.566  53.997
O  74.359  48.141  43.669
O  60.701  48.478  37.688
O  28.495  54.480  53.532
O  71.148  30.531  50.699
O  65.993  48.457  40.905
O  53.069  59.277  25.674
O  69.376  38.541  61.650
O  53.813  34.429  26.364
O  59.805  41.423  48.572
O  70.240  45.853  51.530
O  50.798  67.973  52.906
O  66.430  35.696  51.309
O  40.951  70.726  63.494
O  24.858  59.765  52.328
O  40.517  45.963  51.754
O  58.550  44.819  46.721
O  58.174  58.500  75.385
O  55.460  34.327  55.566
O  40.938  68.178  49.511
O  63.529  50.618  50.228
O  39.134  55.815  32.179
O  47.896  34.388  72.314
O  59.356  75.058  43.986
O  45.960  40.537  54.742
O  30.996  43.925  48.060
O  56.446  50.871  40.283
O  45.254  50.635  75.202
O  40.933  30.223  57.005
O  52.624  41.258  36.235
O  51.541  71.189  32.225
O  43.137  74.945  48.592
O  42.982  73.392  53.700
O  38.589  51.006  35.766
O  67.723  55.170  34.685
O  51.592  21.910  48.687
O  43.747  45.497  75.141
O  55.027  68.219  70.958
O  58.887  37.503  46.227
O  31.447  40.171  66.792
O  49.629  40.119  67.086
O  57.216  55.613  46.616
O  73.983  46.165  39.976
O  66.430  57.417  59.538
O  45.910  45.331  62.631
O  47.394  50.357  29.947
O  66.157  70.708  55.349
O  38.789  62.810  65.645
O  23.170  48.138  40.886
O  60.189  41.505  24.371
O  62.029  62.718  69.551
O  69.867  37.018  41.266
O  63.815  45.919  53.122
O  27.820  67.286  56.005
O  68.558  59.380  65.557
O  50.680  48.841  22.118
O  35.656  53.484  58.677
O  32.216  30.690  52.555
O  40.224  65.104  34.051
O  58.818  70.080  34.572
O  52.026  64.899  71.153
O  57.489  67.438  29.800
O  62.059  41.298  64.773
O  58.668  39.011  49.076
O  56.798  62.435  53.250
O  42.684  59.327  73.528
O  46.539  55.300  29.686
O  38.662  70.096  38.776
O  73.341  33.543  50.234
O  41.460  54.421  67.434
O  53.935  77.880  46.843
O  35.661  60.035  66.811
O  28.553  66.023  53.282
O  36.171  58.634  61.883
O  38.547  65.300  29.963
O  32.701  38.598  42.214
O  47.657  43.455  34.180
O  67.926  40.622  43.046
O  40.877  36.138  36.382
O  60.682  35.390  32.682
O  42.724  55.002  30.394
O  71.486  42.916  64.245
O  28.056  40.158  54.292
O  34.922  43.384  29.488
O  38.217  62.174  71.924
O  58.026  32.110  37.053
O  34.377  62.425  61.472
O  73.841  63.047  40.876
O  67.687  70.179  41.156
O  62.023  66.342  54.868
O  31.295  58.776  31.780
O  39.505  27.216  58.129
O  44.499  64.204  53.591
O  67.390  45.465  35.564
O  48.973  30.032  54.848
O  57.734  62.056  70.046
O  65.642  54.338  58.112
O  71.309  60.192  64.349
O  59.260  56.624  70.009
O  42.843  53.455  32.678
O  57.233  58.595  38.722
O  49.786  37.100  44.850
O  68.274  30.779  47.532
O  36.704  32.630  52.673
O  43.822  55.229  35.077
O  74.079  55.060  50.382
O  43.763  27.608  39.380
O  53.987  37.131  25.152
O  43.350  36.090  35.489
O  51.214  45.017  66.751
O  39.520  41.949  40.861
O  37.910  49.795  57.980
O  59.672  53.905  63.461
O  56.784  47.336  45.397
O  34.010  39.061  36.960
O  49.626  32.680  30.746
O  51.398  61.435  71.409
O  65.934  43.220  65.333
O  56.327  38.290  51.963
O  57.225  52.662  37.699
O  48.644  51.879  74.636
O  51.229  50.341  30.390
O  45.069  46.488  38.492
O  65.845  73.290  49.445
O  61.479  55.336  74.924
O  36.061  67.482  45.142
O  58.291  55.897  65.975
O  39.422  54.221  45.107
O  60.816  46.482  35.409
O  69.764  37.350  38.359
O  70.441  37.551  65.370
O  45.371  53.799  33.656
O  51.696  65.656  40.213
O  55.261  57.088  32.938
O  45.857  68.714  34.180
O  42.659  32.133  32.256
O  42.221  37.833  71.125
O  66.721  59.471  35.239
O  70.712  46.232  66.163
O  58.081  64.754  39.870
O  52.668  70.676  34.687
O  45.801  64.680  44.688
O  57.528  54.975  41.331
O  51.139  69.684  39.343
O  50.285  42.340  73.235
O  53.819  63.138  30.336
O  67.465  53.232  69.817
O  77.352  53.775  48.095
O  55.716  50.300  33.078
O  57.834  39.373  65.035
O  42.855  56.962  61.352
O  29.174  51.139  37.763
O  70.437  48.094  41.294
O  72.648  50.152  35.389
O  34.707  55.884  33.208
O  45.012  65.452  37.908
O  46.190  64.401  57.621
O  54.721  68.268  34.616
O  60.364  48.822  31.943
O  47.516  66.958  35.533
O  44.749  49.803  27.586
O  49.115  29.342  52.206
O  54.748  63.329  34.566
O  24.725  48.181  56.839
O  26.206  38.955  54.038
O  36.382  62.745  59.865
O  39.988  57.619  27.493
O  54.649  69.424  67.890
O  36.446  54.914  54.061
O  26.446  44.752  56.667
O  61.358  35.360  43.722
O  46.990  75.288  48.146
O  72.893  43.610  51.991
O  74.704  55.139  41.297
O  35.600  37.071  36.932
O  47.703  59.154  48.739
O  68.166  63.878  37.838
O  42.871  48.179  72.138
O  62.833  70.559  58.250
O  38.920  76.070  49.131
O  53.759  44.779  36.904
O  59.266  36.379  51.227
O  36.941  52.180  56.464
O  72.326  45.152  63.780
O  33.465  40.527  35.041
O  49.549  69.373  47.700
O  28.277  58.144  45.471
O  26.198  57.436  59.973
O  74.251  59.744  57.750
O  36.981  68.800  36.949
O  71.048  48.164  38.908
O  54.628  39.041  26.229
O  53.015  37.777  52.292
O  55.027  69.354  50.173
O  42.049  57.107  45.768
O  65.142  57.127  57.360
O  42.168  23.661  50.343
O  63.587  31.934  46.821
O  55.395  58.188  65.856
O  35.709  42.973  52.475
O  33.293  43.719  31.610
O  65.126  53.966  60.897
O  65.206  45.478  56.278
O  42.267  41.582  63.243
O  33.973  58.652  63.702
O  27.203  64.702  56.516
O  75.681  57.295  52.075
O  27.037  51.918  43.553
O  29.399  52.358  46.080
O  31.515  45.151  53.129
O  45.886  73.601  62.148
O  44.893  51.368  25.879
O  49.399  30.812  46.976
O  35.882  67.647  66.446
O  70.116  53.973  46.542
O  49.094  57.430  60.789
O  53.821  50.340  72.797
O  63.676  66.559  57.751
O  58.978  69.657  53.142
O  59.248  44.871  75.995
O  49.364  22.466  47.364
O  47.559  41.700  72.876
O  67.589  36.583  63.648
O  56.714  49.376  62.964
O  70.220  59.972  41.714
O  64.824  29.121  37.259
O  59.971  48.903  67.520
O  47.129  60.991  55.846
O  61.180  45.780  50.956
O  35.791  57.384  44.901
O  50.591  53.675  28.484
O  64.654  39.384  52.712
O  43.308  73.884  60.755
O  59.054  26.879  52.516
O  46.553  31.436  39.232
O  27.340  60.318  36.531
O  66.210  44.838  51.374
O  49.847  44.732  33.838
O  44.710  49.266  68.374
O  54.771  36.225  71.526
O  59.491  59.983  35.846
O  49.570  30.110  35.451
O  72.054  48.658  62.695
O  60.380  26.866  56.319
O  59.194  50.643  35.513
O  38.109  40.259  65.886
O  39.358  65.408  61.990
O  38.559  49.318  40.297
O  50.742  28.711  31.832
O  35.522  60.678  62.854
O  68.886  65.327  52.273
O  30.695  53.439  53.104
O  37.642  35.601  63.734
O  71.728  55.394  33.185
O  46.216  45.517  66.637
O  59.036  49.134  60.538
O  44.197  62.054  47.458
O  43.006  29.024  43.006
O  68.870  65.363  64.414
O  46.485  33.445  45.564
O  58.262  65.909  72.617
O  36.540  48.667  71.704
O  60.908  65.060  71.969
O  47.192  56.643  28.071
O  47.900  42.230  37.959
O  52.356  71.258  64.071
O  35.862  42.396  70.807
O  44.781  57.993  70.550
O  70.710  33.893  59.118
O  41.984  50.858  74.789
O  40.191  69.018  55.291
O  28.235  43.314  33.495
O  64.679  37.913  45.103
O  40.534  50.018  36.069
O  72.584  34.022  52.243
O  70.297  61.437  59.632
O  54.797  52.536  60.356
O  58.103  28.478  38.252
O  65.904  67.722  59.316
O  43.154  38.972  45.769
O  51.519  74.229  62.427
O  58.972  60.969  41.817
O  27.318  50.233  41.013
O  46.846  56.204  46.256
O  31.072  33.585  50.361
O  38.848  47.839  25.813
O  70.680  38.392  52.510
O  37.406  67.172  63.960
O  42.649  37.545  64.368
O  64.349  47.257  27.192
O  37.609  25.714  51.631
O  57.868  52.088  68.687
O  25.246  43.466  55.351
O  31.525  37.855  63.279
O  44.177  64.688  41.352
O  58.266  52.377  61.636
O  38.189  41.608  43.127
O  54.031  61.468  65.908
O  30.186  34.974  43.173
O  49.204  29.958  42.136
O  55.014  28.877  45.193
O  47.311  44.784  59.723
O  38.686  49.873  33.379
O  34.463  48.203  38.824
O  34.831  63.241  53.989
O  53.856  44.755  52.084
O  38.029  73.072  42.967
O  60.695  40.219  43.778
O  62.618  64.824  43.263
O  75.907  56.241  55.375
O  48.289  35.566  64.494
O  59.831  58.823  61.169
O  28.841  40.928  42.861
O  67.743  50.348  36.169
O  63.094  53.899  32.832
O  44.661  39.923  34.840
O  51.156  42.059  28.588
O  30.345  37.970  52.972
O  58.988  70.621  48.589
O  44.021  30.799  56.917
O  30.190  38.593  40.584
O  68.013  40.036  68.603
O  48.587  71.379  57.705
O  55.908  23.656  56.092
O  37.175  44.512  56.397
O  30.272  42.390  37.595
O  51.325  55.259  43.721
O  69.646  59.530  39.567
O  50.899  67.520  41.250
O  50.783  51.519  76.896
O  70.268  63.435  54.333
O  40.346  41.032  38.222
O  54.387  53.321  24.297
O  69.357  61.929  36.411
O  53.624  44.997  22.491
O  53.489  32.314  44.844
O  62.552  38.645  54.658
O  35.203  50.261  44.664
O  54.064  53.309  35.060
O  67.389  62.821  57.353
O  45.493  29.707  41.248
O  48.296  44.489  73.168
O  51.332  56.014  38.196
O  49.239  55.616  23.884
O  34.023  53.090  43.910
O  72.470  48.320  50.950
O  23.707  51.944  43.647
O  33.278  54.532  71.354
O  68.599  50.251  38.540
O  44.074  77.278  46.493
O  29.126  52.297  30.210
O  64.562  27.664  48.159
O  53.799  31.697  38.314
O  38.245  44.847  65.382
O  52.312  48.899  61.152
O  32.819  40.019  59.355
O  56.146  47.272  36.315
O  37.958  37.179  61.732
O  56.491  24.947  58.055
O  33.747  32.487  63.103
O  59.949  43.914  44.681
O  58.732  32.014  45.041
O  72.325  48.476  33.692
O  68.165  45.241  64.780
O  67.142  37.872  60.190
O  32.083  36.132  34.879
O  48.396  59.365  76.241
O  57.387  68.794  33.344
O  47.592  70.041  36.215
O  38.105  64.816  56.457
O  61.007  36.409  67.457
O  55.609  38.781  38.286
O  31.187  61.561  44.972
O  45.389  24.214  46.521
O  55.293  63.072  41.956
O  28.050  64.412  46.663
O  32.056  63.298  53.082
O  47.130  38.150  52.712
O  56.768  37.691  59.228
O  51.159  60.212  73.222
O  56.215  59.499  24.685
O  31.129  63.323  33.110
O  73.904  48.505  39.580
O  50.905  62.574  44.425
O  53.778  58.748  63.227
O  34.279  58.000  56.305
O  24.032  62.468  48.260
O  29.516  50.703  41.081
O  39.413  66.158  35.805
O  27.778  54.359  59.092
O  35.492  58.963  47.841
O  34.786  72.078  41.960
O  70.683  50.986  36.535
O  53.114  71.179  59.877
O  42.120  39.148  62.000
O  59.362  40.431  69.088
O  43.197  60.591  29.351
O  52.030  62.043  33.772
O  56.121  33.819  37.964
O  56.157  66.826  39.980
O  74.870  54.001  57.937
O  40.528  62.488  46.463
O  22.733  55.279  57.197
O  70.421  51.212  48.570
O  54.861  45.758  49.410
O  45.152  54.968  22.919
O  32.979  35.870  60.593
O  56.364  54.830  63.474
O  39.178  42.533  69.520
O  67.260  41.036  63.534
O  37.305  72.804  37.689
O  46.355  43.944  74.643
O  41.558  54.762  51.557
O  44.969  37.100  62.414
O  49.961  72.902  59.884
O  41.364  43.526  26.576
O  55.106  54.612  70.907
O  33.695  66.003  62.934
O  51.839  62.809  41.651
O  60.701  34.870  28.626
O  63.680  50.758  43.388
O  50.216  64.356  56.489
O  77.267  43.918  42.762
O  35.190  41.251  55.002
O  45.492  72.766  46.761
O  50.457  68.681  61.555
O  53.773  38.205  67.290
O  43.908  72.080  41.848
O  44.277  43.052  60.919
O  53.651  66.875  65.295
O  36.464  71.509  40.554
O  54.290  59.603  71.774
O  36.324  31.597  57.694
O  45.397  24.125  58.744
O  58.550  37.607  67.065
O  60.835  74.397  40.674
O  46.948  48.523  73.007
O  45.016  57.813  65.766
O  26.320  37.055  60.013
O  46.555  64.265  64.237
O  35.865  45.491  31.816
O  55.738  41.345  62.921
O  37.132  45.325  27.148
O  50.103  65.286  32.566
O  43.674  60.899  63.094
O  53.516  38.540  45.515
O  31.017  70.342  47.136
O  62.930  50.149  25.631
O  44.074  66.510  62.768
O  35.964  42.155  43.105
O  58.993  65.840  58.401
O  53.612  39.210  48.135
O  45.407  72.069  49.331
O  30.592  46.561  48.669
O  35.423  61.272  34.117
O  65.587  59.325  64.570
O  46.363  47.688  49.017
O  33.038  56.375  30.754
O  51.379  33.053  28.417
O  39.405  45.462  29.705
O  37.940  49.073  67.089
O  71.647  66.058  40.798
O  71.309  40.347  64.498
O  71.313  39.745  56.801
O  37.411  49.635  61.542
O  31.743  32.566  46.890
O  61.113  32.967  68.549
O  47.910  51.668  39.049
O  55.254  30.614  43.803
O  56.932  33.895  50.321
O  45.674  46.127  73.378
O  68.875  57.428  53.018
O  71.703  56.515  48.601
O  39.733  52.288  62.804
O  38.370  58.492  36.904
O  31.752  47.638  66.940
O  38.824  72.795  48.166
O  38.868  36.834  38.438
O  53.990  33.576  63.828
O  47.327  67.341  30.963
O  52.116  26.022  34.088
O  40.902  70.103  67.319
O  37.144  31.560  33.516
O  43.870  51.972  72.863
O  61.480  51.258  49.088
O  40.099  40.717  33.761
O  41.594  51.597  66.938
O  57.568  62.218  45.647
O  47.199  28.080  66.238
O  66.182  51.454  42.628
O  57.726  23.294  53.087
O  68.644  62.422  42.981
O  58.034  60.286  47.160
O  42.012  67.128  29.474
O  60.752  60.641  31.628
O  41.005  43.105  47.516
O  32.520  45.173  45.866
O  61.243  44.699  26.709
O  61.644  42.892  39.623
O  29.133  42.040  35.199
O  41.164  55.004  53.881
O  47.963  30.795  69.007
O  63.256  47.005  70.675
O  35.976  50.126  56.944
O  41.215  52.032  41.657
O  37.669  56.619  40.494
O  43.662  53.147  64.699
O  64.165  52.322  52.887
O  58.514  44.370  55.707
O  73.033  63.716  42.985
O  46.917  49.355  21.679
O  53.658  34.319  37.575
O  55.198  29.287  61.777
O  59.258  33.618  30.495
O  57.213  45.272  59.184
O  52.397  26.998  63.252
O  46.743  41.184  28.097
O  52.185  42.860  61.964
O  43.051  65.884  44.539
O  48.960  76.541  60.738
O  49.387  46.449  23.492
O  45.648  52.248  27.755
O  56.940  69.882  51.128
O  40.520  56.216  56.620
O  70.188  60.699  61.702
O  26.679  52.413  55.351
O  39.719  29.182  61.997
O  30.114  62.254  55.040
O  37.667  39.729  27.141
O  40.098  53.051  26.619
O  40.748  49.866  63.123
O  25.801  44.315  43.516
O  27.734  41.323  57.598
O  57.965  71.691  37.410
O  45.143  55.064  64.304
O  49.121  61.069  69.859
O  64.109  55.729  48.859
O  45.207  35.375  56.940
O  62.493  38.106  65.071
O  30.830  45.234  41.651
O  55.600  28.510  49.681
O  31.288  34.605  56.578
O  38.213  45.197  46.694
O  47.799  36.232  36.156
O  53.958  38.329  59.970
O  33.020  35.139  64.608
O  45.625  57.874  45.407
O  41.847  39.375  30.151
O  63.598  66.900  42.117
O  66.340  45.882  66.399
O  59.438  46.785  42.027
O  38.171  43.125  54.991
O  55.129  70.258  57.088
O  30.927  53.199  40.867
O  58.134  55.782  52.161
O  45.917  34.532  40.466
O  48.947  49.484  73.465
O  54.877  29.222  37.498
O  58.580  48.821  49.111
O  38.443  43.813  32.620
O  34.128  64.994  52.731
O  58.977  48.314  76.715
O  44.737  35.929  65.741
O  57.663  61.028  61.846
O  36.251  49.122  35.910
O  37.190  54.806  67.572
O  44.864  75.995  53.240
O  47.960  60.817  42.826
O  31.733  59.795  54.694
O  22.403  48.381  46.593
O  46.644  68.847  52.456
O  26.254  53.848  50.583
O  55.714  36.678  61.742
O  33.210  36.684  39.705
O  44.234  33.826  30.943
O  47.759  65.644  47.534
O  35.986  40.743  63.731
O  55.500  60.524  43.901
O  52.464  67.473  38.615
O  53.504  47.740  59.259
O  50.522  60.756  60.530
O  36.862  29.017  39.224
O  35.059  57.150  28.243
O  63.215  53.304  68.294
O  45.865  40.330  61.551
O  70.580  60.278  37.239
O  47.028  45.182  25.768
O  48.310  49.359  69.064
O  46.292  38.488  41.071
O  65.853  31.055  35.642
O  72.557  53.274  33.777
O  27.727  63.301  54.510
O  26.189  66.308  50.019
O  69.778  41.124  54.197
O  63.845  62.107  44.969
O  57.759  47.152  66.821
O  29.251  62.415  35.392
O  58.176  49.376  31.163
O  50.148  46.313  31.866
O  53.613  47.024  33.713
O  59.477  32.586  51.539
O  40.805  46.606  71.031
O  73.767  52.484  50.240
O  52.970  23.888  49.165
O  64.148  39.647  31.782
O  60.410  58.431  47.998
O  26.172  65.533  53.707
O  48.643  38.698  57.426
O  65.422  51.232  71.391
O  58.316  54.111  48.936
O  66.476  35.428  49.127
O  36.632  47.660  50.624
O  38.052  59.850  42.629
O  55.395  46.924  60.065
O  67.033  59.107  48.538
O  45.988  33.491  68.871
O  54.949  31.345  31.683
O  45.559  27.575  42.147
O  37.526  45.597  52.840
O  41.868  29.168  31.976
O  46.129  57.247  32.393
O  64.577  30.162  51.188
O  29.254  46.596  38.507
O  51.672  68.261  59.316
O  34.723  62.614  67.073
O  35.058  36.646  57.021
O  41.134  62.894  68.441
O  55.535  41.724  27.054
O  50.973  27.435  57.634
O  50.159  65.868  36.503
O  32.643  70.762  53.145
O  61.832  51.639  54.799
O  31.657  38.845  38.964
O  49.132  54.370  36.610
O  41.973  63.089  34.166
O  61.716  55.792  45.973
O  40.443  52.733  48.418
O  64.148  40.605  39.335
O  74.619  38.452  40.942
O  49.833  37.065  33.547
O  60.991  45.408  23.713
O  74.956  38.050  53.538
O  70.384  41.215  47.306
O  69.656  64.098  39.441
O  49.831  75.433  54.553
O  65.466  38.983  56.324
O  56.998  55.032  44.209
O  73.177  56.067  37.247
O  38.862  54.000  40.963
O  45.719  26.103  47.764
O  63.389  41.099  54.481
O  54.483  37.411  49.577
O  61.191  37.962  45.881
O  28.559  37.394  64.127
O  33.145  46.774  29.520
O  56.961  38.662  30.581
O  38.327  32.878  54.350
O  73.845  36.116  44.600
O  46.904  52.403  76.822
O  33.772  47.170  47.384
O  57.708  34.175  53.621
O  48.719  45.149  76.367
O  30.721  49.255  42.815
O  60.976  59.705  44.480
O  26.011  55.067  40.228
O  35.270  29.077  56.845
O  49.640  29.997  58.461
O  50.762  35.421  65.634
O  49.153  52.077  26.007
O  75.155  50.796  56.369
O  57.043  40.261  49.869
O  67.575  63.471  65.438
O  58.313  64.255  69.655
O  32.627  38.001  53.376
O  31.383  42.308  56.561
O  45.519  31.339  64.045
O  70.004  49.552  62.361
O  59.493  68.987  31.658
O  34.860  72.365  55.699
O  40.529  69.200  35.079
O  66.353  46.773  48.338
O  46.993  63.383  71.966
O  35.275  54.960  31.084
O  69.844  42.630  69.617
O  59.683  64.357  29.463
O  67.555  37.264  48.467
O  41.915  43.483  39.942
O  55.939  60.065  56.213
O  35.656  48.968  42.243
O  39.247  47.140  34.961
O  71.345  58.403  44.585
O  49.105  66.613  29.887
O  59.258  32.547  63.306
O  59.429  55.082  42.667
O  73.779  48.140  35.829
O  24.417  57.124  57.337
O  48.047  50.590  35.994
O  31.907  51.609  30.454
O  58.357  70.806  46.011
O  31.202  67.111  60.721
O  47.465  26.388  51.066
O  54.151  34.301  35.400
O  42.631  53.482  71.005
O  28.997  45.557  52.378
O  32.728  63.924  62.354
O  71.557  44.209  35.465
O  56.236  63.753  58.922
O  41.801  34.548  56.395
O  73.324  65.471  56.738
O  40.338  50.895  27.642
O  39.258  63.299  36.579
O  45.196  38.262  66.439
O  66.154  41.001  58.781
O  30.718  55.772  29.420
O  41.943  42.159  66.751
O  71.952  52.018  39.092
O  41.935  47.489  35.878
O  41.049  76.021  56.058
O  54.216  54.975  43.071
O  44.806  43.652  32.610
O  33.372  60.588  52.768
O  38.803  56.633  44.769
O  38.043  57.227  62.013
O  62.839  36.673  27.854
O  45.530  42.914  54.845
O  30.204  48.041  61.625
O  36.908  47.584  47.915
O  52.134  35.937  34.778
O  38.266  65.462  32.948
O  72.686  51.383  52.983
O  40.496  68.562  45.922
O  46.244  37.977  55.297
O  33.196  27.686  43.251
O  40.063  36.819  33.649
O  55.686  39.050  42.203
O  38.712  52.742  57.567
O  46.269  67.635  39.724
O  46.084  44.182  40.467
O  29.809  57.686  52.617
O  60.253  71.740  39.196
O  55.297  24.187  60.209
O  64.485  51.869  33.805
O  41.886  32.097  51.535
O  37.263  50.647  53.136
O  48.298  43.553  28.503
O  49.873  69.620  45.066
O  66.894  57.467  45.327
O  44.827  51.620  69.107
O  40.623  27.388  64.392
O  41.481  52.655  56.237
O  52.588  64.842  52.716
O  53.953  30.128  64.256
O  35.321  64.730  36.865
O  54.572  51.969  70.214
O  33.117  39.794  69.969
O  30.183  62.742  64.217
O  30.920  51.039  60.645
O  45.915  63.195  61.624
O  76.695  48.033  50.154
O  48.454  60.024  37.289
O  41.748  55.727  63.732
O  50.516  53.010  74.369
O  73.180  56.033  53.525
O  57.452  37.525  70.293
O  41.964  33.859  39.435
O  49.990  77.625  54.651
O  62.963  61.964  56.456
O  65.226  47.043  46.374
O  33.906  41.029  66.336
O  44.495  36.267  46.086
O  28.119  58.058  51.151
O  50.930  71.658  47.087
O  27.812  50.917  34.873
O  32.410  38.728  47.709
O  37.832  70.091  54.695
O  69.449  41.964  49.151
O  47.533  29.619  44.772
O  65.066  40.585  34.809
O  69.570  38.454  49.617
O  64.228  35.454  33.531
O  62.226  47.078  67.782
O  42.028  61.824  43.179
O  53.198  69.519  32.893
O  60.293  33.608  56.385
O  49.451  60.881  26.037
O  58.669  39.086  60.436
O  57.144  58.857  72.231
O  57.600  42.914  50.605
O  48.361  21.726  49.178
O  46.627  52.684  24.989
O  42.650  40.602  34.256
O  46.994  38.600  31.771
O  59.719  49.752  39.534
O  43.399  62.901  25.854
O  59.605  66.027  50.135
O  36.339  63.293  50.164
O  67.231  58.478  62.253
O  65.300  30.074  62.913
O  28.732  36.286  46.575
O  51.482  44.896  22.983
O  52.253  49.144  35.857
O  69.548  31.460  58.123
O  46.208  40.407  33.329
O  41.966  73.232  56.525
O  45.516  37.064  70.952
O  27.513  37.816  39.604
O  57.630  53.784  23.620
O  58.655  46.414  64.366
O  67.213  49.441  44.803
O  67.077  39.770  48.910
O  51.743  56.608  61.237
O  33.494  44.757  56.300
O  41.656  30.611  61.007
O  55.251  26.093  64.669
O  64.673  34.846  43.952
O  61.195  72.648  42.534
O  65.652  39.855  45.902
O  37.411  64.431  70.788
O  28.691  56.212  38.950
O  44.655  67.068  42.120
O  29.340  39.660  37.989
O  44.259  25.477  35.909
O  39.961  61.539  70.610
O  62.634  36.921  52.631
O  71.047  54.057  50.982
O  31.043  48.185  29.152
O  64.330  43.585  40.127
O  47.722  42.596  57.509
O  68.467  53.516  52.803
O  57.039  30.149  60.749
O  58.796  56.877  59.666
O  46.554  63.974  55.049
O  55.033  62.941  73.360
O  62.888  60.417  46.224
O  47.816  63.835  36.781
O  56.573  27.325  45.185
O  55.195  26.889  52.277
O  38.747  46.415  48.462
O  52.727  62.421  39.125
O  43.431  54.516  38.250
O  59.652  52.897  39.842
O  67.198  29.650  40.719
O  23.374  40.105  52.492
O  36.563  28.234  45.843
O  36.398  50.531  63.789
O  58.791  66.438  62.945
O  32.384  41.162  47.373
O  69.148  41.817  65.804
O  52.751  26.909  50.263
O  38.943  39.695  68.424
O  60.461  57.639  43.872
O  55.573  31.175  47.996
O  42.133  66.588  46.963
O  49.576  58.580  52.507
O  67.718  48.593  55.697
O  60.214  38.647  70.545
O  54.926  38.322  54.830
O  65.962  30.659  49.346
O  77.750  52.351  50.696
O  38.084  50.946  24.480
O  30.045  68.417  54.438
O  67.061  43.580  29.222
O  40.689  60.948  52.072
O  62.884  73.044  50.188
O  54.553  71.519  31.555
O  55.208  24.706  45.187
O  34.262  46.965  52.847
O  46.534  29.376  53.219
O  57.798  60.473  57.314
O  41.026  65.701  31.399
O  53.678  52.437  73.681
O  34.172  30.657  49.549
O  35.371  50.464  60.959
O  46.211  24.740  52.907
O  44.760  30.019  31.222
O  59.013  39.325  57.048
O  36.370  37.072  29.131
O  52.876  52.590  28.746
O  54.320  75.359  50.973
O  47.545  24.985  61.083
O  69.717  60.399  49.481
O  52.012  63.466  48.398
O  48.858  46.918  28.190
O  43.944  71.675  52.405
O  73.844  53.827  55.999
O  71.166  47.902  54.000
O  27.338  33.136  53.951
O  31.325  60.570  36.467
O  60.544  60.771  65.385
O  34.483  52.707  40.128
O  32.852  29.488  55.893
O  68.423  36.015  39.495
O  61.704  28.221  44.850
O  39.716  67.168  59.899
O  31.771  65.823  54.513
O  72.581  34.149  46.699
O  39.422  58.850  32.292
O  65.242  50.684  64.256
O  37.870  56.507  47.514
O  56.121  58.474  44.400
O  52.395  35.805  68.419
O  50.585  56.881  63.867
O  50.182  27.310  36.279
O  26.410  39.619  43.420
O  71.009  45.974  37.319
O  47.215  54.530  39.914
O  64.720  61.502  47.320
O  48.660  36.122  67.800
O  56.987  77.517  49.447
O  56.957  60.557  66.723
O  58.394  41.651  42.138
O  42.305  63.030  71.102
O  44.481  39.194  63.317
O  62.582  54.613  34.904
O  26.258  57.448  38.043
O  44.177  41.072  53.102
O  64.889  74.256  47.703
O  33.790  61.374  38.430
O  59.597  30.668  50.290
O  46.329  41.858  25.392
O  75.707  45.669  60.874
O  32.800  48.774  45.137
O  48.268  24.820  57.904
O  40.981  29.046  45.828
O  54.759  58.174  27.922
O  43.992  75.074  41.265
O  34.032  28.321  40.078
O  38.197  65.740  51.026
O  33.263  70.338  46.724
O  72.171  37.544  38.155
O  60.291  76.047  46.643
O  28.058  60.946  39.135
O  62.204  51.375  64.503
O  56.777  34.943  65.455
O  72.055  41.220  54.258
O  49.111  46.466  74.649
O  34.308  33.121  47.957
O  41.942  55.608  42.030
O  58.439  45.375  30.012
O  63.839  26.819  44.277
O  42.752  44.261  52.878
O  66.579  69.031  52.834
O  39.608  45.092  73.903
O  67.769  53.237  47.772
O  57.812  48.611  72.060
O  57.972  36.134  28.287
O  59.477  54.624  67.640
O  58.118  55.763  75.911
O  61.593  43.859  64.625
O  44.975  72.911  43.910
O  32.190  51.182  42.566
O  38.013  59.058  66.887
O  46.740  54.581  27.217
O  53.589  53.425  63.084
O  56.832  46.309  62.245
O  74.722  40.866  57.304
O  38.490  63.281  46.223
O  43.622  35.211  53.103
O  53.187  49.530  64.323
O  62.357  41.464  42.486
O  41.782  73.087  39.810
O  51.170  59.369  62.253
O  64.177  47.751  50.972
O  50.610  37.205  41.650
O  46.460  73.561  50.560
O  46.766  48.107  66.076
O  51.192  66.775  48.366
O  44.667  66.524  67.253
O  34.507  67.204  46.762
O  54.531  48.370  75.912
O  37.524  35.336  60.016
O  32.599  53.517  36.145
O  45.502  35.930  50.495
O  65.969  52.900  66.381
O  71.877  38.432  62.400
O  52.912  30.404  61.352
O  33.689  45.502  38.670
O  56.672  34.390  62.816
O  33.050  46.901  62.086
O  74.303  54.582  63.514
O  70.291  61.075  43.640
O  62.406  59.781  62.749
O  71.976  49.716  41.266
O  40.710  45.320  41.849
O  47.348  39.235  63.286
O  46.121  34.438  36.228
O  63.460  46.096  63.813
O  47.770  49.600  26.866
O  41.787  76.941  48.916
O  45.643  59.188  41.251
O  48.602  65.852  62.258
O  57.024  77.200  46.115
O  63.800  55.418  37.834
O  52.559  49.220  28.088
O  61.683  63.469  29.945
O  56.230  60.142  49.067
O  49.787  33.289  62.008
O  57.955  28.652  46.267
O  74.053  56.966  60.125
O  25.510  60.993  57.648
O  62.414  65.692  45.616
O  30.787  35.311  54.379
O  69.443  41.708  62.433
O  25.482  63.546  50.171
O  53.207  72.816  52.667
O  59.433  46.664  54.217
O  40.670  37.559  30.971
O  37.492  54.612  60.328
O  71.196  62.744  44.895
O  42.354  69.544  51.287
O  53.609  61.002  51.890
O  30.572  34.360  46.412
O  27.915  63.368  51.704
O  56.405  50.712  66.119
O  65.470  62.538  35.031
O  53.652  74.914  46.798
O  44.902  53.694  74.853
O  60.785  47.793  26.633
O  49.269  31.904  40.950
O  34.415  30.797  42.537
O  61.838  51.324  39.278
O  42.973  49.986  33.639
O  47.020  23.857  43.015
O  57.065  70.114  59.193
O  57.805  42.605  36.970
O  45.291  39.253  26.091
O  44.457  62.713  34.642
O  60.825  67.465  60.918
O  52.977  50.092  77.192
O  41.464  36.253  46.761
O  42.198  26.308  42.487
O  42.271  46.033  28.182
O  55.178  36.925  57.186
O  59.542  64.838  41.515
O  54.099  35.935  53.144
O  44.961  53.241  62.831
O  65.453  66.525  51.355
O  63.232  47.840  39.281
O  78.252  47.606  46.734
O  48.296  77.728  46.186
O  35.559  67.152  51.233
O  59.680  39.323  41.176
O  52.486  41.320  73.415
O  30.686  61.382  39.184
O  71.725  44.324  58.455
O  71.739  54.065  53.176
O  43.115  70.201  40.650
O  60.675  62.226  35.959
O  62.105  55.706  69.222
O  76.871  52.568  39.797
O  57.554  27.156  41.065
O  49.013  70.417  51.058
O  48.404  63.435  69.290
O  36.740  60.665  55.989
O  59.887  50.759  47.083
O  62.766  59.390  42.403
O  76.751  47.587  41.916
O  43.377  43.717  58.569
O  62.469  68.361  31.930
O  28.021  35.143  40.596
O  52.591  52.933  32.310
O  49.821  63.232  39.043
O  52.623  59.858  41.431
O  42.500  24.114  45.083
O  45.115  50.715  61.782
O  52.092  33.938  60.397
O  47.893  39.234  23.908
O  58.618  46.359  37.294
O  45.983  47.686  70.461
O  33.872  50.523  36.959
O  54.164  73.037  36.811
O  50.354  29.000  50.421
O  48.494  43.335  70.360
O  36.144  34.572  47.310
O  55.535  32.102  58.886
O  41.767  55.064  74.406
O  48.067  45.836  64.366
O  42.477  34.855  41.362
O  47.396  65.304  52.568
O  44.167  77.187  57.112
O  61.067  53.359  73.111
O  27.673  64.819  49.370
O  38.523  46.114  42.817
O  56.580  44.706  27.996
O  26.018  45.269  48.000
O  57.242  30.701  62.901
O  46.348  51.833  31.199
O  35.062  50.156  51.212
O  42.278  26.575  47.445
O  66.282  34.326  55.018
O  48.954  76.999  48.202
O  57.525  42.610  46.168
O  61.724  31.721  45.545
O  62.641  65.124  62.733
O  35.725  48.453  33.013
O  58.497  76.398  53.348
O  68.579  61.247  46.523
O  42.048  69.033  31.630
O  56.940  40.673  47.041
O  65.356  57.574  30.960
O  64.169  55.732  26.589
O  68.592  70.168  44.357
O  69.139  63.701  50.781
O  47.900  47.945  25.418
O  46.357  78.554  52.067
O  37.765  49.304  54.806
O  34.641  36.168  42.457
O  56.036  67.297  59.660
O  53.953  44.795  70.772
O  60.246  52.807  42.008
O  49.688  78.273  52.177
O  72.926  61.412  46.035
O  43.023  69.042  36.623
O  33.943  44.592  49.112
O  43.750  46.683  63.049
O  37.774  43.969  44.900
O  68.354  69.211  58.622
O  61.613  40.045  58.660
O  49.208  24.979  48.276
O  55.571  73.157  34.789
O  70.246  65.830  56.323
O  61.245  42.632  60.381
O  41.843  53.022  34.695
O  60.237  32.311  39.688
O  61.075  41.491  53.069
O  40.618  48.928  58.161
O  51.981  58.893  29.032
O  63.539  52.401  73.384
O  56.131  58.195  58.527
O  72.488  59.353  48.668
O  51.511  74.089  41.788
O  67.305  50.844  30.686
O  65.837  64.717  46.944
O  75.367  45.411  43.859
O  44.227  31.157  68.262
O  34.196  51.640  34.002
O  59.295  50.375  42.726
O  67.151  35.459  61.340
O  60.832  46.359  45.268
O  56.712  36.168  54.569
O  49.277  63.910  50.661
O  38.956  49.056  28.378
O  50.860  64.333  27.138
O  37.900  29.847  35.075
O  69.593  60.828  55.830
O  39.213  66.005  38.559
O  67.634  32.752  44.674
O  75.293  42.702  45.464
O  60.517  60.802  70.185
O  55.489  44.035  61.792
O  36.483  51.152  35.074
O  43.266  77.536  50.451
O  31.411  56.074  42.243
O  62.754  63.941  71.446
O  27.986  38.049  41.740
O  33.741  48.832  30.020
O  64.879  34.391  36.554
O  28.730  51.543  51.349
O  66.037  35.953  32.324
O  27.613  57.480  65.702
O  36.132  57.776  33.006
O  58.877  30.145  43.394
O  41.381  71.369  42.682
O  66.557  54.010  37.138
O  27.327  49.045  38.502
O  42.380  58.904  26.848
O  66.843  50.424  62.784
O  51.146  64.523  34.918
O  28.403  39.977  49.484
O  55.361  32.467  39.741
O  36.833  30.582  59.644
O  45.127  59.031  38.776
O  29.996  63.967  43.940
O  65.906  69.426  50.770
O  42.909  28.724  55.500
O  32.350  53.405  61.080
O  61.865  32.074  61.152
O  31.841  68.853  61.903
O  60.575  36.570  72.614
O  59.188  61.600  68.093
O  47.192  36.490  59.657
O  53.394  41.588  65.588
O  27.706  62.051  61.204
O  52.147  74.567  39.455
O  64.154  70.009  56.571
O  55.253  32.071  61.658
O  69.996  63.107  63.519
O  62.801  52.843  25.943
O  50.201  38.684  61.455
O  59.636  45.376  73.290
O  63.326  29.334  46.836
O  49.132  50.328  60.552
O  24.315  54.869  47.922
O  40.835  70.150  38.439
O  62.579  30.466  49.483
O  39.021  60.055  74.726
O  63.671  43.581  35.382
O  42.779  49.169  40.930
O  39.914  52.873  75.823
O  47.472  63.353  60.031
O  56.162  64.145  38.985
O  44.328  40.414  39.675
O  40.244  46.565  66.366
O  44.126  45.483  23.225
O  63.435  67.588  46.967
O  64.951  64.335  43.018
O  28.419  58.854  61.089
O  42.502  38.243  59.304
O  46.713  74.289  41.021
O  27.274  56.449  55.150
O  46.676  54.870  62.737
O  48.062  49.495  54.971
O  58.454  57.810  67.415
O  51.909  51.365  55.163
O  50.686  49.697  48.558
O  49.172  45.680  46.848
O  53.301  46.819  47.257
O  53.930  51.905  51.539
O  48.851  49.071  45.410
O  50.190  53.992  53.244
O  49.286  50.822  51.315
O  30.609  45.454  35.664
O  66.205  46.987  28.342
O  26.497  44.214  51.598
O  27.133  58.615  57.404
O  27.628  63.755  58.981
O  63.848  61.673  60.101
O  48.103  25.227  44.433
O  26.595  57.174  35.885
O  45.936  66.161  60.452
O  41.420  33.649  61.330
O  28.574  44.703  46.284
O  68.231  39.781  60.081
O  43.461  55.677  69.217
O  31.732  42.196  51.333
O  72.440  67.385  52.610
O  51.804  48.349  33.324
O  44.814  22.780  53.756
O  64.499  30.830  44.951
O  42.060  44.904  57.285
O  70.797  34.651  48.911
O  44.090  43.149  77.083
O  62.973  37.804  62.188
O  62.080  57.686  71.165
O  59.899  46.772  58.819
O  51.262  71.473  57.669
O  46.704  23.572  48.165
O  66.343  60.743  45.142
O  30.038  48.870  33.103
O  25.994  58.043  40.664
O  73.030  60.867  61.177
N  51.782  48.251  46.320
N  52.353  53.934  53.978
N  47.582  49.311  51.473
N  47.255  47.449  45.656
N  48.411  51.553  54.037
N  50.479  46.045  45.037
N  51.761  52.453  51.079
N  47.749  49.355  48.296
N  52.840  50.036  49.228
N  50.123  52.271  56.216
N  54.450  50.646  53.996
N  47.151  45.013  48.815
C  48.588  50.626  55.037
C  48.957  45.954  50.290
C  44.622  43.983  46.852
C  52.791  51.562  51.129
C  51.898  49.739  48.263
C  49.365  53.325  56.879
C  51.406  53.938  52.972
C  49.254  46.025  45.639
C  45.260  44.810  45.927
C  50.386  53.922  48.435
C  56.677  51.811  56.155
C  48.160  48.371  50.547
C  49.413  50.996  56.292
C  48.154  46.940  51.113
C  52.893  51.882  46.466
C  48.427  51.155  57.474
C  46.527  44.474  45.431
C  48.124  52.651  57.501
C  51.942  53.806  55.355
C  51.302  56.212  48.639
C  47.032  52.668  52.302
C  46.467  52.748  44.960
C  45.238  42.808  47.286
C  47.799  48.687  45.956
C  52.571  50.405  44.506
C  54.053  49.220  53.886
C  47.138  43.291  45.869
C  55.642  51.408  57.001
C  54.453  52.135  57.049
C  51.714  45.782  45.770
C  46.353  51.272  45.295
C  55.330  53.677  55.408
C  47.358  48.430  49.217
C  52.916  48.985  52.897
C  47.997  46.502  44.861
C  48.149  44.729  49.876
C  51.361  54.801  49.194
C  50.756  46.292  43.628
C  47.511  51.339  52.935
C  53.052  54.098  56.375
C  47.076  49.542  47.028
C  52.735  45.346  44.690
C  48.205  50.485  51.840
C  53.356  49.113  51.453
C  51.331  52.398  55.595
C  47.085  51.016  46.603
C  52.312  46.996  46.517
C  46.197  52.397  51.069
C  52.523  50.115  50.631
C  51.894  53.827  51.502
C  52.271  46.074  43.432
C  46.498  42.464  46.792
C  44.896  50.866  45.352
C  51.055  54.819  50.684
C  52.145  50.677  45.935
C  54.285  53.274  56.250
C  52.412  49.441  46.828
C  56.517  52.946  55.359
C  46.223  53.463  53.307
C  47.172  45.301  44.376
H  44.024  42.132  60.772
H  52.229  26.425  54.680
H  56.986  66.541  57.532
H  37.427  71.517  40.625
H  53.972  60.508  71.883
H  38.315  29.075  34.672
H  38.792  48.246  28.876
H  38.772  66.554  39.220
H  36.242  72.425  40.346
H  35.571  31.726  57.103
H  52.734  66.987  65.575
H  38.528  30.560  34.904
H  54.149  67.425  65.912
H  37.068  31.469  57.093
H  54.331  59.265  72.677
H  52.438  26.731  56.153
H  45.103  43.143  60.428
H  66.588  36.649  36.217
H  32.406  63.661  52.259
H  45.946  24.879  58.498
H  55.686  22.736  55.902
H  56.133  24.021  55.227
H  33.239  51.649  34.134
H  37.544  45.370  56.153
H  37.584  44.321  57.251
H  34.460  50.762  34.303
H  29.725  41.820  38.149
H  30.544  41.812  36.871
H  53.717  56.416  63.940
H  40.055  48.731  51.544
H  51.685  56.050  43.300
H  51.284  54.616  43.003
H  66.117  65.556  46.557
H  51.513  67.819  40.568
H  50.166  67.142  40.749
H  65.798  64.117  46.189
H  61.663  38.974  54.839
H  62.730  38.946  53.759
H  39.253  48.632  50.259
H  44.512  24.502  58.827
H  49.055  72.215  57.829
H  67.801  35.242  60.661
H  39.143  49.712  29.062
H  56.100  38.345  59.467
H  57.025  37.942  58.332
H  57.627  67.769  56.908
H  46.615  38.773  53.240
H  46.681  37.307  52.849
H  60.765  60.610  69.273
H  32.675  63.613  53.753
H  48.913  71.058  56.855
H  60.007  61.619  70.117
H  35.943  50.747  44.280
H  44.285  59.029  64.086
H  30.127  39.408  41.097
H  54.834  56.055  64.904
H  30.529  37.949  41.217
H  66.440  35.890  60.849
H  68.500  40.288  69.398
H  67.124  39.848  68.929
H  34.426  50.687  44.280
H  43.080  72.324  41.417
H  64.137  69.148  43.599
H  39.050  65.104  38.864
H  31.104  69.565  47.702
H  30.257  70.135  46.578
H  60.730  39.916  58.291
H  34.764  60.575  34.009
H  44.348  60.781  43.151
H  35.759  61.410  33.223
H  61.585  40.943  59.014
H  63.285  50.493  24.802
H  62.172  50.719  25.811
H  45.619  60.375  43.877
H  57.346  53.289  54.718
H  44.302  66.018  63.566
H  43.362  45.812  62.898
H  69.060  44.009  51.312
H  36.003  42.399  44.038
H  35.896  43.002  42.648
H  43.822  46.739  64.010
H  59.774  65.658  58.939
H  58.367  65.156  58.667
H  68.945  42.506  51.501
H  44.668  67.270  62.788
H  43.225  60.715  62.260
H  44.557  61.179  62.823
H  49.946  24.844  47.668
H  41.150  53.047  34.023
H  26.181  37.735  59.341
H  46.634  44.163  48.564
H  26.786  36.356  59.539
H  56.188  59.276  55.716
H  46.187  64.799  63.522
H  47.333  63.854  63.839
H  70.459  65.447  55.463
H  35.114  45.976  31.453
H  36.352  45.204  31.034
H  70.636  66.712  56.285
H  66.774  64.647  44.290
H  56.529  41.663  63.375
H  55.121  42.085  62.992
H  67.602  64.402  43.041
H  37.550  44.880  27.896
H  37.294  44.729  26.406
H  48.460  25.156  47.693
H  50.006  64.449  33.037
H  50.101  65.947  33.269
H  55.216  50.759  54.669
H  54.087  39.864  48.662
H  44.567  72.175  41.149
H  52.735  39.184  48.539
H  43.502  69.382  35.857
H  63.975  50.553  44.284
H  64.068  51.625  43.212
H  61.772  46.577  45.259
H  50.530  63.626  57.038
H  49.515  64.756  57.018
H  60.514  46.676  44.414
H  77.292  44.866  42.942
H  76.997  43.531  43.604
H  35.706  41.815  54.412
H  32.141  54.501  27.784
H  34.861  40.552  54.423
H  46.283  73.282  46.563
H  44.852  73.066  46.104
H  75.325  43.618  45.768
H  38.939  44.363  39.461
H  53.591  39.031  67.757
H  53.964  37.579  67.999
H  65.576  68.695  43.425
H  57.957  37.187  67.701
H  59.057  38.229  67.601
H  74.648  42.722  44.746
H  33.219  53.433  27.738
H  60.193  34.306  28.030
H  61.344  34.268  29.020
H  45.561  71.490  48.575
H  45.131  72.903  48.929
H  42.828  69.833  37.141
H  31.498  46.231  48.628
H  30.071  45.776  48.881
H  44.875  57.855  66.720
H  68.939  48.313  52.763
H  45.843  58.294  65.635
H  50.630  78.437  52.310
H  53.912  37.964  46.181
H  53.486  39.403  45.946
H  49.668  77.595  51.491
H  46.521  49.057  73.689
H  47.452  47.871  73.509
H  69.013  49.408  53.812
H  50.777  67.808  61.295
H  49.644  68.789  61.046
H  53.207  45.391  70.636
H  52.089  63.519  42.254
H  52.386  62.065  41.933
H  54.389  44.773  69.910
H  37.713  43.796  38.768
H  40.265  34.530  34.667
H  53.636  44.038  22.602
H  50.090  51.203  76.303
H  46.012  63.738  27.935
H  47.127  69.197  36.155
H  68.974  64.485  50.242
H  38.742  65.061  57.140
H  37.724  65.660  56.185
H  69.256  62.997  50.131
H  60.416  36.074  66.772
H  61.335  37.240  67.091
H  43.010  58.210  63.978
H  46.954  70.625  36.644
H  55.533  39.743  38.265
H  63.452  56.379  26.592
H  31.399  62.502  44.946
H  30.300  61.535  45.352
H  64.836  56.131  26.016
H  45.088  24.902  45.916
H  44.671  24.144  47.164
H  71.217  30.759  53.364
H  71.663  32.139  52.914
H  54.418  62.882  41.595
H  54.900  38.482  37.703
H  55.779  63.427  41.202
H  46.171  62.228  27.957
H  28.679  65.066  46.992
H  59.730  44.599  44.038
H  51.470  34.373  60.993
H  58.527  32.469  45.868
H  59.141  31.189  45.329
H  73.104  48.619  33.140
H  71.626  48.281  33.056
H  56.951  45.537  28.320
H  40.624  38.310  37.986
H  68.941  44.920  64.304
H  28.060  64.545  45.707
H  67.500  45.351  64.088
H  67.956  37.376  60.038
H  67.142  38.026  61.143
H  42.116  38.580  37.913
H  32.388  36.743  35.561
H  31.134  36.300  34.827
H  57.000  31.636  62.922
H  57.665  69.513  32.762
H  56.854  68.228  32.772
H  57.371  30.477  63.831
H  55.869  44.987  27.407
H  28.587  33.421  46.735
H  42.629  68.264  31.667
H  57.055  25.177  57.307
H  34.931  53.129  43.585
H  56.933  43.047  46.793
H  72.377  48.871  50.162
H  38.816  65.598  66.027
H  72.949  48.885  51.568
H  58.375  42.600  46.627
H  24.196  51.319  44.196
H  24.261  52.735  43.651
H  32.976  55.365  71.736
H  33.490  53.268  43.125
H  33.482  54.760  70.439
H  35.257  35.905  60.786
H  67.939  50.061  39.219
H  69.428  50.296  39.032
H  66.193  33.580  55.624
H  43.114  77.202  46.550
H  44.309  77.800  47.270
H  35.122  34.493  61.329
H  29.776  51.655  29.899
H  29.644  53.101  30.343
H  67.167  34.219  54.649
H  55.597  25.100  57.724
H  30.986  28.628  48.352
H  49.558  54.738  24.128
H  42.439  69.583  30.940
H  37.955  37.869  61.058
H  38.768  36.685  61.552
H  54.436  47.605  61.924
H  56.920  47.648  36.752
H  55.849  46.585  36.924
H  46.995  77.883  51.796
H  32.695  40.390  58.473
H  31.938  39.708  59.599
H  49.736  56.208  24.461
H  45.776  78.085  52.679
H  44.962  30.145  40.572
H  45.849  30.437  41.769
H  48.881  44.933  72.541
H  47.413  44.654  72.815
H  62.854  64.196  62.576
H  50.568  56.014  38.786
H  52.087  56.004  38.798
H  39.670  66.484  66.917
H  62.469  65.163  63.682
H  54.675  48.784  60.996
H  59.645  43.100  44.261
H  52.714  33.502  60.993
H  33.743  31.688  63.645
H  58.082  70.935  48.700
H  29.849  38.465  52.308
H  29.849  38.121  53.787
H  61.296  52.978  73.968
H  64.232  62.862  64.789
H  51.593  42.395  29.380
H  50.918  41.154  28.824
H  61.081  52.601  72.513
H  47.891  44.300  59.121
H  58.881  69.698  48.330
H  46.430  44.647  59.353
H  37.947  49.704  33.977
H  39.427  50.044  33.974
H  47.484  65.666  53.458
H  33.815  47.679  38.335
H  35.196  48.297  38.203
H  46.544  65.642  52.266
H  34.804  62.462  54.558
H  34.685  63.975  54.599
H  32.220  70.367  58.748
H  62.767  63.143  64.506
H  53.180  45.103  52.679
H  36.229  47.811  33.528
H  61.964  41.694  68.590
H  51.523  73.160  42.049
H  70.684  63.405  53.463
H  69.338  63.250  54.149
H  50.733  74.158  41.222
H  38.770  34.277  34.753
H  40.529  41.777  38.809
H  40.191  40.296  38.827
H  56.147  60.790  55.611
H  54.671  53.832  23.529
H  44.030  30.982  57.865
H  55.107  53.437  24.929
H  69.534  62.561  35.703
H  68.424  62.068  36.614
H  33.859  36.734  42.482
H  54.356  45.301  23.042
H  62.258  40.472  69.442
H  53.294  33.171  44.446
H  53.085  32.371  45.719
H  35.104  47.908  32.513
H  43.110  30.532  56.744
H  35.137  36.496  41.696
H  26.901  55.283  57.048
H  54.537  44.422  52.681
H  47.776  44.976  64.038
H  62.385  53.250  32.746
H  62.646  54.745  32.709
H  34.831  50.518  36.850
H  44.658  40.253  35.747
H  45.254  39.162  34.875
H  33.686  49.679  37.390
H  51.871  61.497  47.099
H  68.832  59.428  40.075
H  69.572  60.416  39.190
H  50.534  61.896  47.700
H  53.645  53.367  34.192
H  58.678  45.644  36.648
H  48.877  59.887  76.895
H  47.538  59.212  76.656
H  25.663  54.404  57.070
H  59.218  47.031  36.947
H  67.838  62.736  56.502
H  67.122  63.748  57.380
H  27.315  34.184  47.064
H  33.469  33.180  63.714
H  54.824  52.733  34.909
H  67.394  50.840  35.415
H  68.439  49.801  35.783
H  50.785  28.831  49.574
H  37.515  73.312  43.747
H  38.678  72.442  43.304
H  47.389  46.445  64.046
H  61.248  40.821  44.291
H  60.665  39.419  44.317
H  33.015  71.206  59.733
H  62.082  65.622  43.184
H  62.155  64.302  43.930
H  55.845  32.865  58.383
H  75.629  56.232  54.451
H  76.818  55.924  55.343
H  54.633  31.970  58.569
H  47.872  35.259  65.308
H  48.046  34.895  63.844
H  52.920  51.905  25.441
H  51.648  51.174  25.048
H  60.056  59.601  61.693
H  60.560  58.213  61.339
H  50.552  29.928  50.597
H  28.923  40.134  43.405
H  28.492  41.589  43.472
H  51.475  51.827  76.296
H  33.146  66.758  63.179
H  52.985  54.119  51.425
H  41.722  52.163  35.118
H  62.149  35.668  44.182
H  60.724  35.207  44.433
H  57.996  26.376  41.424
H  58.990  36.770  52.064
H  60.120  35.978  51.432
H  49.343  54.303  48.555
H  32.291  44.825  53.602
H  38.848  51.921  42.263
H  30.898  45.384  53.834
H  57.504  27.758  41.817
H  62.719  56.111  68.596
H  36.120  52.629  56.226
H  61.247  55.790  68.788
H  66.045  45.890  56.522
H  65.270  45.377  55.320
H  37.640  51.705  41.368
H  47.620  45.375  47.967
H  41.532  41.635  62.619
H  43.049  41.635  62.680
H  43.814  69.959  41.270
H  37.133  51.629  55.694
H  51.777  51.145  33.489
H  60.497  48.025  32.471
H  60.185  49.506  32.601
H  51.435  32.043  44.034
H  69.734  48.755  41.256
H  70.561  47.945  42.240
H  60.765  50.376  47.203
H  73.196  50.234  36.179
H  68.212  36.816  49.014
H  72.001  49.477  35.627
H  59.906  51.096  46.178
H  35.456  55.846  33.815
H  33.939  55.891  33.793
H  52.404  31.073  43.382
H  45.613  64.910  37.381
H  44.774  66.175  37.315
H  49.247  63.066  38.285
H  50.641  53.926  47.347
H  46.838  65.028  57.966
H  45.738  64.896  56.927
H  50.569  63.711  38.665
H  54.508  67.913  33.744
H  55.236  69.061  34.421
H  50.373  50.713  33.879
H  34.915  58.446  63.734
H  33.853  59.043  62.828
H  42.302  69.994  41.128
H  26.745  65.363  55.981
H  35.636  68.397  65.891
H  36.744  67.381  66.102
H  48.931  50.837  58.421
H  38.003  54.412  59.534
H  71.036  53.802  46.303
H  70.036  54.932  46.470
H  28.815  52.779  62.580
H  49.166  57.257  59.842
H  48.836  56.576  61.159
H  52.456  48.412  28.606
H  54.539  50.737  72.289
H  27.657  51.821  62.798
H  53.283  49.899  72.128
H  52.640  49.912  28.756
H  63.360  67.103  57.019
H  64.120  65.822  57.314
H  62.420  26.103  54.942
H  64.856  54.715  60.350
H  64.689  53.211  60.483
H  57.793  76.989  46.659
H  47.517  50.526  57.331
H  36.734  55.108  59.993
H  29.477  50.486  37.119
H  49.836  30.310  46.277
H  65.561  27.987  43.050
H  27.444  65.183  57.318
H  61.758  26.190  43.938
H  76.369  56.662  52.318
H  74.870  56.891  52.409
H  30.393  60.477  39.352
H  27.783  51.795  44.153
H  26.281  52.019  44.145
H  31.457  61.483  39.757
H  30.335  52.209  46.263
H  62.455  24.890  43.574
H  28.948  51.757  46.686
H  51.127  54.581  55.525
H  45.508  74.345  62.633
H  46.532  73.232  62.763
H  34.976  30.389  41.866
H  58.844  68.798  53.562
H  59.938  69.750  53.111
H  33.550  30.850  42.111
H  64.254  28.756  43.130
H  44.395  50.602  25.565
H  44.211  52.029  26.053
H  49.249  31.678  46.577
H  28.842  51.862  37.216
H  77.377  46.856  41.989
H  49.811  45.563  50.910
H  37.253  55.153  54.533
H  60.627  68.235  61.466
H  26.050  45.531  57.078
H  27.263  45.089  56.278
H  65.964  63.257  39.895
H  47.287  75.485  47.249
H  47.197  74.352  48.255
H  45.898  38.863  25.449
H  52.605  53.958  57.397
H  39.239  75.232  49.489
H  39.003  76.682  49.872
H  45.783  40.004  26.444
H  72.000  43.571  52.357
H  73.363  42.907  52.456
H  72.851  65.312  46.405
H  74.553  55.919  41.845
H  74.166  55.302  40.512
H  72.686  65.553  47.896
H  57.331  70.644  59.954
H  36.187  37.673  36.456
H  35.808  37.235  37.860
H  65.275  63.232  38.542
H  56.149  70.377  59.040
H  35.792  54.810  54.764
H  53.767  69.815  67.938
H  59.186  45.698  75.500
H  59.956  45.036  76.629
H  41.865  45.587  28.936
H  54.390  44.496  37.578
H  54.286  44.810  36.096
H  41.872  46.912  28.194
H  68.182  63.056  60.003
H  24.764  47.301  56.445
H  25.514  48.219  57.394
H  66.930  62.804  60.823
H  26.724  38.146  54.134
H  25.538  38.883  54.732
H  42.930  26.565  41.912
H  37.165  63.032  59.378
H  35.791  62.417  59.176
H  50.294  56.660  48.817
H  41.424  26.369  41.914
H  39.138  57.662  27.947
H  40.625  57.873  28.172
H  45.145  70.679  66.445
H  55.134  70.025  67.311
H  60.421  67.679  60.068
H  32.933  44.123  30.811
H  46.924  59.319  49.285
H  47.593  44.314  50.765
H  50.168  43.298  73.254
H  51.686  52.916  31.975
H  54.260  62.625  31.026
H  48.783  32.128  43.821
H  54.071  62.688  29.520
H  53.529  49.255  46.860
H  66.957  54.023  70.034
H  66.885  52.744  69.219
H  63.390  68.156  32.134
H  77.554  54.625  48.506
H  76.926  53.274  48.802
H  61.978  67.628  32.320
H  23.726  50.818  41.051
H  56.502  49.988  33.544
H  55.170  50.680  33.778
H  22.620  51.859  41.067
H  58.095  39.040  64.167
H  58.331  40.196  65.124
H  76.697  47.933  42.816
H  43.340  56.484  60.668
H  42.975  57.890  61.111
H  50.225  42.121  72.297
H  47.347  59.094  47.843
H  53.099  52.483  31.624
H  47.569  67.430  34.693
H  67.308  64.303  37.714
H  53.675  60.060  35.224
H  68.783  64.476  37.398
H  43.141  50.784  34.155
H  43.330  47.334  72.046
H  42.494  48.331  71.263
H  43.441  50.145  32.810
H  61.868  70.578  58.258
H  63.052  69.801  58.805
H  55.048  59.534  35.604
H  44.355  71.479  67.466
H  55.222  63.812  35.254
H  54.909  62.402  34.784
H  59.033  39.880  40.726
H  48.550  29.733  51.527
H  49.020  28.392  52.065
H  60.243  39.954  41.641
H  44.026  49.252  27.262
H  44.518  49.966  28.509
H  47.936  53.024  58.534
H  47.797  31.798  44.928
H  48.259  66.343  35.498
H  33.703  66.029  61.969
H  34.227  43.963  31.590
H  34.850  43.391  52.336
H  40.498  38.324  31.534
H  42.513  60.266  29.951
H  43.138  61.551  29.435
H  40.862  36.851  31.598
H  34.642  70.333  60.931
H  59.707  41.146  68.539
H  58.559  40.156  68.629
H  34.933  68.873  60.632
H  42.595  39.779  61.443
H  52.767  61.874  34.372
H  41.235  39.526  62.069
H  51.476  59.531  73.829
H  50.865  60.921  73.807
H  50.906  48.382  45.863
H  54.080  72.405  52.630
H  56.860  59.045  24.128
H  55.721  60.048  24.063
H  23.568  47.685  49.177
H  30.842  62.633  32.500
H  31.678  63.899  32.563
H  53.147  73.149  53.571
H  51.275  62.160  34.363
H  53.648  51.217  54.314
H  45.245  36.179  62.327
H  57.063  55.246  63.993
H  38.213  40.449  37.700
H  51.278  55.837  51.105
H  38.362  42.561  69.005
H  38.975  41.922  70.239
H  30.324  34.029  45.540
H  67.528  40.222  63.980
H  67.032  41.630  64.259
H  30.743  35.298  46.261
H  37.777  73.340  38.339
H  36.794  72.187  38.229
H  42.256  54.185  23.183
H  41.946  54.743  24.561
H  47.036  43.262  74.581
H  45.547  43.485  74.382
H  60.203  47.252  27.181
H  42.386  54.555  52.010
H  41.371  53.965  51.047
H  61.341  48.254  27.274
H  44.616  37.317  61.542
H  66.678  59.608  39.662
H  69.868  42.483  62.819
H  73.282  48.068  38.985
H  22.476  47.044  48.339
H  73.765  49.444  39.407
H  47.833  31.934  63.482
H  35.941  59.571  48.441
H  63.065  51.726  72.882
H  34.178  72.461  42.605
H  35.446  71.631  42.505
H  64.058  52.863  72.714
H  69.922  51.233  37.075
H  71.440  51.267  37.063
H  48.406  31.094  62.353
H  53.406  70.897  59.002
H  53.801  71.796  60.160
H  40.080  48.255  58.596
H  44.762  54.875  22.041
H  45.595  54.123  23.064
H  41.103  49.338  58.888
H  42.071  43.704  25.944
H  41.503  44.186  27.267
H  69.988  41.552  36.170
H  70.107  41.769  34.672
H  54.436  55.200  70.535
H  55.914  55.138  70.879
H  35.045  58.346  48.433
H  55.890  54.289  64.118
H  55.236  54.601  54.815
H  27.748  55.321  59.153
H  68.977  42.060  61.665
H  51.764  62.316  44.068
H  50.472  63.017  43.684
H  49.964  54.621  50.859
H  52.996  58.483  63.727
H  53.729  59.712  63.219
H  63.284  65.606  46.025
H  55.233  47.918  66.211
H  34.222  58.802  56.839
H  33.928  57.313  56.884
H  61.875  66.096  46.307
H  23.917  62.328  49.208
H  24.515  63.302  48.208
H  66.446  58.729  38.446
H  30.213  50.563  40.428
H  29.982  51.086  41.835
H  55.767  46.830  65.296
H  34.813  67.242  50.627
H  38.785  66.494  36.458
H  39.439  66.852  35.134
H  36.262  66.790  50.680
H  27.525  54.065  59.976
H  56.530  51.468  66.706
H  50.888  72.654  59.994
H  49.908  73.776  60.290
H  46.728  33.729  35.982
H  37.473  69.055  36.158
H  37.154  67.854  37.031
H  45.992  34.926  35.406
H  71.198  49.022  39.324
H  70.341  48.338  38.273
H  39.492  35.856  47.604
H  63.878  25.701  54.807
H  53.668  39.076  26.316
H  54.832  39.785  25.648
H  71.542  50.578  41.266
H  52.551  38.331  51.652
H  52.309  37.266  52.707
H  72.096  49.520  42.203
H  54.176  69.699  49.875
H  38.142  35.865  48.299
H  55.593  69.437  49.395
H  50.145  50.156  56.452
H  42.573  56.542  46.350
H  41.572  57.683  46.378
H  71.143  60.633  43.739
H  74.400  58.791  57.712
H  64.857  56.530  58.063
H  73.758  59.867  58.571
H  61.363  71.667  46.244
H  36.027  42.800  51.581
H  65.161  57.173  36.512
H  56.070  57.841  65.259
H  54.717  58.532  65.261
H  66.366  56.679  37.294
H  45.156  58.413  40.944
H  72.683  45.983  63.443
H  72.668  44.490  63.166
H  46.340  59.297  40.592
H  33.732  40.652  34.122
H  32.668  41.065  35.123
H  49.060  54.111  56.133
H  49.112  69.992  48.298
H  61.584  73.065  45.693
H  50.217  68.951  48.254
H  48.272  48.931  27.349
H  27.922  57.249  45.543
H  27.568  58.700  45.819
H  46.929  49.641  27.338
H  27.156  57.344  59.901
H  26.034  58.346  59.698
H  51.494  56.201  47.539
H  56.287  76.808  46.598
H  64.320  57.358  56.909
H  30.194  67.042  51.746
H  74.211  57.164  59.193
H  74.827  54.617  58.679
H  75.335  53.237  58.301
H  74.718  57.492  60.587
H  41.431  62.378  46.784
H  40.582  62.226  45.535
H  51.384  43.011  57.447
H  22.332  55.241  56.319
H  22.679  54.368  57.512
H  52.887  42.798  57.405
H  54.199  75.697  46.938
H  69.825  51.744  48.029
H  71.287  51.360  48.169
H  54.243  74.299  46.346
H  55.476  46.177  50.024
H  54.223  45.319  49.988
H  57.630  51.259  56.147
H  33.222  36.713  60.996
H  37.475  41.694  38.161
H  32.875  35.278  61.348
H  56.297  49.967  66.724
H  56.710  66.603  39.220
H  69.648  60.383  43.839
H  56.395  66.163  40.640
H  56.462  34.452  37.321
H  41.653  24.371  50.746
H  42.829  24.128  49.817
H  28.836  66.822  51.104
H  64.530  31.997  47.018
H  63.232  31.423  47.560
H  33.249  46.317  61.343
H  65.383  68.502  59.085
H  65.255  67.007  59.322
H  50.852  52.155  50.786
H  32.440  47.549  61.710
H  49.625  29.380  41.488
H  49.937  30.480  42.488
H  40.697  62.613  27.609
H  60.173  75.099  40.662
H  61.494  74.713  41.304
H  49.904  32.808  62.836
H  54.472  29.544  45.633
H  40.671  61.877  28.937
H  54.378  28.197  44.938
H  48.849  33.178  61.809
H  55.764  34.377  38.667
H  53.315  53.824  53.762
H  34.721  49.736  50.412
H  60.702  48.127  62.550
H  64.315  27.829  49.077
H  50.919  71.133  42.719
H  44.827  35.805  51.174
H  55.982  32.894  42.504
H  55.441  33.255  43.877
H  46.055  36.637  50.849
H  51.330  49.833  31.204
H  51.625  51.195  30.602
H  63.153  37.592  56.922
H  46.791  71.289  45.776
H  50.982  70.301  41.450
H  47.518  69.956  45.725
H  62.325  38.865  56.935
H  37.307  62.338  72.202
H  38.358  61.244  72.142
H  37.202  36.222  59.808
H  57.503  32.698  36.494
H  57.478  31.318  37.128
H  33.975  61.552  61.382
H  34.188  62.854  60.628
H  69.766  52.788  44.173
H  37.339  34.831  59.214
H  34.318  66.534  46.093
H  50.001  56.851  41.436
H  51.446  29.172  34.365
H  57.268  56.080  38.617
H  60.911  29.148  36.521
H  57.233  54.572  38.796
H  61.421  27.720  36.598
H  23.156  50.624  49.310
H  24.198  49.751  48.633
H  57.466  45.708  62.655
H  70.375  48.290  69.265
H  71.286  47.229  68.673
H  52.002  29.924  33.168
H  56.299  46.620  62.988
H  62.500  53.147  48.548
H  46.345  42.774  36.374
H  76.742  45.818  54.607
H  75.623  46.300  55.513
H  75.093  40.570  58.145
H  46.866  70.100  63.435
H  46.968  71.265  64.403
H  49.175  55.581  41.552
H  73.935  41.361  57.563
H  60.993  53.336  48.529
H  74.158  62.403  40.230
H  73.461  63.749  40.333
H  34.240  66.785  47.589
H  65.970  53.700  58.758
H  66.384  54.943  57.991
H  51.996  59.137  61.810
H  71.065  59.259  64.346
H  39.907  46.938  39.678
H  70.827  60.553  65.103
H  40.031  47.803  40.920
H  59.461  57.353  69.409
H  59.131  55.871  69.420
H  50.743  58.516  62.403
H  61.452  41.697  42.244
H  43.450  54.072  32.251
H  51.624  62.050  36.554
H  62.793  41.322  41.637
H  34.199  43.833  29.034
H  34.758  42.449  29.313
H  45.915  49.214  34.700
H  28.906  40.156  53.835
H  28.221  40.692  55.079
H  38.693  64.204  46.029
H  42.234  53.207  31.971
H  57.060  61.458  70.391
H  57.393  62.312  69.180
H  51.900  29.349  53.754
H  67.562  70.805  40.432
H  67.777  70.744  41.934
H  70.089  54.260  44.360
H  61.715  66.944  55.558
H  45.490  50.214  33.639
H  62.735  65.850  55.294
H  50.528  66.690  47.670
H  30.821  59.229  31.071
H  31.987  58.287  31.317
H  50.802  66.306  49.114
H  44.432  63.459  52.981
H  44.580  64.970  53.010
H  51.964  27.973  53.115
H  56.493  59.211  38.800
H  57.863  58.909  39.382
H  46.925  47.624  66.897
H  66.705  44.851  35.855
H  67.015  46.334  35.753
H  46.174  47.529  65.580
H  49.718  29.823  54.270
H  48.284  30.321  54.237
H  72.002  40.262  54.152
H  72.397  42.727  64.499
H  38.043  33.896  38.739
H  71.885  41.559  53.370
H  66.812  46.300  70.259
H  48.612  38.745  37.725
H  48.572  39.346  39.119
H  45.428  73.171  43.099
H  35.379  32.294  61.640
H  36.662  32.235  62.450
H  44.248  73.543  43.979
H  36.453  73.853  56.297
H  59.555  28.983  52.921
H  53.866  57.270  60.781
H  60.694  29.925  52.572
H  75.047  38.878  44.697
H  58.521  56.391  76.523
H  62.050  35.534  64.365
H  62.086  34.031  64.580
H  40.287  60.022  27.812
H  57.679  55.128  76.491
H  27.613  42.541  49.142
H  28.316  43.886  49.193
H  38.830  60.449  27.794
H  75.735  37.755  45.453
H  64.500  42.452  49.293
H  66.416  45.702  71.598
H  38.817  58.546  67.044
H  68.211  33.381  65.003
H  66.866  33.021  65.611
H  64.494  44.506  39.890
H  22.313  46.800  56.510
H  22.605  46.933  57.995
H  61.811  47.628  42.321
H  45.987  76.821  41.772
H  46.812  77.374  42.921
H  60.060  61.316  64.752
H  55.021  57.679  61.677
H  36.407  33.866  65.267
H  61.469  60.991  65.217
H  35.332  52.755  46.392
H  34.124  53.641  46.644
H  61.969  49.066  41.859
H  60.824  55.595  59.465
H  62.162  55.282  60.110
H  37.822  59.454  67.747
H  74.964  45.681  48.038
H  75.905  46.781  48.498
H  37.083  32.537  65.554
H  64.941  43.766  48.672
H  57.145  36.626  28.214
H  40.628  23.668  48.083
H  64.035  61.994  50.076
H  70.449  56.870  61.144
H  64.271  27.166  45.068
H  30.041  49.453  45.866
H  29.304  50.434  44.971
H  64.287  25.978  44.123
H  54.206  34.766  46.511
H  54.999  33.712  47.265
H  55.957  35.847  51.288
H  69.260  57.764  61.452
H  31.593  59.294  52.022
H  41.775  55.301  41.130
H  45.417  57.425  49.012
H  44.606  56.163  48.773
H  42.885  55.445  42.156
H  27.721  48.576  43.969
H  26.547  48.869  43.051
H  56.984  35.924  52.404
H  40.627  45.882  25.548
H  42.022  46.462  25.703
H  31.561  59.566  50.528
H  48.489  66.030  29.426
H  55.115  67.328  47.615
H  56.197  66.382  48.105
H  41.620  22.595  48.497
H  58.359  36.205  27.405
H  51.296  39.825  35.118
H  50.709  38.443  35.350
H  47.343  39.736  73.844
H  55.161  64.224  45.945
H  53.806  64.773  45.536
H  47.158  55.091  26.512
H  48.567  38.854  74.020
H  49.932  25.198  63.035
H  48.813  24.187  62.852
H  47.462  54.049  27.574
H  69.625  31.343  45.432
H  70.197  29.973  45.110
H  28.478  50.031  65.579
H  26.984  50.251  65.744
H  64.824  60.698  50.149
H  65.894  68.354  52.763
H  23.076  50.791  56.144
H  24.464  50.482  56.676
H  67.402  68.534  52.748
H  36.831  33.105  39.198
H  64.317  43.129  39.276
H  50.107  62.084  36.498
H  38.409  62.876  45.351
H  44.206  46.609  38.076
H  38.295  65.428  50.117
H  38.266  49.035  57.503
H  38.099  50.541  57.398
H  43.471  54.553  34.484
H  44.172  55.900  34.478
H  43.991  75.847  41.844
H  74.856  54.730  49.913
H  73.391  55.074  49.704
H  45.694  46.632  37.771
H  44.010  74.329  41.879
H  43.625  28.352  39.980
H  54.813  36.690  25.387
H  54.240  37.722  24.431
H  40.409  29.397  46.522
H  42.577  35.751  35.021
H  44.083  35.898  34.891
H  41.415  28.293  46.248
H  51.369  45.407  67.620
H  51.777  44.233  66.747
H  43.927  26.863  39.972
H  30.348  48.892  32.189
H  38.852  65.226  51.515
H  45.181  52.905  33.346
H  43.312  31.797  32.883
H  39.438  33.066  40.963
H  41.847  32.180  32.775
H  57.709  60.843  66.190
H  42.508  38.687  71.470
H  42.905  37.602  70.484
H  56.236  60.492  66.085
H  65.782  59.407  35.020
H  66.974  58.560  35.430
H  45.892  54.185  32.940
H  33.686  53.459  63.875
H  71.523  46.318  66.680
H  41.471  63.138  70.628
H  58.591  65.480  39.489
H  58.545  63.964  39.566
H  42.893  63.671  70.682
H  66.773  73.438  49.227
H  65.831  72.387  49.788
H  73.793  36.627  51.954
H  34.253  53.092  62.515
H  70.014  46.454  66.792
H  38.719  41.813  40.338
H  39.548  42.905  40.992
H  59.986  76.905  46.961
H  56.155  38.031  51.049
H  43.173  68.226  53.175
H  57.569  52.964  36.849
H  54.701  44.182  62.330
H  57.492  51.735  37.739
H  45.019  40.807  52.711
H  57.103  61.787  53.898
H  56.321  63.084  53.782
H  43.528  40.527  52.641
H  55.810  39.098  52.074
H  58.441  38.080  48.960
H  29.092  40.275  47.309
H  30.210  39.364  47.787
H  62.655  41.812  65.332
H  62.491  41.306  63.910
H  62.065  55.110  35.550
H  59.121  75.270  44.899
H  60.205  74.606  44.067
H  62.317  53.697  35.054
H  52.633  58.573  26.170
H  58.867  39.311  48.180
H  32.994  60.840  38.320
H  66.208  43.663  66.146
H  65.896  43.935  64.685
H  60.424  54.079  64.041
H  29.769  34.555  63.587
H  58.938  53.767  64.072
H  60.258  75.486  47.428
H  47.931  52.021  74.001
H  48.544  52.609  75.260
H  30.605  35.749  63.160
H  57.513  46.716  45.269
H  57.151  48.004  45.988
H  47.109  41.678  24.852
H  49.916  72.436  52.638
H  33.569  38.245  37.226
H  33.398  39.754  37.237
H  45.609  41.894  24.749
H  50.011  33.116  31.516
H  48.713  32.992  30.738
H  56.194  43.929  62.443
H  52.008  62.149  71.633
H  51.930  60.841  70.865
H  43.064  66.817  53.729
H  33.472  62.172  38.870
H  40.270  33.791  42.007
H  71.211  43.600  64.869
H  45.103  69.201  33.826
H  68.031  35.177  39.771
H  64.782  60.642  47.755
H  28.382  66.109  54.229
H  29.175  65.286  53.228
H  64.858  62.132  48.038
H  35.825  57.749  61.713
H  36.752  58.801  61.131
H  49.462  67.170  29.184
H  38.320  64.363  29.929
H  37.755  65.740  29.629
H  35.113  59.276  66.571
H  71.578  46.203  38.064
H  33.569  38.850  41.876
H  70.130  46.249  37.608
H  47.284  44.243  34.593
H  47.000  43.210  33.517
H  56.138  44.738  67.962
H  57.652  44.740  67.840
H  67.212  40.133  43.472
H  67.730  40.542  42.104
H  51.373  56.572  64.331
H  32.138  39.348  41.985
H  41.517  36.814  36.638
H  66.036  38.947  67.084
H  65.612  37.761  67.934
H  41.815  54.677  30.390
H  42.686  55.798  29.850
H  41.927  59.282  74.126
H  43.423  59.548  74.108
H  63.074  51.066  64.223
H  57.875  61.335  50.763
H  45.809  55.929  29.748
H  46.826  55.191  30.601
H  61.883  50.667  65.076
H  35.690  60.000  67.775
H  37.713  70.233  38.659
H  57.255  62.544  50.084
H  72.472  33.197  49.994
H  73.780  33.669  49.383
H  76.167  46.513  60.963
H  41.487  54.352  66.472
H  41.950  55.232  67.619
H  75.590  45.571  59.921
H  54.737  78.285  47.196
H  54.149  77.719  45.916
H  38.712  69.317  39.344
H  40.701  35.665  37.204
H  50.306  57.651  64.378
H  61.229  35.951  32.117
H  75.022  35.743  51.838
H  39.763  53.414  44.703
H  71.809  33.791  47.156
H  59.990  46.227  34.981
H  61.455  45.839  35.076
H  70.078  36.543  37.933
H  69.582  37.944  37.620
H  39.072  67.617  59.338
H  72.720  40.018  52.041
H  38.743  53.903  45.716
H  71.084  37.049  64.854
H  40.221  66.626  59.280
H  51.609  64.733  40.483
H  51.324  65.669  39.322
H  72.652  38.587  51.539
H  53.597  70.911  34.802
H  52.202  71.296  35.264
H  67.814  36.341  38.821
H  54.516  57.202  33.540
H  56.016  56.967  33.527
H  70.878  38.398  65.521
H  73.326  33.724  47.140
H  59.214  56.161  66.070
H  57.892  56.630  65.489
H  60.146  34.888  32.057
H  47.342  27.605  58.366
H  39.199  27.719  57.364
H  39.415  26.297  57.849
H  56.940  57.967  44.337
H  50.337  36.391  44.496
H  50.347  37.882  44.781
H  56.174  58.890  45.269
H  48.611  26.842  58.708
H  68.920  31.495  47.570
H  68.793  29.991  47.737
H  37.012  32.678  51.759
H  35.766  32.422  52.588
H  65.247  49.905  64.826
H  60.680  55.175  74.407
H  62.165  55.456  74.256
H  44.837  59.828  32.121
H  65.182  51.421  64.877
H  36.488  66.658  44.875
H  36.498  68.152  44.602
H  46.297  59.453  32.307
H  45.462  68.120  34.831
H  65.060  28.452  47.909
H  63.142  55.790  52.040
H  62.996  55.156  50.668
H  41.024  43.678  69.851
H  41.814  42.393  70.030
H  33.967  50.691  46.451
H  70.676  47.072  54.053
H  41.142  30.513  68.956
H  41.808  31.877  68.909
H  34.847  49.850  47.359
H  28.932  57.254  34.635
H  29.321  58.526  35.369
H  71.105  48.146  53.068
H  44.598  71.665  51.695
H  38.995  28.324  52.582
H  43.106  71.532  51.947
H  67.463  53.326  27.420
H  66.577  54.383  26.786
H  30.518  48.127  33.489
H  69.447  58.775  46.765
H  70.700  59.532  46.360
H  51.275  63.505  49.019
H  45.359  39.357  58.297
H  37.747  28.522  51.740
H  47.681  27.239  41.141
H  70.148  50.728  55.261
H  44.730  61.839  40.898
H  50.649  43.047  36.469
H  33.829  54.491  48.694
H  59.432  39.224  54.615
H  68.250  55.805  42.318
H  69.426  56.190  43.198
H  34.362  47.513  52.059
H  58.307  45.966  70.967
H  58.690  44.539  71.314
H  33.562  46.345  52.608
H  69.895  50.061  56.601
H  39.747  56.148  39.110
H  60.510  46.007  30.424
H  46.226  41.710  77.385
H  47.294  41.326  76.375
H  57.480  61.384  57.351
H  34.966  54.698  27.228
H  35.317  53.725  28.340
H  57.259  60.015  57.971
H  61.040  46.880  29.299
H  46.097  62.501  40.882
H  41.260  56.066  39.016
H  47.224  28.549  40.523
H  52.790  63.580  48.957
H  50.702  78.027  46.608
H  65.356  37.907  58.872
H  59.463  38.471  57.069
H  58.654  64.099  52.945
H  57.326  64.834  52.905
H  48.285  60.189  29.899
H  33.219  53.519  49.690
H  41.170  33.624  70.566
H  40.576  32.233  70.698
H  34.970  51.213  61.417
H  66.427  38.853  58.359
H  66.670  38.614  29.376
H  35.802  50.867  60.195
H  48.163  36.193  39.993
H  49.338  35.466  39.363
H  46.623  25.807  37.344
H  47.844  32.516  58.998
H  48.968  33.429  59.455
H  53.592  52.949  74.495
H  31.496  53.928  55.834
H  30.228  54.750  55.980
H  65.513  39.596  29.332
H  58.623  39.400  57.928
H  60.925  30.897  57.610
H  61.699  30.685  56.321
H  51.876  77.085  46.402
H  45.637  40.850  58.301
H  54.034  64.341  38.456
H  54.544  65.634  39.068
H  47.385  24.298  60.423
H  36.339  63.389  57.065
H  37.611  62.584  57.271
H  48.208  25.551  60.669
H  37.678  51.003  47.592
H  37.512  52.372  46.955
H  61.250  51.289  35.070
H  66.195  43.020  38.135
H  61.375  51.229  36.583
H  65.203  43.666  37.183
H  54.526  76.226  51.343
H  36.187  39.043  43.901
H  35.350  40.053  43.136
H  54.016  74.851  51.735
H  44.438  64.102  68.757
H  44.242  62.979  67.753
H  49.543  60.183  30.751
H  51.524  44.238  36.821
H  53.645  53.106  72.985
H  39.113  40.616  68.188
H  46.695  47.905  61.894
H  58.650  46.475  32.313
H  58.093  47.781  32.852
H  62.899  72.215  50.683
H  59.575  72.156  61.214
H  60.771  72.544  62.066
H  63.788  73.375  50.269
H  62.050  33.523  47.106
H  61.990  34.581  48.194
H  66.426  26.780  45.276
H  49.998  53.803  57.675
H  50.140  41.675  34.826
H  67.605  43.630  30.018
H  50.824  54.875  67.762
H  51.861  53.775  67.620
H  66.315  44.160  29.417
H  66.378  27.120  46.755
H  34.971  65.480  56.706
H  33.478  65.672  56.907
H  28.567  34.588  55.823
H  28.666  35.709  54.802
H  48.653  41.374  34.751
H  37.815  50.019  24.498
H  61.806  47.099  62.734
H  29.372  47.839  63.736
H  35.606  50.880  50.877
H  54.463  31.721  37.613
H  53.851  30.793  38.648
H  42.134  25.621  37.417
H  38.008  44.174  64.731
H  43.220  26.683  37.428
H  38.236  45.669  64.876
H  56.597  35.234  63.278
H  52.718  49.741  61.392
H  28.094  48.654  63.834
H  51.523  49.157  60.660
H  50.925  70.229  38.575
H  52.101  69.607  39.307
H  31.164  28.513  49.856
H  29.441  34.386  43.349
H  30.111  35.650  43.858
H  52.904  30.585  60.403
H  56.808  55.354  40.812
H  58.306  55.107  40.775
H  52.039  30.027  61.520
H  56.227  34.550  61.974
H  75.800  54.094  43.094
H  76.777  53.912  44.242
H  64.729  33.228  66.092
H  49.086  59.214  51.969
H  72.156  63.240  56.181
H  71.217  63.370  57.367
H  48.918  58.254  53.133
H  33.747  38.300  44.210
H  32.669  39.206  44.780
H  37.721  55.995  73.684
H  69.437  36.386  43.907
H  37.137  56.412  75.023
H  55.181  27.783  40.886
H  70.917  36.449  44.241
H  55.492  39.304  62.139
H  57.003  39.215  62.015
H  54.667  31.450  48.187
H  43.285  75.768  58.543
H  43.135  74.352  58.015
H  58.090  38.741  55.137
H  55.732  59.148  33.549
H  57.000  59.765  34.112
H  38.768  39.731  69.372
H  56.093  31.973  48.154
H  55.637  29.187  40.530
H  53.076  76.696  49.667
H  45.375  75.335  55.421
H  38.410  51.108  25.374
H  32.577  43.399  33.850
H  34.055  43.126  33.635
H  63.387  32.807  66.666
H  62.752  50.101  27.841
H  62.175  51.498  27.987
H  66.339  31.044  48.545
H  47.736  45.464  31.719
H  38.769  47.408  35.757
H  46.405  44.749  31.569
H  65.102  30.328  49.058
H  45.053  55.486  67.293
H  45.827  54.519  68.172
H  54.384  58.423  52.746
H  55.575  58.119  51.855
H  59.434  38.439  70.016
H  51.690  76.083  49.777
H  77.883  43.161  47.059
H  76.722  42.199  47.237
H  60.904  38.795  69.887
H  44.189  74.387  55.368
H  48.188  48.174  61.965
H  47.589  69.124  43.409
H  46.325  27.176  37.929
H  72.032  48.049  43.877
H  47.590  54.415  34.970
H  46.692  53.277  35.423
H  55.610  59.365  68.012
H  50.305  32.227  57.889
H  50.508  31.265  56.732
H  68.004  29.789  40.206
H  40.094  60.579  64.014
H  41.552  60.379  63.638
H  66.649  29.107  40.141
H  35.909  28.941  45.776
H  68.781  44.707  60.538
H  55.160  60.785  68.304
H  47.045  73.464  38.102
H  46.143  72.419  38.736
H  51.855  62.024  39.248
H  35.604  45.583  59.521
H  36.952  44.888  59.608
H  53.330  61.770  39.504
H  70.285  48.967  51.162
H  36.850  63.194  63.695
H  69.954  43.749  60.654
H  69.229  49.943  50.672
H  34.703  35.120  50.286
H  36.057  27.435  45.652
H  39.694  61.844  69.734
H  42.081  73.855  43.108
H  73.689  46.942  60.376
H  74.013  46.688  61.838
H  40.245  60.629  70.459
H  23.563  41.809  45.481
H  23.111  41.326  44.114
H  35.393  70.153  56.237
H  40.823  57.189  62.371
H  33.283  35.267  49.765
H  40.362  56.116  61.400
H  30.030  56.033  68.758
H  30.538  56.837  67.573
H  70.839  53.188  51.346
H  29.392  52.872  43.109
H  28.642  53.816  44.032
H  65.840  48.064  36.436
H  62.475  44.947  70.163
H  66.272  48.343  35.007
H  62.046  43.767  69.309
H  70.473  54.656  51.476
H  45.621  41.857  37.343
H  70.215  50.549  69.436
H  69.518  51.395  70.487
H  44.122  58.893  51.990
H  57.811  46.017  34.294
H  56.917  44.788  34.298
H  58.401  57.716  59.400
H  44.404  57.970  53.163
H  44.201  51.511  30.088
H  44.008  51.868  31.552
H  58.217  56.565  60.373
H  58.999  56.547  45.275
H  43.773  58.237  34.915
H  59.686  56.347  46.614
H  37.214  51.628  30.496
H  37.260  72.620  56.663
H  68.705  53.405  51.874
H  38.323  35.168  55.500
H  36.900  34.637  55.498
H  69.144  54.116  53.142
H  52.610  75.848  54.731
H  52.176  77.295  54.572
H  48.935  69.476  42.801
H  36.002  52.304  29.880
H  45.090  58.034  34.185
H  55.163  62.128  72.856
H  45.257  73.338  53.729
H  55.280  27.767  51.883
H  48.701  63.202  40.938
H  49.857  63.923  41.608
H  55.034  27.071  53.211
H  37.963  64.218  63.828
H  33.985  51.341  64.728
H  34.302  49.856  64.752
H  39.533  55.687  29.088
H  40.941  55.620  28.522
H  56.505  26.442  44.802
H  48.915  40.467  53.956
H  48.591  39.001  54.185
H  58.753  58.083  41.217
H  56.844  27.877  44.441
H  31.132  36.311  49.144
H  29.877  37.113  49.444
H  60.022  57.418  40.714
H  68.362  56.811  50.159
H  69.655  57.570  50.402
H  55.644  62.852  74.101
H  46.608  73.942  53.387
H  47.273  53.004  71.872
H  70.945  49.088  44.088
H  47.334  54.219  72.781
H  43.300  56.069  72.036
H  41.758  46.071  38.864
H  43.784  25.990  35.244
H  58.575  41.017  71.736
H  57.205  41.612  71.461
H  61.213  59.530  59.155
H  44.395  68.569  47.602
H  42.877  68.630  47.615
H  44.136  67.750  42.563
H  54.070  26.722  61.257
H  42.969  45.348  39.428
H  54.855  25.974  62.321
H  61.466  58.100  67.362
H  61.037  57.394  66.088
H  50.528  47.547  34.998
H  58.016  52.131  65.226
H  49.212  46.859  34.682
H  58.423  50.668  65.243
H  37.990  64.956  70.221
H  70.542  43.312  43.842
H  71.656  44.250  44.271
H  45.271  66.769  42.800
H  36.892  63.909  70.165
H  39.152  47.897  34.371
H  62.918  44.977  61.962
H  53.575  33.178  69.457
H  54.912  33.891  69.363
H  69.263  40.928  65.446
H  48.853  30.728  29.908
H  49.622  30.730  28.598
H  73.531  40.260  40.319
H  69.381  42.393  65.064
H  60.235  41.193  66.230
H  60.737  42.627  66.235
H  45.168  25.469  35.585
H  72.182  40.059  40.986
H  49.847  35.341  32.104
H  32.783  41.632  48.116
H  47.855  40.472  36.593
H  46.603  39.614  36.554
H  31.439  41.185  47.569
H  23.659  49.304  59.539
H  25.157  49.065  59.489
H  61.853  60.771  59.753
H  62.733  43.484  61.756
H  48.735  36.003  31.309
H  69.896  38.627  58.790
H  70.826  37.429  58.729
H  58.313  58.165  36.854
H  27.446  50.088  61.396
H  61.913  70.167  40.024
H  61.795  68.811  39.351
H  47.557  52.831  33.426
H  49.010  52.390  33.416
H  67.075  48.516  45.041
H  65.037  65.601  33.837
H  64.338  65.815  35.168
H  34.623  51.159  53.418
H  51.934  55.783  60.774
H  66.596  49.919  45.370
H  41.484  65.540  54.575
H  35.356  50.691  54.664
H  64.365  66.198  44.152
H  65.728  66.722  44.572
H  58.072  53.127  23.068
H  56.552  65.032  61.658
H  55.399  66.000  61.459
H  57.922  53.566  24.514
H  44.055  55.302  73.108
H  41.425  66.753  55.488
H  68.049  38.490  54.088
H  69.145  38.198  55.098
H  50.949  56.406  61.748
H  37.709  24.184  48.929
H  36.461  24.514  49.730
H  61.827  72.163  41.989
H  31.938  65.247  50.717
H  32.578  64.417  49.618
H  60.396  72.672  41.993
H  54.133  67.289  68.108
H  54.013  66.558  69.433
H  56.854  58.406  36.509
H  45.091  63.107  59.027
H  45.991  62.268  58.137
H  41.732  31.202  61.766
H  45.995  33.882  51.909
H  46.620  33.032  50.817
H  42.247  29.880  61.225
H  45.204  47.131  34.858
H  34.240  69.305  56.745
H  44.993  45.627  34.845
H  26.605  48.831  61.253
H  67.029  51.297  54.273
H  68.449  51.820  54.396
H  41.334  74.531  41.971
H  48.708  23.078  47.008
H  49.919  22.256  46.603
H  67.501  37.562  37.017
H  50.287  43.511  31.541
H  51.717  43.896  31.206
H  39.956  33.892  52.039
H  39.203  32.588  52.236
H  59.195  72.653  43.837
H  59.474  71.231  43.383
H  77.533  47.888  50.611
H  58.793  38.927  29.375
H  57.925  39.645  28.358
H  76.250  48.696  50.696
H  23.635  45.215  50.895
H  24.210  45.066  52.293
H  53.652  51.827  57.739
H  24.465  43.765  49.450
H  60.557  39.313  63.532
H  60.415  37.817  63.315
H  40.661  37.531  33.908
H  41.836  30.616  41.564
H  41.885  31.822  40.643
H  39.586  36.613  34.463
H  55.662  57.423  23.229
H  42.013  55.195  62.971
H  65.543  60.304  44.827
H  26.395  49.146  47.893
H  41.492  55.071  64.392
H  57.531  57.983  72.369
H  50.827  27.477  65.411
H  58.743  26.851  47.874
H  58.032  26.465  46.589
H  56.279  58.667  71.848
H  36.225  31.774  54.999
H  35.345  32.975  55.300
H  33.113  53.670  60.550
H  48.350  58.456  40.900
H  47.607  57.156  40.645
H  51.429  26.447  47.387
H  49.269  60.976  25.093
H  45.288  28.504  32.819
H  43.841  28.234  33.190
H  49.815  61.739  26.287
H  49.820  32.925  66.111
H  49.622  33.708  64.825
H  52.933  26.280  47.251
H  39.358  43.904  60.851
H  49.316  27.633  65.426
H  40.098  44.590  59.717
H  26.965  50.520  47.590
H  39.603  58.062  34.344
H  54.482  58.371  23.355
H  39.666  38.844  52.496
H  52.707  36.655  35.077
H  46.628  33.055  31.447
H  46.819  31.548  31.458
H  63.835  38.802  35.191
H  34.254  44.527  66.643
H  34.328  43.425  67.685
H  29.982  47.486  60.866
H  46.373  45.688  43.682
H  64.888  62.586  69.535
H  65.023  61.354  70.412
H  29.465  48.659  61.681
H  67.656  68.619  42.709
H  67.621  67.410  43.627
H  30.130  54.135  38.882
H  49.672  44.386  61.250
H  51.161  44.682  61.278
H  40.431  30.327  63.752
H  62.214  37.251  27.397
H  62.717  40.610  50.855
H  62.168  42.016  51.016
H  62.409  36.494  28.700
H  31.050  48.136  36.002
H  25.628  42.964  50.009
H  63.282  37.395  35.049
H  52.046  35.375  35.558
H  40.334  40.208  52.503
H  45.513  38.357  55.799
H  73.030  42.589  43.259
H  72.969  41.291  44.045
H  47.027  38.244  55.795
H  52.533  52.166  47.484
H  40.900  38.511  45.260
H  41.365  37.497  44.230
H  53.353  44.672  55.131
H  32.356  29.825  45.260
H  33.796  29.344  45.209
H  73.335  51.695  53.625
H  42.104  53.933  27.715
H  43.254  54.898  27.486
H  52.137  43.801  55.389
H  73.092  51.583  52.131
H  48.519  72.564  45.297
H  49.333  72.804  44.037
H  47.091  46.597  51.226
H  25.991  56.634  44.649
H  25.826  55.143  44.412
H  29.678  47.537  35.742
H  56.865  49.026  42.921
H  40.728  57.313  33.652
H  27.469  45.352  65.433
H  68.948  48.078  43.961
H  23.885  54.065  55.297
H  32.070  58.101  45.480
H  31.605  56.699  45.830
H  45.549  58.013  75.500
H  54.003  69.547  32.361
H  68.917  31.353  52.903
H  68.888  29.860  52.630
H  52.549  69.110  32.307
H  60.093  53.590  25.836
H  59.570  52.185  26.077
H  45.977  59.355  74.932
H  52.530  32.303  66.566
H  62.976  29.752  48.968
H  53.420  33.509  66.321
H  51.454  45.860  22.929
H  34.518  48.284  70.928
H  35.214  46.965  70.641
H  51.209  44.608  22.103
H  40.145  58.063  52.036
H  40.361  56.607  51.663
H  68.549  49.239  43.066
H  44.537  52.277  76.713
H  42.603  61.857  43.954
H  22.662  43.448  47.988
H  48.914  46.892  66.289
H  48.932  48.411  66.317
H  56.351  74.740  49.252
H  57.442  36.584  70.506
H  72.579  62.128  52.560
H  73.174  60.784  52.943
H  24.803  55.486  48.482
H  33.431  39.131  61.274
H  33.114  40.575  61.620
H  50.118  53.175  73.505
H  48.795  70.729  38.338
H  45.072  41.989  65.534
H  47.752  71.067  39.389
H  51.406  52.703  74.157
H  50.988  60.171  45.582
H  50.376  58.820  45.253
H  35.662  72.094  55.234
H  62.289  48.784  29.566
H  62.798  49.116  30.957
H  41.232  61.384  43.503
H  44.086  42.412  64.459
H  23.424  43.643  46.689
H  61.118  61.948  73.137
H  43.505  52.498  77.805
H  64.069  35.631  62.695
H  52.555  45.927  31.089
H  53.538  46.594  30.143
H  56.004  72.764  51.597
H  45.908  37.144  38.796
H  45.783  38.580  38.316
H  42.851  40.006  33.524
H  32.236  36.213  51.457
H  32.632  37.259  50.430
H  56.973  72.866  50.432
H  43.073  41.431  34.000
H  35.003  66.697  37.969
H  33.611  66.974  38.512
H  31.635  53.961  60.745
H  51.250  75.321  47.561
H  51.050  73.816  47.514
H  47.868  21.221  49.837
H  51.979  55.457  22.009
H  59.787  61.434  72.618
H  51.821  55.320  23.514
H  48.961  22.267  49.706
H  26.060  44.817  65.246
H  34.194  72.408  55.001
H  62.962  34.601  62.555
H  69.947  31.161  58.950
H  73.580  54.732  43.551
H  65.112  31.012  62.785
H  69.138  54.155  67.474
H  67.648  54.064  67.195
H  64.529  29.750  63.395
H  40.071  58.592  59.643
H  38.684  58.209  60.128
H  62.531  30.104  50.377
H  23.368  52.664  55.021
H  47.447  66.600  67.881
H  47.816  65.510  68.873
H  59.754  66.913  50.490
H  57.960  54.601  27.139
H  57.719  55.322  25.824
H  59.589  65.465  50.920
H  67.335  55.252  63.415
H  37.532  43.206  30.359
H  68.152  56.489  63.742
H  36.363  42.352  30.818
H  36.211  60.160  30.536
H  35.260  59.762  29.421
H  68.909  30.767  57.913
H  72.865  54.392  42.255
H  56.963  37.931  71.019
H  57.456  47.877  42.123
H  57.002  43.728  24.857
H  56.912  61.978  35.650
H  47.758  64.650  39.215
H  33.184  69.989  52.940
H  31.256  63.303  38.192
H  32.212  64.404  37.769
H  53.777  45.608  44.989
H  44.471  47.411  78.206
H  43.237  47.223  77.341
H  50.592  27.822  58.433
H  70.452  54.417  48.671
H  73.797  51.776  37.630
H  69.555  55.641  48.727
H  50.419  26.663  57.467
H  67.096  47.097  62.780
H  67.630  47.602  61.451
H  74.889  50.728  37.497
H  59.342  30.368  59.195
H  58.577  31.504  58.538
H  52.845  43.186  61.339
H  50.467  47.345  43.355
H  54.004  51.955  66.655
H  58.011  61.809  36.685
H  54.752  51.773  67.964
H  32.208  70.524  53.973
H  50.968  31.906  64.534
H  58.469  72.125  53.583
H  58.173  45.031  39.498
H  59.501  45.723  39.244
H  41.579  31.266  51.153
H  38.722  55.731  34.339
H  37.932  55.877  35.628
H  41.539  32.768  50.933
H  32.927  54.104  41.170
H  57.280  71.420  52.955
H  34.158  54.990  41.243
H  52.479  45.488  42.506
H  56.875  58.730  28.910
H  57.161  57.238  28.906
H  54.758  24.838  59.741
H  31.205  46.474  44.475
H  30.426  47.777  44.472
H  54.981  23.341  59.867
H  46.302  64.028  71.767
H  42.046  49.363  25.647
H  42.225  50.861  25.816
H  49.086  65.387  39.208
H  52.200  32.296  63.737
H  52.675  44.237  44.551
H  51.593  42.329  61.416
H  33.749  61.978  41.043
H  59.912  49.591  74.272
H  60.348  49.433  72.825
H  53.221  33.527  37.237
H  54.874  36.839  43.035
H  55.095  37.858  44.139
H  46.490  45.733  49.144
H  27.193  44.968  36.651
H  63.070  31.227  35.828
H  63.638  32.249  34.859
H  58.173  44.906  54.980
H  36.556  57.518  36.129
H  36.072  56.906  37.432
H  58.623  45.004  56.428
H  52.824  59.013  59.601
H  27.498  43.643  37.328
H  53.859  59.644  58.686
H  53.728  48.878  54.911
H  65.238  48.935  29.721
H  64.686  50.138  30.467
H  43.310  53.857  64.148
H  59.269  47.868  46.593
H  53.570  34.239  38.533
H  33.671  62.903  42.245
H  39.010  54.873  23.764
H  63.603  38.591  67.585
H  66.715  38.682  51.012
H  62.100  41.302  28.768
H  62.892  42.560  28.458
H  67.491  39.960  51.281
H  52.986  26.258  63.446
H  40.770  41.413  71.818
H  40.208  40.215  71.071
H  52.154  26.860  62.328
H  65.350  28.875  61.069
H  66.309  29.958  60.605
H  39.460  53.211  29.567
H  37.701  68.070  61.112
H  50.166  45.575  42.994
H  39.072  68.248  61.740
H  59.839  32.990  30.047
H  59.201  56.028  63.820
H  58.645  57.378  63.401
H  58.861  34.119  29.771
H  53.916  47.260  37.731
H  52.753  48.198  38.000
H  63.649  40.022  67.079
H  39.769  55.017  25.072
H  39.460  31.478  63.946
H  44.101  38.287  50.652
H  49.691  70.311  45.715
H  47.114  67.989  39.419
H  29.497  65.504  38.392
H  50.252  67.172  55.383
H  29.015  64.553  37.311
H  44.403  42.766  27.152
H  60.830  62.184  50.338
H  60.021  60.909  50.498
H  30.680  57.406  52.927
H  57.893  57.169  31.516
H  56.934  56.208  30.837
H  29.313  57.834  53.432
H  44.715  42.134  47.983
H  55.409  28.580  65.025
H  56.918  28.551  65.193
H  32.973  49.305  57.108
H  29.434  62.407  41.463
H  28.611  61.145  41.270
H  29.980  63.546  63.722
H  43.740  58.773  58.543
H  44.771  57.746  58.977
H  32.698  50.798  57.069
H  43.561  38.249  56.929
H  30.659  62.195  63.579
H  42.431  37.896  55.978
H  30.651  64.063  40.675
H  44.740  45.706  45.551
H  57.500  42.386  24.350
H  38.918  57.525  44.417
H  48.326  63.327  44.110
H  48.610  64.737  43.624
H  38.751  56.080  43.980
H  41.845  56.680  65.945
H  42.428  58.065  66.163
H  69.448  40.530  44.799
H  70.802  40.989  44.285
H  42.414  56.625  36.483
H  42.009  55.170  36.325
H  45.014  43.040  31.893
H  42.510  33.367  35.077
H  43.318  32.305  35.803
H  44.538  43.074  33.335
H  59.622  55.961  72.644
H  58.123  55.784  72.478
H  43.611  44.238  47.210
H  49.229  67.773  54.435
H  31.776  63.158  41.147
H  46.141  66.848  39.179
H  45.045  38.854  51.698
H  40.230  39.150  74.819
H  46.970  41.517  47.098
H  53.464  71.832  50.407
H  41.165  51.824  55.860
H  74.005  48.677  53.685
H  74.884  49.535  54.578
H  36.096  65.477  47.059
H  64.537  56.985  62.382
H  51.541  44.983  46.545
H  64.323  58.483  62.257
H  41.213  27.508  63.638
H  40.089  30.554  52.708
H  38.573  30.483  52.779
H  40.255  28.268  64.538
H  51.430  34.243  44.913
H  50.133  33.812  44.251
H  56.865  64.223  31.117
H  57.113  65.286  30.061
H  67.914  40.443  55.771
H  68.136  41.550  56.786
H  49.742  68.801  45.561
H  31.706  63.500  60.173
H  32.828  64.524  60.185
H  54.836  71.794  49.756
H  40.686  40.398  75.554
H  42.430  52.639  56.063
H  33.140  36.765  31.814
H  37.394  62.019  61.679
H  38.447  61.684  62.721
H  54.238  52.482  70.960
H  75.849  50.918  50.628
H  40.605  30.257  34.244
H  75.259  51.229  51.992
H  53.808  51.454  69.928
H  43.372  29.737  47.298
H  42.243  30.599  46.762
H  42.029  30.606  34.639
H  63.932  31.438  40.684
H  63.842  32.606  39.718
H  53.264  30.211  63.584
H  48.118  42.997  45.462
H  36.893  63.760  54.557
H  36.890  62.520  53.680
H  54.671  30.676  63.917
H  42.361  41.650  37.594
H  43.325  40.478  37.552
H  37.591  65.692  47.218
H  32.962  38.273  31.829
H  45.138  43.571  26.094
H  66.675  33.397  33.872
H  65.337  32.827  33.437
H  57.643  74.118  48.751
H  39.239  36.318  43.315
H  67.387  33.932  42.676
H  67.726  32.901  41.613
H  72.848  56.634  37.956
H  31.758  42.889  63.291
H  32.903  42.563  64.234
H  73.308  55.213  37.678
H  53.215  64.640  58.540
H  51.841  65.201  58.220
H  37.887  36.777  42.798
H  54.086  44.884  77.694
H  40.173  43.823  64.610
H  41.581  43.269  64.482
H  49.962  75.332  53.602
H  42.193  61.076  55.838
H  43.158  60.619  56.919
H  48.872  75.478  54.649
H  57.575  30.651  56.614
H  38.654  25.824  41.405
H  56.610  29.577  57.087
H  38.707  25.469  42.881
H  58.653  60.802  68.194
H  64.584  63.223  33.138
H  70.326  56.317  67.009
H  67.229  63.617  64.548
H  44.368  31.779  28.631
H  31.733  52.445  30.905
H  35.009  51.063  25.986
H  36.228  51.967  26.052
H  59.541  61.528  67.198
H  36.206  60.265  35.973
H  35.141  59.728  36.912
H  38.777  73.222  40.296
H  32.642  37.072  53.638
H  70.811  68.069  58.563
H  69.534  67.400  59.040
H  32.413  38.466  54.194
H  49.958  74.725  35.354
H  48.650  74.111  35.822
H  38.086  74.297  41.117
H  45.942  39.231  69.182
H  54.109  45.854  76.526
H  44.552  38.618  69.192
H  68.411  63.014  65.286
H  28.421  39.351  59.394
H  28.292  40.517  60.358
H  69.489  56.176  68.268
H  43.098  32.596  28.793
H  63.635  64.230  32.513
H  58.379  46.281  25.132
H  37.057  36.497  32.899
H  38.160  35.827  32.098
H  40.875  53.387  48.981
H  51.768  50.587  73.630
H  53.739  67.569  40.814
H  54.796  68.653  40.692
H  40.031  53.264  47.725
H  30.621  45.073  50.970
H  31.790  44.386  50.287
H  69.190  49.035  62.324
H  47.322  38.686  34.153
H  48.728  39.047  34.600
H  38.016  44.000  71.659
H  41.675  62.948  33.259
H  67.794  33.551  62.229
H  69.264  33.171  62.231
H  42.570  63.845  34.097
H  59.381  55.956  29.977
H  60.509  56.959  30.143
H  36.561  44.435  71.649
H  66.618  31.568  53.328
H  51.545  49.106  73.381
H  70.941  41.247  46.518
H  57.637  29.862  51.186
H  75.251  39.120  41.238
H  57.976  47.746  25.142
H  69.633  40.672  47.034
H  53.913  41.632  64.775
H  62.178  69.124  56.176
H  62.761  68.735  54.828
H  69.395  70.744  55.140
H  30.871  61.025  34.002
H  30.929  59.518  33.821
H  61.424  45.494  24.571
H  68.853  33.217  39.036
H  68.501  31.774  39.355
H  60.056  45.313  23.936
H  29.402  43.612  67.967
H  29.761  42.289  68.619
H  68.256  71.635  55.603
H  38.366  50.997  50.681
H  37.723  51.870  49.617
H  74.071  38.295  41.721
H  49.904  61.344  28.917
H  53.498  42.467  65.974
H  49.906  62.809  29.318
H  56.763  30.863  50.450
H  52.648  74.520  38.632
H  33.055  63.030  36.090
H  51.050  39.992  59.895
H  69.731  47.321  60.346
H  71.158  47.242  60.859
H  49.599  55.493  70.149
H  66.278  40.981  57.824
H  63.700  69.442  50.786
H  63.015  69.899  52.062
H  66.063  41.941  58.980
H  46.679  71.867  33.666
H  47.859  71.372  34.483
H  31.253  43.262  56.625
H  53.560  54.808  66.194
H  48.635  55.477  68.976
H  52.279  55.623  66.194
H  39.278  63.573  35.654
H  74.999  62.662  53.052
H  75.330  61.201  52.804
H  38.316  63.217  36.773
H  40.204  53.212  36.315
H  40.143  54.429  35.408
H  44.655  72.699  37.014
H  53.364  69.616  47.832
H  41.826  49.069  41.047
H  45.859  67.440  50.262
H  56.033  36.416  68.494
H  23.905  57.597  58.004
H  58.506  37.463  41.080
H  32.070  42.126  57.214
H  64.370  60.876  37.043
H  62.861  61.010  36.936
H  57.851  36.097  41.186
H  59.944  53.127  45.335
H  58.711  53.988  45.547
H  74.118  48.080  36.730
H  58.387  27.502  59.654
H  42.932  50.109  41.083
H  58.611  26.244  58.833
H  73.031  47.530  35.823
H  74.366  52.985  47.253
H  75.491  53.953  46.935
H  64.584  48.281  66.189
H  23.360  57.915  54.839
H  23.173  59.422  54.823
H  24.810  56.391  57.828
H  63.113  47.986  65.953
H  43.968  29.666  35.138
H  44.548  28.282  35.371
H  56.957  35.255  68.819
H  31.696  50.942  31.118
H  45.103  66.193  50.687
H  54.647  68.000  63.688
H  44.369  71.306  36.482
H  42.765  34.868  37.641
H  44.017  34.078  37.300
H  54.129  35.009  34.744
H  40.903  47.070  31.405
H  41.992  47.256  30.363
H  40.370  55.562  70.798
H  55.088  34.220  35.618
H  50.037  43.601  24.022
H  48.572  43.996  23.956
H  39.435  54.767  69.904
H  60.182  51.021  63.711
H  59.444  49.871  63.050
H  31.108  67.518  59.851
H  30.585  42.954  43.750
H  31.742  43.920  43.934
H  31.932  66.489  60.605
H  65.453  47.239  61.304
H  64.342  48.263  61.464
H  34.397  62.319  36.074
H  52.007  41.137  59.615
H  45.841  60.001  71.945
H  72.543  65.938  57.062
H  47.193  59.377  71.648
H  28.245  46.072  52.061
H  53.738  66.938  63.097
H  73.416  64.728  57.348
H  59.275  60.602  58.994
H  59.940  61.325  57.836
H  52.899  68.294  48.420
H  32.541  69.463  62.168
H  51.963  54.573  35.591
H  50.985  55.700  35.311
H  42.309  42.538  67.560
H  48.042  64.038  73.897
H  49.366  64.425  73.261
H  41.100  41.785  67.034
H  29.306  37.085  35.888
H  44.719  54.050  30.095
H  28.987  38.512  35.477
H  43.684  53.440  29.165
H  71.336  58.417  57.684
H  72.117  58.902  56.476
H  28.604  44.939  53.007
H  38.105  30.629  46.896
H  36.783  30.366  47.594
H  31.679  68.331  62.698
H  66.260  33.017  53.045
H  32.229  38.867  39.741
H  47.943  40.065  29.570
H  40.394  50.799  49.551
H  23.167  44.448  56.893
H  24.007  45.237  57.882
H  69.377  38.704  50.529
H  60.220  37.025  28.300
H  67.926  36.702  33.957
H  60.793  38.393  28.627
H  70.269  37.794  49.704
H  64.206  43.101  51.635
H  62.937  43.916  51.816
H  49.136  47.996  76.592
H  48.953  36.416  25.470
H  50.076  35.407  25.631
H  48.044  29.348  43.999
H  50.641  47.842  76.457
H  60.029  51.764  66.305
H  61.095  52.816  66.057
H  48.046  29.282  45.516
H  63.225  57.679  47.362
H  64.643  58.221  47.360
H  62.518  29.586  46.372
H  44.421  44.038  65.995
H  28.771  69.482  48.374
H  44.869  45.054  64.958
H  70.400  68.954  52.747
H  36.076  34.215  37.036
H  29.451  37.754  64.050
H  59.608  38.269  37.197
H  68.285  56.423  32.250
H  59.559  39.236  38.367
H  68.189  56.369  30.735
H  33.936  43.348  44.025
H  34.805  44.562  43.748
H  59.303  55.934  43.102
H  55.885  37.096  66.214
H  54.988  35.897  66.470
H  60.184  54.698  43.131
H  63.578  52.580  25.436
H  26.830  61.877  42.336
H  27.090  61.954  43.831
H  69.170  69.840  52.838
H  51.567  40.729  33.131
H  51.717  41.972  32.272
H  61.303  47.177  68.048
H  49.553  62.252  64.971
H  48.288  61.430  64.794
H  62.659  46.737  68.574
H  35.504  32.874  37.459
H  29.660  68.563  49.193
H  38.445  70.545  54.104
H  41.413  51.595  50.349
H  68.401  37.658  32.877
H  52.619  61.279  60.963
H  52.599  62.796  61.009
H  65.636  47.891  46.584
H  36.942  61.558  38.660
H  35.814  61.778  37.667
H  65.120  47.070  45.415
H  35.195  42.772  49.247
H  60.830  42.447  35.455
H  34.193  42.704  50.387
H  59.477  41.782  35.643
H  30.595  56.373  33.112
H  31.852  55.524  33.196
H  49.116  77.965  54.421
H  52.857  55.181  76.028
H  51.785  54.661  75.086
H  49.972  77.581  55.615
H  23.831  54.321  48.553
H  59.517  62.579  62.113
H  59.584  61.609  60.947
H  77.289  53.676  55.930
H  58.743  66.850  69.774
H  75.968  53.761  55.187
H  32.851  40.944  39.365
H  33.541  33.329  45.733
H  34.088  33.638  44.350
H  37.445  70.805  55.217
H  40.161  28.083  36.461
H  40.292  26.595  36.191
H  59.645  67.599  70.739
H  56.976  40.622  54.864
H  63.923  29.063  46.128
H  56.762  41.282  53.512
H  27.641  50.188  34.264
H  72.596  64.339  50.788
H  73.502  63.121  50.827
H  28.034  51.655  34.291
H  61.655  49.386  54.216
H  61.619  47.891  53.952
H  25.168  50.172  63.534
H  25.403  49.025  64.501
H  55.038  33.313  32.665
H  54.250  32.346  33.530
H  63.458  34.971  33.854
H  33.516  42.147  38.722
H  64.630  35.809  34.334
H  28.676  36.451  63.952
H  44.521  43.712  29.147
H  44.499  42.212  29.385
H  69.649  59.045  67.441
H  28.762  50.829  32.056
H  29.090  52.269  32.412
H  49.428  52.561  25.218
H  35.723  44.247  34.681
H  36.182  43.880  33.281
H  49.639  51.245  25.946
H  26.803  51.363  49.655
H  50.448  43.264  26.840
H  50.682  42.154  25.831
H  31.860  53.370  33.654
H  30.473  42.192  58.732
H  30.079  40.773  59.101
H  48.721  29.702  58.431
H  39.468  30.725  40.939
H  38.761  29.929  39.857
H  30.585  53.467  34.474
H  49.782  30.212  59.391
H  36.354  54.959  41.093
H  36.685  53.646  41.780
H  70.390  49.436  61.484
H  70.625  61.387  33.688
H  42.124  32.229  48.280
H  68.394  58.460  68.065
H  54.273  36.637  50.114
H  48.814  41.209  30.060
H  31.800  37.964  38.598
H  26.060  55.935  46.731
H  27.379  55.666  47.433
H  26.291  50.359  50.672
H  50.770  46.533  58.577
H  45.332  48.370  40.446
H  44.185  48.349  39.450
H  39.430  54.596  41.467
H  64.667  55.215  56.331
H  63.460  54.649  57.060
H  38.871  54.372  40.072
H  53.795  73.528  58.405
H  52.615  74.450  58.153
H  51.241  45.097  58.725
H  52.275  75.478  39.749
H  43.574  53.887  66.988
H  43.073  53.145  68.215
H  54.008  38.129  50.014
H  31.576  69.677  49.853
H  32.612  70.661  50.367
H  71.369  60.341  34.500
H  41.082  31.160  48.557
H  25.821  55.865  39.719
H  29.959  30.325  49.304
H  71.698  62.277  39.232
H  61.990  31.745  37.778
H  72.774  61.684  38.338
H  46.493  52.761  77.619
H  25.695  46.540  41.886
H  27.167  46.881  41.728
H  46.547  52.954  76.114
H  39.473  33.244  37.197
H  40.704  33.139  36.314
H  40.917  61.518  58.754
H  62.475  33.154  38.073
H  63.215  65.577  51.858
H  62.597  64.243  51.474
H  39.035  33.522  54.220
H  46.957  59.579  59.002
H  47.376  58.173  58.611
H  38.648  32.328  55.075
H  73.416  44.686  45.517
H  72.897  43.321  45.935
H  41.545  60.362  59.513
H  62.092  52.854  25.288
H  43.404  69.298  56.635
H  51.680  54.719  72.863
H  52.259  55.969  72.223
H  47.755  45.171  76.325
H  70.264  63.766  62.868
H  30.720  31.370  50.101
H  26.195  54.402  39.553
H  41.139  48.517  47.266
H  40.024  49.176  48.059
H  48.034  42.636  65.776
H  50.956  54.170  61.906
H  49.563  53.632  62.186
H  31.548  48.788  42.642
H  46.901  42.986  64.827
H  59.423  46.925  47.773
H  62.672  33.029  41.543
H  30.901  49.748  43.625
H  45.903  76.458  50.523
H  45.186  75.720  49.407
H  69.532  62.442  62.995
H  53.352  55.915  78.042
H  53.543  57.320  77.497
H  43.713  68.945  58.079
H  48.918  45.503  77.243
H  40.574  41.721  35.834
H  39.373  42.586  36.174
H  64.138  33.314  41.818
H  42.890  52.830  65.185
H  39.259  53.371  50.512
H  67.722  40.549  53.388
H  68.396  55.824  57.662
H  46.761  71.459  52.039
H  60.172  62.487  39.339
H  55.778  50.537  57.663
H  60.886  63.121  40.519
H  38.457  60.378  43.328
H  35.973  50.796  39.986
H  34.759  50.573  39.101
H  37.718  60.510  42.008
H  46.335  65.206  44.080
H  46.427  64.417  45.374
H  31.352  60.967  47.549
H  31.553  62.133  48.501
H  53.507  43.174  50.560
H  53.140  42.610  49.199
H  66.476  34.467  49.042
H  50.065  29.532  36.044
H  49.215  30.790  36.038
H  65.565  35.676  48.926
H  71.921  48.044  63.428
H  72.690  49.295  63.043
H  69.213  54.591  58.007
H  48.851  43.939  49.480
H  66.606  59.638  49.222
H  50.397  23.651  44.288
H  42.712  48.795  28.966
H  64.725  53.574  51.056
H  41.261  49.143  29.248
H  56.059  41.682  26.245
H  59.811  49.149  28.682
H  58.443  49.745  28.959
H  65.176  52.287  50.388
H  72.673  64.135  59.332
H  73.088  62.717  59.685
H  55.526  30.629  31.978
H  54.748  50.997  53.073
H  53.633  27.164  38.352
H  52.413  26.766  39.164
H  54.060  30.990  31.808
H  48.023  68.256  56.865
H  46.725  68.488  56.111
H  46.658  70.999  53.483
H  48.511  62.111  31.003
H  49.721  62.772  31.641
H  41.967  43.302  33.416
H  66.576  59.367  47.728
H  49.044  23.235  44.837
H  54.623  41.719  26.737
H  40.525  53.866  72.678
H  60.008  26.177  55.753
H  30.619  52.512  53.364
H  30.101  53.514  52.347
H  46.003  49.200  47.141
H  37.736  35.523  64.691
H  38.526  35.402  63.400
H  55.064  29.792  36.742
H  71.416  56.249  32.863
H  51.075  47.623  70.266
H  72.142  54.995  32.409
H  55.588  29.423  38.120
H  46.648  45.261  67.461
H  45.376  45.896  66.926
H  51.810  46.593  69.426
H  58.356  49.648  60.990
H  59.861  49.456  60.924
H  45.676  34.913  39.613
H  46.609  51.625  47.418
H  44.485  62.926  47.161
H  43.398  62.237  47.968
H  45.081  34.500  40.948
H  58.945  60.207  35.082
H  39.101  43.692  31.924
H  60.820  27.460  55.698
H  37.481  66.120  54.005
H  69.591  65.238  52.926
H  70.015  59.638  36.788
H  58.859  51.368  36.055
H  58.991  49.856  36.034
H  71.380  60.297  36.700
H  38.678  40.603  65.187
H  39.563  54.988  73.028
H  38.120  39.305  65.742
H  48.577  49.893  48.452
H  38.426  65.586  62.168
H  39.807  66.203  62.302
H  33.705  37.318  40.238
H  37.751  49.496  39.800
H  39.244  49.774  39.792
H  33.834  36.426  39.016
H  35.446  39.414  29.031
H  36.376  60.877  63.258
H  34.899  61.215  63.359
H  38.796  65.421  53.708
H  42.375  28.644  42.383
H  43.567  29.583  42.454
H  38.050  44.671  32.418
H  68.109  64.976  52.725
H  60.314  59.664  35.454
H  45.050  35.113  60.411
H  47.860  44.657  43.762
H  76.605  41.853  56.142
H  46.625  43.114  42.361
H  45.388  42.503  41.727
H  66.505  31.566  35.146
H  49.235  48.678  50.337
H  50.401  59.529  68.246
H  50.229  61.011  67.959
H  65.275  30.694  34.958
H  42.759  41.648  31.801
H  41.511  41.387  30.976
H  44.214  65.470  58.411
H  44.592  32.997  60.745
H  44.571  33.751  62.063
H  58.743  28.365  49.739
H  47.431  49.422  68.671
H  57.448  34.359  47.280
H  58.660  33.719  47.934
H  48.904  49.399  68.304
H  41.244  73.182  48.350
H  41.093  74.607  47.849
H  60.158  28.594  49.237
H  43.388  57.548  28.627
H  68.346  66.682  54.466
H  44.327  58.717  28.384
H  26.890  40.045  40.105
H  29.713  45.435  59.166
H  64.026  62.832  44.358
H  53.651  59.689  26.324
H  64.219  38.462  39.826
H  63.285  38.577  41.019
H  49.146  54.697  21.887
H  29.565  41.233  45.361
H  28.692  42.215  46.121
H  69.810  40.183  53.986
H  56.039  41.872  65.516
H  57.223  42.033  66.453
H  47.772  54.089  22.110
H  69.685  41.550  53.336
H  54.479  60.094  38.660
H  53.476  58.957  38.574
H  46.759  49.024  51.951
H  62.402  62.354  66.660
H  61.187  63.022  66.039
H  27.438  62.786  55.274
H  27.108  41.472  39.634
H  76.659  41.935  54.626
H  28.415  63.876  54.867
H  44.181  36.018  59.556
H  51.419  49.877  50.770
H  48.426  38.737  58.366
H  33.616  52.858  29.845
H  60.017  32.267  62.779
H  55.074  62.366  70.123
H  53.617  62.596  69.760
H  29.152  45.950  37.797
H  45.092  56.417  25.406
H  43.723  55.760  25.438
H  29.618  47.371  38.061
H  52.788  47.064  43.347
H  49.195  37.150  51.644
H  50.128  38.208  52.208
H  69.620  64.473  46.311
H  39.486  58.643  64.953
H  40.875  58.217  64.510
H  47.015  57.312  32.772
H  46.951  28.519  36.232
H  48.117  29.135  36.987
H  68.141  64.332  45.996
H  45.985  56.297  32.307
H  27.813  66.422  43.537
H  27.881  64.907  43.442
H  59.885  56.298  25.020
H  69.633  67.225  53.871
H  33.117  54.251  30.186
H  58.604  44.125  64.987
H  41.204  28.150  59.717
H  41.472  27.616  61.113
H  48.289  39.524  57.074
H  33.497  63.048  30.838
H  34.923  63.048  31.359
H  72.206  43.377  48.830
H  71.387  43.254  47.557
H  45.219  32.518  42.623
H  44.512  32.294  41.298
H  65.996  51.975  71.616
H  36.135  43.381  62.180
H  37.597  43.090  61.892
H  65.809  50.490  71.871
H  66.873  53.794  50.404
H  66.197  55.147  50.262
H  48.594  46.979  52.149
H  60.664  57.348  24.247
H  59.768  58.458  50.109
H  58.543  58.000  49.337
H  34.292  61.837  67.452
H  58.898  42.636  65.029
H  35.631  62.322  66.924
H  35.320  66.010  59.018
H  53.953  36.739  71.522
H  55.259  36.565  70.766
H  59.744  65.519  34.549
H  51.576  73.349  62.034
H  51.441  74.816  61.665
H  61.095  66.121  34.200
H  42.492  38.443  64.050
H  42.161  36.992  63.745
H  30.772  59.786  54.785
H  42.571  39.662  46.109
H  42.999  38.989  44.816
H  36.125  71.780  50.549
H  31.921  59.004  54.174
H  70.151  33.433  59.758
H  70.809  33.255  58.401
H  47.220  52.871  56.877
H  37.010  48.214  70.993
H  36.802  49.590  71.601
H  45.821  75.997  53.370
H  60.314  65.808  71.830
H  53.646  40.315  60.862
H  60.312  64.305  72.047
H  44.707  75.207  52.706
H  45.817  68.840  51.958
H  47.995  56.140  28.255
H  38.163  42.440  42.638
H  46.798  67.916  52.657
H  53.116  61.725  65.740
H  47.774  66.540  47.174
H  37.946  25.026  52.217
H  37.219  26.359  52.234
H  48.050  65.095  46.796
H  57.204  52.096  69.388
H  58.384  51.293  68.870
H  52.402  54.402  49.034
H  50.689  74.995  51.542
H  25.074  42.851  56.075
H  24.603  43.212  54.677
H  54.850  36.491  62.130
H  32.157  37.275  62.837
H  31.642  37.650  64.215
H  56.153  37.221  62.409
H  43.600  64.392  40.637
H  51.895  75.040  52.463
H  45.060  64.441  41.052
H  54.965  48.635  53.574
H  58.366  51.542  62.110
H  57.503  52.228  61.064
H  37.725  40.989  42.550
H  54.534  62.268  65.710
H  47.433  57.190  27.313
H  47.396  41.767  38.640
H  78.627  48.492  46.663
H  63.966  37.594  44.535
H  65.423  38.021  44.498
H  66.907  37.586  49.106
H  26.082  48.808  54.685
H  41.289  49.984  35.468
H  40.647  50.856  36.534
H  65.288  66.204  52.251
H  72.260  34.859  51.888
H  72.709  34.204  53.183
H  66.394  66.738  51.357
H  70.542  61.183  58.734
H  70.987  62.061  59.890
H  52.070  56.860  49.126
H  33.817  58.675  50.240
H  55.425  53.208  60.649
H  54.943  51.804  60.970
H  59.232  63.991  41.857
H  47.129  42.489  72.524
H  48.025  41.333  72.115
H  60.412  64.945  41.920
H  28.045  43.861  32.723
H  48.598  73.036  53.098
H  28.597  42.503  33.117
H  39.384  68.564  55.019
H  48.634  42.625  38.447
H  72.746  52.346  39.532
H  50.418  52.866  48.792
H  53.040  70.641  64.358
H  51.574  70.980  64.564
H  72.024  51.059  39.174
H  36.796  42.500  70.588
H  35.872  42.137  71.737
H  55.114  37.355  39.979
H  44.471  58.295  71.413
H  45.739  58.102  70.600
H  54.859  35.859  40.022
H  53.358  59.364  41.048
H  42.204  50.373  75.594
H  41.092  50.557  74.576
H  52.204  60.274  40.668
H  58.497  28.523  37.372
H  57.272  28.008  38.108
H  53.331  55.185  56.280
H  40.390  69.599  54.546
H  25.580  50.204  54.359
H  77.452  47.736  47.259
H  36.375  55.472  56.802
H  37.454  55.713  57.843
H  63.889  46.489  27.554
H  47.452  60.450  56.577
H  46.262  61.291  56.148
H  46.863  50.678  44.484
H  50.743  52.927  38.925
H  61.158  46.652  50.543
H  61.900  45.847  51.595
H  45.461  57.822  44.457
H  36.172  56.566  45.245
H  36.558  57.881  44.591
H  46.027  58.744  45.522
H  50.491  53.277  29.358
H  51.204  53.837  37.800
H  50.785  54.601  28.675
H  44.793  49.761  45.467
H  64.420  40.158  52.185
H  64.777  38.688  52.055
H  53.142  38.071  60.416
H  42.713  74.570  60.428
H  43.828  73.641  59.979
H  53.652  38.812  59.192
H  35.579  64.437  33.239
H  65.474  46.270  66.221
H  58.564  27.059  51.704
H  60.141  49.668  66.957
H  66.451  45.995  67.351
H  34.861  64.574  58.835
H  31.149  52.950  41.773
H  43.818  49.004  68.115
H  45.271  48.580  67.991
H  31.364  52.526  40.330
H  49.201  44.623  33.129
H  50.345  43.905  33.824
H  42.733  44.467  34.018
H  68.243  36.054  63.174
H  48.150  51.357  46.487
H  67.643  37.448  63.223
H  37.329  43.305  54.555
H  56.355  49.734  62.143
H  57.311  48.677  62.668
H  38.829  43.350  54.322
H  70.104  60.829  41.284
H  71.103  59.695  41.440
H  34.579  43.721  41.039
H  33.075  43.562  40.895
H  64.574  29.223  38.186
H  64.081  29.506  36.778
H  59.196  49.164  68.033
H  58.378  26.564  53.128
H  33.928  39.408  29.075
H  46.326  31.804  40.095
H  27.490  50.506  41.923
H  26.363  50.095  40.992
H  52.069  69.691  45.167
H  46.034  56.171  46.776
H  47.543  56.256  46.922
H  51.555  69.530  46.587
H  52.539  47.736  59.247
H  31.252  34.530  50.451
H  31.720  33.290  49.709
H  53.737  48.498  58.708
H  39.225  48.618  26.239
H  38.938  47.147  26.480
H  47.539  53.054  44.901
H  70.606  38.201  53.454
H  36.239  72.534  49.235
H  70.428  37.562  52.087
H  55.793  60.689  42.997
H  37.308  66.269  64.288
H  36.590  67.327  63.469
H  55.969  61.190  44.419
H  64.784  46.912  26.402
H  36.131  28.451  38.947
H  59.913  61.028  41.609
H  58.883  60.102  42.232
H  44.378  51.365  46.206
H  47.397  30.994  39.385
H  45.413  35.775  66.413
H  26.496  60.509  36.960
H  27.613  61.172  36.173
H  34.190  64.637  33.820
H  45.173  36.512  65.107
H  66.986  44.584  50.859
H  65.523  44.965  50.708
H  44.382  51.166  44.406
H  51.065  27.810  31.709
H  28.513  46.157  58.577
H  49.807  28.593  32.042
H  68.679  65.919  65.180
H  61.089  57.270  73.631
H  69.812  65.170  64.501
H  36.890  48.524  35.503
H  47.079  34.097  45.955
H  46.250  32.874  46.306
H  60.001  58.167  74.194
H  57.952  66.693  72.146
H  58.196  65.205  71.959
H  36.763  29.066  40.183
H  35.499  49.101  35.305
H  32.827  57.794  50.982
H  63.663  61.358  44.388
H  65.563  46.251  58.662
H  33.299  46.694  65.074
H  56.792  68.977  51.429
H  62.305  56.506  56.666
H  60.831  56.208  56.878
H  57.886  70.018  51.266
H  69.237  34.867  50.889
H  70.388  35.842  50.715
H  35.666  70.045  58.918
H  38.851  68.923  57.532
H  29.825  63.652  61.476
H  28.516  64.362  61.774
H  41.254  49.545  62.366
H  51.755  37.098  25.898
H  52.239  35.751  25.390
H  41.226  49.514  63.884
H  40.041  56.314  67.458
H  39.349  54.989  67.188
H  46.605  50.784  53.329
H  28.960  38.498  66.061
H  52.193  69.939  56.391
H  51.852  68.481  56.136
H  40.289  68.447  57.632
H  38.257  58.176  37.809
H  32.279  47.732  64.642
H  53.360  40.358  42.407
H  29.767  55.065  36.127
H  28.810  53.902  36.316
H  47.336  68.474  70.153
H  54.105  54.843  26.777
H  53.029  53.793  26.565
H  39.562  28.341  62.445
H  53.804  50.032  48.986
H  37.640  65.231  40.564
H  38.902  64.849  41.317
H  39.632  28.961  61.061
H  59.021  56.475  35.637
H  59.941  55.413  35.061
H  55.474  42.056  30.321
H  64.854  40.371  50.009
H  64.485  39.191  49.126
H  54.938  42.835  31.509
H  70.929  60.897  62.288
H  54.106  55.098  29.226
H  53.015  56.152  29.295
H  69.929  59.803  61.954
H  53.029  41.699  41.775
H  49.412  46.442  49.385
H  38.020  39.546  26.261
H  73.924  42.873  39.452
H  37.982  59.375  36.918
H  63.801  38.548  60.288
H  54.746  31.224  43.254
H  41.197  40.450  40.777
H  53.219  54.905  31.561
H  39.943  39.851  41.387
H  55.881  30.217  43.185
H  35.390  46.009  65.469
H  36.071  46.451  64.185
H  52.452  54.267  30.415
H  76.900  56.124  41.565
H  76.568  55.545  40.200
H  61.112  32.281  67.870
H  54.439  49.401  51.389
H  62.050  37.395  30.675
H  62.100  38.733  31.390
H  60.423  33.577  68.260
H  52.320  52.700  60.999
H  51.466  52.035  62.065
H  46.309  60.648  25.160
H  64.703  65.728  61.959
H  64.922  66.850  62.959
H  62.360  39.000  60.448
H  74.639  43.765  38.452
H  29.503  52.785  39.184
H  27.646  45.417  34.545
H  27.930  46.110  49.262
H  30.454  38.289  66.235
H  28.470  47.187  48.338
H  53.259  48.104  50.963
H  66.901  56.671  68.619
H  66.881  56.259  70.080
H  72.345  56.221  47.943
H  30.799  55.829  40.115
H  32.050  56.682  40.224
H  72.248  56.917  49.289
H  54.019  49.465  68.406
H  33.629  33.051  52.158
H  33.741  34.566  52.179
H  53.340  48.746  69.558
H  38.015  57.433  52.167
H  38.375  56.936  50.778
H  45.295  47.009  73.475
H  38.343  38.266  33.141
H  38.145  38.135  31.641
H  48.927  52.406  54.021
H  46.322  46.075  74.092
H  28.918  45.985  33.940
H  44.858  60.701  25.605
H  49.564  50.110  63.115
H  50.865  49.330  63.186
H  52.442  51.330  43.891
H  58.284  73.087  39.728
H  56.920  73.677  39.417
H  42.496  66.034  43.763
H  40.753  58.258  36.405
H  40.057  57.091  37.085
H  57.897  47.635  58.510
H  65.031  70.162  41.849
H  65.544  69.932  40.439
H  57.346  49.046  58.401
H  48.498  46.796  23.639
H  52.626  33.425  56.421
H  52.200  33.338  57.876
H  49.258  45.760  22.829
H  65.748  42.647  56.232
H  66.580  43.772  56.822
H  51.955  49.598  44.042
H  33.024  54.835  37.891
H  47.726  63.650  71.397
H  32.193  53.633  38.305
H  30.495  45.408  42.540
H  43.921  65.695  44.165
H  28.145  61.271  52.337
H  66.609  32.913  47.322
H  51.812  55.815  26.419
H  66.299  40.936  53.024
H  40.927  52.874  29.366
H  31.995  37.150  46.223
H  30.613  37.442  46.781
H  42.060  52.126  41.201
H  33.726  56.785  64.851
H  32.723  56.329  65.897
H  38.878  54.239  49.325
H  40.625  52.623  41.173
H  40.984  35.817  40.059
H  39.633  35.362  40.583
H  51.038  50.892  45.952
H  34.730  40.704  30.665
H  34.552  41.302  32.050
H  64.054  47.301  71.130
H  58.565  60.433  44.833
H  51.737  56.783  25.251
H  59.068  59.120  45.406
H  62.623  46.865  71.390
H  58.939  35.152  59.222
H  59.682  34.036  58.508
H  65.959  33.547  46.105
H  47.178  68.943  71.589
H  26.927  60.996  51.471
H  64.578  45.354  33.495
H  27.153  40.840  56.997
H  50.280  22.231  57.854
H  49.485  22.959  56.785
H  28.315  41.817  57.007
H  52.552  68.636  54.056
H  76.989  50.626  53.307
H  76.950  51.971  54.011
H  51.513  69.742  54.010
H  62.868  46.052  56.809
H  63.819  47.098  57.365
H  26.188  44.541  42.661
H  76.031  47.681  39.202
H  76.789  46.551  39.875
H  36.445  68.744  59.005
H  26.428  43.685  43.892
H  48.691  41.070  60.387
H  47.557  40.797  59.414
H  53.991  51.680  46.508
H  67.063  52.510  64.493
H  67.690  53.790  65.016
H  36.880  39.171  27.193
H  38.676  67.625  49.999
H  31.776  45.095  41.786
H  38.928  67.683  48.502
H  29.499  64.750  56.577
H  65.616  46.459  33.579
H  70.252  56.608  56.411
H  71.012  57.031  55.165
H  40.479  59.616  57.739
H  41.561  58.553  57.801
H  45.662  36.100  57.386
H  26.811  36.844  45.636
H  25.802  36.010  46.406
H  45.165  35.663  56.019
H  44.978  65.415  46.708
H  45.549  66.643  46.023
H  53.645  50.102  44.466
H  69.458  35.081  46.261
H  31.197  59.608  68.801
H  31.227  59.103  67.369
H  45.029  55.997  64.522
H  38.170  35.354  45.019
H  36.675  35.372  45.288
H  45.410  54.664  65.141
H  29.791  66.138  56.034
H  68.719  36.264  46.863
H  52.726  52.754  45.787
H  38.100  49.088  61.937
H  47.890  31.934  65.741
H  48.703  30.780  66.301
H  65.875  60.770  29.357
H  64.670  60.272  30.135
H  47.159  67.831  31.778
H  60.332  28.713  66.016
H  61.251  29.835  65.565
H  45.886  54.423  52.845
H  46.449  67.058  30.680
H  42.125  60.650  49.817
H  40.728  60.093  49.605
H  51.911  57.313  36.485
H  72.670  36.702  50.046
H  73.045  37.948  49.262
H  30.584  33.949  56.496
H  61.142  34.778  61.292
H  52.664  58.630  36.555
H  60.454  36.120  61.119
H  32.004  34.121  57.009
H  59.507  34.237  38.314
H  60.929  34.746  38.161
H  58.698  33.012  62.671
H  64.888  60.489  55.369
H  48.784  70.064  53.405
H  64.124  59.185  55.512
H  67.237  56.532  65.843
H  48.371  70.545  54.786
H  41.188  51.759  66.077
H  45.265  24.938  55.978
H  43.776  24.940  56.277
H  62.806  53.460  44.157
H  39.583  48.933  37.734
H  58.844  53.532  34.750
H  59.828  53.002  33.722
H  44.493  52.470  72.319
H  35.253  60.753  39.952
H  36.144  61.557  40.883
H  43.178  51.714  72.242
H  65.816  65.740  38.490
H  38.565  47.928  38.243
H  64.528  65.318  37.804
H  47.941  53.268  52.003
H  21.531  54.561  50.421
H  23.033  54.444  50.609
H  40.694  70.853  66.749
H  27.713  37.177  61.934
H  28.388  35.819  61.865
H  41.151  69.406  66.699
H  66.277  55.411  65.487
H  53.903  39.054  56.662
H  48.407  36.911  36.473
H  39.637  63.829  71.642
H  45.816  53.364  50.657
H  61.624  70.939  64.020
H  62.023  69.697  64.797
H  53.664  46.791  34.649
H  62.814  55.358  66.518
H  61.335  55.016  66.482
H  53.004  46.370  33.347
H  34.231  59.196  59.797
H  35.314  60.197  60.160
H  40.379  52.144  24.238
H  44.565  66.948  58.436
H  38.656  36.467  29.921
H  37.993  35.101  29.942
H  59.652  58.400  47.402
H  34.073  48.918  26.978
H  32.658  48.378  27.095
H  61.169  58.461  47.402
H  36.066  30.631  37.581
H  41.596  52.059  23.333
H  34.680  30.009  37.561
H  46.803  51.894  50.278
H  67.880  43.892  47.153
H  46.828  53.709  54.212
H  55.955  35.762  48.482
H  41.473  45.916  70.939
H  40.522  63.215  72.713
H  48.010  35.464  36.701
H  51.487  28.777  37.543
H  52.441  29.910  37.208
H  49.718  52.325  31.185
H  55.033  43.985  65.273
H  56.385  44.671  65.207
H  49.549  50.962  31.832
H  52.682  24.639  49.699
H  52.665  68.858  63.124
H  51.627  67.862  63.608
H  53.595  24.276  48.540
H  72.504  46.213  34.137
H  72.803  46.463  32.669
H  45.319  52.890  53.627
H  34.017  31.524  54.313
H  67.267  44.382  48.453
H  32.973  32.431  54.941
H  40.554  46.559  71.962
H  56.359  40.384  57.943
H  56.737  39.515  56.757
H  57.412  36.192  48.493
H  54.594  40.404  56.598
H  41.149  52.222  67.523
H  43.654  64.068  56.006
H  65.852  32.467  50.596
H  67.267  32.969  50.822
H  31.267  47.385  67.736
H  44.192  40.680  67.069
H  43.000  39.740  67.023
H  32.660  47.749  67.251
H  25.364  52.757  48.740
H  53.513  28.761  66.618
H  24.286  52.255  47.796
H  45.964  53.365  45.744
H  70.246  37.075  56.637
H  71.070  37.164  55.364
H  38.058  37.253  38.120
H  58.232  51.655  44.266
H  56.945  52.252  43.725
H  38.754  35.906  38.200
H  62.050  69.887  61.771
H  58.456  31.958  55.077
H  57.036  31.958  54.540
H  61.527  70.371  60.429
H  47.132  58.827  54.454
H  54.415  27.548  66.763
H  47.611  57.441  54.849
H  52.561  47.933  53.083
H  63.651  50.978  47.854
H  37.568  50.510  61.918
H  67.286  36.436  53.204
H  65.786  36.671  53.174
H  52.051  49.664  53.130
H  62.674  35.375  68.583
H  32.239  45.419  67.554
H  62.227  34.534  67.400
H  70.811  40.434  63.675
H  40.996  51.149  39.344
H  40.296  52.060  38.351
H  72.218  40.538  64.237
H  69.021  52.048  31.351
H  69.794  53.246  30.828
H  31.257  45.358  66.398
H  66.016  61.558  45.542
H  69.172  69.664  50.198
H  69.927  68.358  50.026
H  38.707  48.538  67.324
H  36.566  57.216  49.556
H  36.083  55.808  49.856
H  37.394  49.054  67.884
H  64.837  50.073  47.571
H  31.937  45.279  46.629
H  60.432  54.382  55.729
H  61.574  53.443  56.077
H  66.157  32.849  63.522
H  36.011  48.132  45.979
H  57.038  23.900  52.786
H  44.415  46.302  25.875
H  44.994  47.695  26.044
H  57.899  23.574  53.994
H  59.406  30.782  30.633
H  58.003  31.362  30.628
H  45.981  52.960  43.978
H  56.639  35.587  26.180
H  50.394  69.415  30.200
H  56.400  34.530  27.244
H  60.349  44.877  26.389
H  53.419  23.354  58.054
H  53.800  24.170  56.831
H  61.114  44.489  27.643
H  65.115  69.274  64.939
H  64.078  69.602  63.878
H  50.469  68.078  30.917
H  45.319  51.753  51.316
H  42.522  63.356  56.726
H  64.693  32.847  63.925
H  36.863  49.273  46.506
H  29.720  50.691  62.458
H  30.008  49.948  63.750
H  48.342  47.059  43.932
H  33.385  45.005  46.260
H  42.204  36.869  66.423
H  41.973  35.369  66.380
H  23.579  50.526  52.225
H  35.155  54.640  38.829
H  36.597  55.095  38.692
H  60.815  61.489  31.170
H  61.705  45.793  75.528
H  62.068  52.136  44.067
H  64.364  46.721  59.467
H  63.079  46.053  74.937
H  60.823  47.288  74.176
H  62.219  47.871  74.044
H  23.297  49.037  52.320
H  42.498  57.431  56.156
H  43.628  56.596  56.734
H  57.539  59.499  47.421
H  46.477  47.113  46.174
H  58.193  41.501  58.420
H  58.195  42.874  57.771
H  58.553  60.500  47.945
H  59.913  60.699  32.102
H  53.533  40.716  62.322
H  53.475  48.705  63.913
H  70.009  37.862  61.387
H  33.778  27.319  42.574
H  35.098  67.984  39.781
H  36.280  68.935  39.710
H  32.546  28.191  42.746
H  56.346  26.086  49.673
H  55.001  25.444  49.966
H  65.820  35.647  58.367
H  66.242  34.232  58.012
H  54.960  38.828  41.606
H  41.386  42.999  60.524
H  42.007  44.326  60.922
H  56.412  39.272  41.607
H  64.415  40.618  63.098
H  63.268  40.013  62.308
H  41.646  56.983  24.627
H  42.913  57.817  24.701
H  45.613  51.075  69.241
H  62.774  62.362  31.679
H  63.691  62.513  30.479
H  45.137  52.517  69.281
H  47.067  40.700  40.539
H  48.015  41.868  40.748
H  33.766  38.329  33.877
H  59.517  42.169  39.515
H  60.501  41.013  39.542
H  52.039  32.992  41.655
H  51.703  31.559  41.281
H  49.006  58.533  22.892
H  49.858  57.522  22.143
H  39.379  58.815  62.761
H  38.038  59.528  62.755
H  36.328  48.213  48.361
H  53.401  47.477  22.549
H  54.822  47.455  23.083
H  36.547  46.724  48.165
H  32.425  41.532  41.439
H  33.798  41.816  42.023
H  46.169  74.170  34.704
H  34.802  38.519  34.971
H  46.681  73.138  35.694
H  49.419  41.194  70.419
H  48.249  40.248  70.214
H  38.570  65.019  32.146
H  46.969  34.082  29.320
H  47.165  32.880  28.414
H  35.165  36.814  30.954
H  35.782  38.201  30.998
H  40.259  68.211  46.790
H  29.239  65.564  58.902
H  30.747  65.647  58.750
H  41.120  69.270  46.123
H  37.695  66.167  32.617
H  48.614  59.083  37.436
H  54.723  63.373  51.399
H  54.654  64.078  52.743
H  65.585  31.166  58.058
H  46.911  51.768  25.101
H  32.995  43.844  58.953
H  34.510  43.731  58.954
H  47.330  53.195  25.408
H  68.302  30.777  61.076
H  68.330  32.003  60.181
H  58.390  74.212  46.684
H  57.183  74.199  45.762
H  59.744  50.716  39.572
H  26.455  52.316  41.203
H  66.910  31.045  58.789
H  25.878  53.256  42.247
H  27.349  47.255  56.656
H  28.022  48.615  56.717
H  33.298  26.752  46.358
H  32.358  27.853  46.817
H  43.843  62.601  25.051
H  60.353  39.994  30.813
H  58.902  40.087  31.251
H  43.006  62.096  26.214
H  64.305  39.340  64.884
H  64.798  37.997  64.373
H  55.196  42.980  54.564
H  59.200  49.505  40.310
H  44.908  43.624  55.046
H  64.205  52.552  28.229
H  57.658  43.835  50.322
H  47.679  60.212  37.833
H  39.944  48.344  53.693
H  39.282  47.136  54.334
H  57.322  28.484  62.899
H  56.245  27.481  63.272
H  60.341  33.801  55.441
H  23.914  55.345  52.413
H  22.539  54.888  52.867
H  60.048  32.675  56.416
H  55.490  51.645  63.106
H  56.771  52.426  63.342
H  65.094  52.775  27.018
H  33.281  61.758  55.981
H  57.904  39.490  60.008
H  61.018  63.696  33.000
H  61.253  62.238  33.352
H  59.422  39.526  60.023
H  50.837  40.251  63.411
H  49.553  40.791  64.018
H  29.174  69.648  51.405
H  30.047  70.755  51.969
H  57.335  42.445  49.804
H  40.488  51.490  71.131
H  40.614  51.632  72.637
H  32.153  62.682  56.405
H  53.998  42.077  54.804
H  55.760  58.813  76.841
H  46.152  42.939  55.583
H  56.430  71.189  64.805
H  55.074  70.628  65.196
H  45.253  62.649  61.181
H  61.219  60.522  48.226
H  62.540  60.938  48.848
H  42.444  51.441  60.462
H  43.089  50.834  59.228
H  52.488  63.967  53.113
H  26.708  39.658  47.790
H  26.406  38.216  47.424
H  52.763  65.417  53.471
H  37.277  35.126  41.409
H  36.020  34.276  41.353
H  48.351  33.855  40.513
H  47.635  33.725  39.180
H  35.601  64.160  36.137
H  52.484  72.985  46.068
H  51.854  74.186  45.385
H  34.380  64.865  36.701
H  63.039  44.759  67.614
H  64.469  44.706  68.121
H  54.093  54.561  68.406
H  53.216  53.783  69.372
H  46.162  62.674  62.398
H  54.998  34.016  30.580
H  55.717  35.330  30.331
H  68.277  66.762  60.729
H  32.889  67.809  42.330
H  60.562  37.000  42.491
H  61.670  38.034  42.586
H  37.662  50.033  52.507
H  69.948  68.775  55.954
H  68.736  68.145  56.618
H  36.804  51.284  52.575
H  26.600  42.629  46.656
H  25.634  42.797  47.816
H  42.991  61.813  51.512
H  43.313  60.878  52.665
H  33.854  39.338  69.544
H  48.844  44.269  28.154
H  29.601  55.605  45.509
H  48.764  42.754  28.226
H  75.919  54.076  52.170
H  74.787  53.247  52.750
H  44.675  26.150  49.700
H  45.330  27.276  50.480
H  66.941  57.538  46.289
H  67.686  55.121  45.512
H  67.005  54.794  44.195
H  66.613  58.346  45.046
H  69.513  67.480  61.241
H  29.763  56.700  44.469
H  67.088  52.116  57.690
H  66.706  51.342  56.441
H  32.682  40.255  69.241
H  53.716  54.235  43.438
H  24.413  54.434  58.878
H  23.836  54.274  60.274
H  53.656  55.295  42.352
H  65.180  69.258  46.993
H  65.060  68.767  45.561
H  37.644  45.571  74.833
H  37.575  44.054  74.831
H  33.305  60.795  51.827
H  56.605  43.972  42.560
H  58.042  44.465  42.540
H  38.415  50.120  65.210
H  33.345  61.452  53.196
H  60.216  30.254  63.645
H  35.052  68.897  35.655
H  34.041  69.188  36.750
H  37.711  56.548  61.413
H  55.803  54.328  74.202
H  54.490  54.982  73.809
H  37.732  56.938  62.880
H  67.706  53.109  60.213
H  66.880  51.877  59.887
H  27.576  46.433  62.974
H  26.070  46.242  62.932
H  60.145  28.850  63.071
H  56.131  59.989  75.955
H  39.885  50.056  65.583
H  35.243  47.185  26.296
H  50.080  50.274  66.544
H  51.122  49.921  67.591
H  64.117  54.942  63.002
H  64.743  53.811  63.799
H  31.763  51.255  61.062
H  58.746  72.731  57.243
H  59.317  73.988  56.611
H  30.962  50.082  60.525
H  48.958  26.974  54.447
H  50.311  27.654  54.574
H  44.514  39.593  43.341
H  36.756  47.307  26.248
H  43.849  40.859  42.828
H  35.176  45.493  62.420
H  36.655  45.713  62.155
H  45.582  44.880  40.028
H  38.415  48.306  63.963
H  37.039  48.383  64.600
H  43.285  46.192  66.309
H  42.561  45.339  65.282
H  38.828  53.699  57.606
H  39.584  58.228  30.182
H  40.840  57.588  30.746
H  38.133  52.550  58.315
H  46.889  44.628  40.759
H  31.485  68.352  42.528
H  36.872  63.862  50.733
H  31.930  64.916  47.568
H  31.465  47.934  54.470
H  32.929  47.593  54.684
H  33.493  47.104  28.682
H  34.118  63.308  46.479
H  33.384  64.533  45.961
H  33.412  45.846  29.530
H  55.321  38.348  74.019
H  55.429  36.834  74.045
H  60.613  45.028  41.273
H  60.141  43.600  41.066
H  56.724  38.148  29.799
H  56.645  63.529  64.834
H  57.380  62.238  64.520
H  56.486  39.493  30.462
H  60.048  37.666  59.032
H  61.431  37.246  59.500
H  69.817  67.100  41.993
H  68.918  65.879  42.078
H  74.113  36.637  43.833
H  45.650  58.069  23.779
H  44.870  57.494  22.610
H  73.367  36.749  45.151
H  35.138  42.941  64.381
H  44.529  37.280  36.916
H  43.517  38.174  36.221
H  61.892  37.759  45.249
H  50.535  54.855  32.847
H  41.151  43.114  74.273
H  64.431  40.987  35.414
H  44.494  42.189  56.842
H  43.040  41.768  56.725
H  35.176  46.504  42.173
H  35.947  45.232  41.865
H  41.434  76.781  55.604
H  50.845  25.259  39.505
H  50.049  24.377  40.451
H  41.775  75.684  56.597
H  32.967  33.562  38.652
H  35.851  44.267  64.180
H  32.293  32.203  38.707
H  39.908  29.566  66.807
H  41.049  47.835  36.039
H  68.458  38.555  65.265
H  68.113  39.374  66.497
H  41.792  46.543  35.751
H  66.295  42.461  50.622
H  67.407  41.695  49.926
H  39.252  72.947  45.368
H  39.446  71.460  45.607
H  61.572  38.657  46.431
H  50.379  53.980  34.078
H  41.209  28.969  67.316
H  48.493  40.315  32.415
H  48.556  41.821  32.232
H  34.526  46.575  47.292
H  57.104  46.618  69.149
H  41.348  61.094  65.967
H  42.594  60.270  66.241
H  51.148  34.834  66.296
H  36.098  48.538  52.913
H  37.237  47.660  53.401
H  49.974  35.771  66.070
H  74.526  40.825  46.623
H  75.466  40.057  47.536
H  60.125  69.121  67.462
H  59.556  69.661  68.762
H  55.592  46.508  69.231
H  75.821  51.259  56.893
H  34.836  38.320  55.487
H  74.492  50.535  57.020
H  40.114  62.960  30.772
H  38.954  62.081  30.335
H  65.020  62.866  52.192
H  63.570  62.473  52.415
H  63.578  41.631  53.698
H  67.252  59.645  42.530
H  65.818  59.183  42.333
H  64.218  40.633  54.647
H  54.573  33.828  72.175
H  35.354  38.023  54.090
H  42.645  43.385  74.316
H  35.544  29.726  56.185
H  60.032  35.849  47.915
H  76.311  51.716  43.288
H  75.245  51.981  44.336
H  33.969  47.886  46.767
H  28.305  59.886  44.120
H  29.344  59.592  43.052
H  53.298  74.452  49.184
H  52.904  73.081  48.661
H  56.568  39.522  49.470
H  42.124  51.624  69.490
H  43.066  50.469  69.777
H  57.341  39.910  50.718
H  61.322  36.583  47.591
H  58.343  36.625  32.832
H  54.160  41.795  33.428
H  55.673  41.745  33.300
H  60.931  60.318  45.224
H  70.384  62.885  47.838
H  71.657  63.553  48.326
H  60.478  60.151  43.784
H  69.046  51.400  60.586
H  68.095  50.243  60.836
H  23.588  41.731  50.119
H  22.312  42.540  49.961
H  35.191  28.257  56.341
H  57.418  35.425  32.936
H  30.972  64.109  46.710
H  65.453  41.340  34.348
H  43.853  42.287  36.108
H  27.664  55.654  51.609
H  47.777  38.067  31.583
H  69.051  33.152  49.011
H  68.406  34.086  48.002
H  46.670  38.849  30.896
H  44.547  48.033  57.414
H  45.135  47.733  56.047
H  35.113  64.064  44.653
H  36.630  64.103  44.723
H  44.507  36.990  46.725
H  63.400  54.642  30.645
H  62.053  55.235  30.271
H  45.287  35.758  46.300
H  42.261  37.395  28.838
H  43.614  36.730  28.658
H  40.760  74.539  45.551
H  41.393  75.547  44.608
H  73.709  55.305  53.876
H  46.846  57.686  60.690
H  46.996  58.725  61.787
H  73.420  56.781  54.086
H  45.040  44.041  37.703
H  43.932  43.127  38.195
H  28.608  56.018  50.476
H  49.267  70.565  59.803
H  48.146  70.970  60.744
H  51.576  49.466  35.249
H  36.957  62.608  49.881
H  42.936  65.206  35.786
H  43.246  64.447  37.064
H  67.849  46.221  42.313
H  69.244  46.246  41.713
H  66.497  57.947  62.587
H  36.876  63.692  39.190
H  36.763  65.065  38.551
H  67.664  58.799  63.054
H  44.903  57.508  62.127
H  45.323  56.160  61.568
H  35.069  30.964  45.986
H  55.526  71.807  38.859
H  28.910  35.815  47.398
H  43.836  65.591  48.991
H  43.006  64.358  48.685
H  28.590  35.579  45.933
H  37.535  51.431  74.103
H  39.010  51.069  74.081
H  61.546  48.383  58.805
H  61.877  47.797  60.167
H  52.970  48.864  35.275
H  52.521  39.243  64.793
H  53.390  38.923  63.589
H  54.148  71.292  39.239
H  33.640  31.142  46.470
H  42.414  33.146  38.966
H  38.924  44.967  24.498
H  42.129  52.192  63.088
H  42.900  50.885  63.013
H  51.601  71.407  47.734
H  46.754  57.029  73.012
H  45.594  56.554  72.155
H  50.142  71.815  47.623
H  68.724  29.945  49.967
H  67.995  30.894  50.902
H  38.748  33.656  61.438
H  39.191  32.343  60.818
H  33.370  38.796  47.629
H  40.153  66.017  47.731
H  69.368  37.064  35.592
H  32.285  38.076  48.409
H  32.528  42.808  45.852
H  31.118  43.359  45.965
H  43.373  34.339  45.159
H  44.657  33.948  44.448
H  69.230  42.651  48.509
H  62.507  72.507  48.088
H  63.627  71.605  47.599
H  70.210  42.326  49.622
H  38.644  75.024  54.652
H  39.303  76.390  54.571
H  70.115  35.742  35.563
H  43.706  43.789  35.935
H  41.079  65.419  48.776
H  67.538  47.394  65.254
H  38.728  43.466  24.610
H  41.065  33.833  39.083
H  37.828  46.188  71.248
H  38.620  45.520  70.138
H  59.449  57.375  54.248
H  59.835  58.648  54.982
H  63.394  61.494  57.181
H  47.269  40.328  67.592
H  47.312  41.819  67.879
H  63.614  62.626  56.193
H  65.953  48.365  59.116
H  27.677  58.605  51.812
H  66.270  49.093  60.410
H  72.538  37.670  46.971
H  33.878  41.056  67.300
H  31.666  51.382  65.224
H  31.997  49.900  65.214
H  34.210  41.912  66.091
H  35.375  37.375  67.362
H  36.276  36.184  67.089
H  60.455  64.814  47.429
H  59.909  66.224  47.285
H  27.996  58.549  50.329
H  67.575  48.893  65.012
H  73.148  39.046  47.173
H  53.649  34.799  72.888
H  63.616  51.584  33.496
H  62.659  34.351  58.469
H  58.240  27.470  55.545
H  58.045  28.955  55.293
H  26.446  41.846  59.973
H  26.148  41.757  61.459
H  54.013  33.419  62.875
H  29.659  42.280  49.901
H  29.035  42.260  51.285
H  54.784  34.099  63.993
H  52.881  63.885  66.875
H  54.280  64.407  66.601
H  43.314  59.930  68.291
H  43.323  58.597  69.020
H  37.934  73.095  47.945
H  41.894  37.422  74.241
H  42.356  38.866  74.331
H  38.945  73.091  49.077
H  64.283  66.428  48.634
H  65.763  66.090  48.661
H  63.566  41.816  60.591
H  63.741  40.810  59.467
H  51.203  32.680  27.544
H  52.765  41.037  68.195
H  52.245  42.309  68.841
H  40.306  43.731  47.290
H  35.741  26.956  43.509
H  36.647  27.326  42.348
H  40.539  42.266  47.618
H  66.290  50.784  43.315
H  53.913  56.847  24.836
H  54.072  55.951  23.620
H  66.857  51.225  41.977
H  67.911  61.044  62.487
H  66.915  60.560  61.448
H  51.929  37.373  63.031
H  50.749  36.722  63.731
H  68.324  61.743  42.373
H  63.753  47.876  33.399
H  63.142  47.289  34.659
H  50.969  32.423  29.022
H  69.181  62.996  42.421
H  33.187  46.908  56.767
H  55.739  61.186  51.269
H  56.524  60.100  51.984
H  41.638  67.651  28.754
H  71.045  31.123  55.803
H  70.303  32.427  55.564
H  42.690  66.594  29.041
H  42.962  63.672  45.304
H  41.921  64.593  45.916
H  38.588  29.448  55.137
H  38.217  29.638  56.598
H  31.836  47.579  56.588
H  51.212  33.412  71.506
H  50.598  34.702  72.021
H  60.968  24.213  48.617
H  32.076  33.199  47.538
H  44.388  22.332  51.206
H  45.598  23.154  50.794
H  50.258  58.952  54.765
H  49.447  59.678  55.824
H  47.494  51.871  39.896
H  43.690  54.437  61.394
H  43.011  53.921  60.138
H  48.536  52.391  38.921
H  48.721  56.157  31.944
H  48.452  54.663  31.989
H  45.593  61.822  52.078
H  57.880  63.109  33.043
H  57.730  34.436  50.280
H  45.905  61.889  38.775
H  44.918  62.398  37.739
H  56.703  33.753  49.394
H  26.933  42.382  42.092
H  25.508  42.166  42.571
H  57.431  68.095  64.621
H  57.958  69.464  65.015
H  69.222  57.308  53.910
H  60.208  48.851  44.202
H  58.804  48.354  44.498
H  58.241  62.595  31.660
H  71.213  54.634  56.201
H  46.695  62.278  51.138
H  39.557  44.299  50.144
H  60.080  23.643  47.525
H  39.088  45.462  30.616
H  32.661  51.437  26.981
H  31.692  50.712  27.898
H  38.814  46.078  29.256
H  57.052  42.978  60.651
H  57.661  41.587  60.630
H  52.619  57.117  67.772
H  52.026  58.411  67.243
H  71.701  65.180  41.196
H  62.790  36.147  42.097
H  31.553  31.779  47.416
H  63.850  36.359  41.030
H  52.874  66.896  57.268
H  53.805  68.079  57.070
H  66.563  47.803  53.349
H  66.301  46.896  52.160
H  72.177  39.464  57.124
H  60.811  44.255  56.363
H  60.090  42.948  56.643
H  71.219  39.280  55.960
H  36.273  47.394  39.895
H  37.444  46.469  40.178
H  38.215  44.911  50.507
H  71.986  66.644  41.486
H  68.832  58.387  52.916
H  72.351  55.639  56.219
H  67.216  55.298  61.214
H  49.332  40.501  76.309
H  30.601  56.925  50.707
H  30.488  55.676  51.563
H  58.905  33.112  52.112
H  72.084  50.153  56.133
H  72.394  49.961  54.658
H  59.791  31.879  52.116
H  63.466  34.666  55.807
H  64.202  35.994  55.833
H  50.058  57.370  27.694
H  49.453  58.683  28.159
H  74.357  52.238  49.517
H  60.199  42.626  26.617
H  61.512  41.870  26.717
H  73.021  52.905  49.795
H  45.827  30.939  35.308
H  45.467  31.910  34.197
H  49.083  70.443  66.059
H  47.788  69.651  66.113
H  63.760  39.449  32.644
H  66.763  68.485  48.310
H  68.252  68.190  48.318
H  65.056  39.897  31.991
H  49.830  41.156  75.032
H  49.386  46.896  31.974
H  70.874  34.714  42.709
H  69.403  34.830  42.352
H  41.656  52.630  52.774
H  42.731  52.136  53.726
H  36.187  51.834  35.690
H  47.610  32.601  52.975
H  48.538  33.131  51.896
H  59.769  35.717  56.793
H  61.070  35.574  57.564
H  29.046  62.154  34.486
H  39.591  72.739  37.248
H  39.921  74.009  38.013
H  30.196  62.615  35.364
H  51.593  50.260  70.694
H  29.994  39.205  57.558
H  37.175  40.219  70.926
H  37.022  40.415  72.424
H  58.461  50.260  31.426
H  67.643  61.229  66.318
H  67.381  61.124  64.826
H  57.243  49.353  31.410
H  35.472  55.266  47.455
H  36.415  54.110  47.739
H  46.189  32.325  71.800
H  46.678  31.859  70.440
H  50.014  45.920  30.994
H  31.068  38.142  57.405
H  50.145  50.026  71.087
H  26.583  60.985  54.341
H  27.286  59.936  55.186
H  69.472  54.975  61.935
H  69.505  54.782  63.441
H  65.947  72.910  52.791
H  65.292  74.154  53.367
H  61.499  50.319  49.313
H  71.688  34.524  39.871
H  72.474  35.823  39.862
H  61.597  51.700  49.938
H  32.687  40.521  50.282
H  33.485  39.313  49.824
H  50.767  28.777  62.810
H  36.566  31.402  34.273
H  49.409  29.231  63.317
H  48.764  35.235  42.304
H  47.834  36.424  42.472
H  40.581  40.135  33.160
H  53.101  42.325  24.028
H  53.299  40.910  24.542
H  40.855  31.383  44.230
H  41.444  32.601  43.540
H  47.324  27.213  66.643
H  69.732  48.338  48.869
H  68.506  49.158  48.507
H  46.755  28.592  66.925
H  39.691  41.366  33.174
H  68.119  56.207  60.398
H  56.548  44.393  70.096
H  37.190  32.523  33.460
H  39.064  45.216  46.240
H  31.072  49.863  51.014
H  32.567  50.082  50.855
H  38.193  44.325  47.108
H  28.913  44.214  62.181
H  28.363  42.995  62.902
H  51.019  34.888  69.870
H  49.821  34.662  68.965
H  62.270  42.329  39.149
H  31.405  64.426  35.679
H  32.254  65.654  35.958
H  56.366  42.934  69.715
H  62.153  43.688  39.818
H  52.026  58.747  43.799
H  37.333  55.720  29.050
H  37.838  56.939  29.803
H  52.677  25.942  34.869
H  46.838  44.605  54.319
H  48.098  45.411  54.582
H  51.245  25.750  34.403
H  31.355  46.868  59.284
H  30.417  47.947  58.773
H  28.647  35.358  58.702
H  29.162  36.782  58.810
H  52.441  60.202  43.931
H  63.530  33.361  59.221
H  43.838  46.062  30.279
H  57.431  65.266  67.523
H  60.879  44.698  32.153
H  37.038  57.050  41.084
H  42.711  60.809  70.435
H  42.594  59.399  70.986
H  48.779  74.405  39.075
H  50.175  74.014  38.623
H  65.026  51.987  52.605
H  28.129  48.462  53.956
H  29.286  47.487  54.087
H  63.693  51.531  53.172
H  71.432  56.273  35.869
H  71.667  54.801  36.155
H  56.568  60.642  59.977
H  55.109  61.054  59.900
H  72.740  63.944  43.876
H  64.389  33.460  51.975
H  64.269  34.124  53.336
H  73.549  64.483  42.710
H  22.882  57.164  48.983
H  21.838  56.136  48.586
H  63.204  35.464  51.085
H  61.949  34.610  51.105
H  47.569  48.648  21.594
H  61.448  45.934  32.826
H  37.423  56.942  39.619
H  70.226  53.454  38.504
H  70.874  53.813  39.830
H  31.415  33.180  62.926
H  30.786  32.135  62.021
H  48.204  76.604  60.141
H  28.539  67.456  47.118
H  29.961  67.804  46.711
H  49.569  75.951  60.277
H  31.481  57.862  35.968
H  31.623  56.437  36.475
H  56.352  26.878  34.655
H  54.957  26.289  34.772
H  47.241  30.174  68.850
H  64.235  41.736  57.535
H  37.500  35.232  52.134
H  47.913  31.399  68.255
H  73.685  57.913  47.514
H  75.176  57.634  47.441
H  33.037  38.021  65.874
H  33.870  38.881  66.809
H  35.831  50.638  57.749
H  25.971  52.427  59.696
H  26.298  50.944  59.709
H  35.085  49.892  56.657
H  36.840  52.571  61.492
H  38.211  52.492  60.845
H  36.660  34.825  53.332
H  63.989  40.248  57.353
H  47.347  50.113  21.263
H  33.628  51.778  31.826
H  34.244  39.272  52.570
H  33.274  40.390  52.910
H  26.377  65.455  52.767
H  66.850  56.557  52.137
H  67.838  55.427  51.910
H  61.784  65.986  69.867
H  60.710  64.981  69.492
H  50.611  65.296  37.137
H  36.382  58.188  58.224
H  35.600  56.889  58.297
H  50.352  66.759  36.821
H  26.008  64.623  53.983
H  43.104  50.045  23.062
H  53.085  38.213  42.859
H  51.866  39.008  43.293
H  60.052  72.410  38.531
H  33.536  47.094  49.723
H  32.467  46.457  50.593
H  60.957  72.143  39.721
H  59.987  40.510  46.103
H  59.060  41.024  45.015
H  69.516  43.688  37.618
H  69.179  42.382  38.316
H  65.049  51.767  33.028
H  44.196  51.055  22.754
H  37.896  29.777  49.901
H  40.659  73.980  58.129
H  54.283  45.711  26.065
H  34.156  50.392  32.155
H  41.534  66.713  71.697
H  40.283  66.060  71.136
H  54.409  28.934  62.207
H  40.892  31.151  37.237
H  40.292  30.898  38.609
H  55.636  28.504  61.421
H  57.267  36.254  44.340
H  56.330  35.582  45.329
H  70.546  52.757  41.733
H  71.504  52.297  42.818
H  39.705  74.690  57.184
H  57.784  44.494  59.201
H  32.630  54.894  51.315
H  57.228  45.547  58.259
H  51.067  53.562  64.018
H  51.225  53.806  65.508
H  70.997  57.730  37.461
H  70.809  57.708  38.967
H  46.605  42.136  28.021
H  57.398  69.917  41.645
H  56.913  70.188  40.232
H  47.455  41.005  27.470
H  55.354  45.373  25.043
H  34.117  55.202  51.290
H  44.533  46.048  31.630
H  37.677  28.740  48.813
H  35.828  72.175  53.035
H  40.330  55.489  53.830
H  50.735  55.813  78.259
H  50.563  57.172  77.601
H  36.935  54.568  62.484
H  35.712  55.372  62.079
H  40.058  55.421  56.914
H  55.505  32.014  65.921
H  56.576  32.757  65.142
H  40.095  56.430  55.779
H  63.407  58.985  37.621
H  64.278  58.603  38.805
H  61.659  64.884  60.784
H  60.303  64.644  61.423
H  27.259  53.169  55.504
H  52.500  40.556  50.243
H  53.920  41.010  50.532
H  26.016  52.488  56.049
H  71.228  66.000  59.414
H  70.300  64.997  60.077
H  71.500  54.164  68.649
H  71.658  53.787  67.186
H  30.001  62.640  55.917
H  50.703  51.567  64.871
H  39.896  60.674  37.088
H  39.137  61.296  38.247
H  41.209  54.723  54.803
H  51.193  58.913  39.263
H  56.054  65.690  67.042
H  39.499  51.489  62.316
H  34.306  49.180  58.879
H  34.027  47.688  58.932
H  39.952  51.961  63.686
H  44.472  62.122  70.798
H  45.112  62.221  72.172
H  58.877  63.508  57.146
H  58.307  62.937  55.860
H  58.170  62.629  46.280
H  43.853  33.221  49.653
H  49.283  51.987  64.536
H  43.437  34.007  50.884
H  63.613  57.432  64.843
H  65.017  56.934  64.543
H  62.037  52.042  57.831
H  63.447  52.360  58.298
H  29.791  42.721  35.014
H  77.212  40.653  51.211
H  76.119  39.866  50.508
H  28.455  42.508  35.703
H  65.349  29.176  53.387
H  66.857  29.313  53.278
H  51.533  57.691  40.098
H  56.844  62.853  45.574
H  30.398  63.000  54.496
H  24.471  56.499  42.655
H  23.400  55.433  42.805
H  35.786  58.569  54.032
H  49.458  61.794  70.400
H  55.573  62.913  56.614
H  54.460  62.172  55.894
H  42.766  71.387  60.982
H  41.695  72.447  61.171
H  64.615  56.175  48.167
H  66.904  36.302  55.758
H  66.540  37.169  56.951
H  63.699  54.986  48.400
H  56.660  50.152  47.804
H  35.948  57.109  54.418
H  57.307  51.463  48.213
H  31.148  61.790  58.776
H  62.327  38.719  65.798
H  50.739  39.196  40.631
H  52.002  38.611  40.025
H  62.859  37.326  65.507
H  28.287  62.039  57.164
H  29.286  61.008  57.661
H  54.530  31.738  29.468
H  56.002  31.863  29.822
H  46.424  51.790  27.409
H  35.158  70.861  53.398
H  31.902  61.078  59.885
H  45.839  52.344  28.696
H  48.720  60.471  70.502
H  53.543  27.982  31.682
H  34.856  47.953  62.761
H  36.339  47.873  62.444
H  40.813  53.337  26.036
H  34.913  43.577  37.040
H  34.736  45.064  36.786
H  39.334  52.992  26.033
H  37.092  45.621  37.498
H  36.845  47.081  37.164
H  58.001  42.606  26.709
H  58.305  44.089  26.592
H  55.721  28.518  48.723
H  54.867  28.635  31.323
H  39.739  34.537  65.054
H  56.493  28.385  50.024
H  46.184  74.781  60.315
H  47.352  73.878  59.957
H  54.331  29.329  59.278
H  53.492  28.065  59.341
H  57.035  71.458  37.297
H  41.969  71.868  65.215
H  42.797  70.642  64.871
H  58.272  71.855  36.510
H  43.228  36.263  49.736
H  44.270  35.962  48.673
H  39.367  33.124  65.468
H  36.929  51.651  34.378
H  57.059  42.505  40.360
H  46.602  26.488  47.830
H  40.504  52.611  75.105
H  51.549  72.323  38.319
H  51.793  72.154  39.808
H  39.298  53.485  75.402
H  50.371  58.184  30.353
H  50.553  56.687  30.536
H  64.721  36.984  50.534
H  63.379  37.679  50.688
H  31.092  45.958  36.331
H  21.200  50.771  51.627
H  22.194  51.755  51.036
H  30.423  44.614  36.101
H  64.092  43.539  55.047
H  62.754  43.714  54.350
H  49.061  38.865  28.104
H  50.121  39.593  27.296
H  47.204  64.280  60.002
H  45.193  68.508  36.980
H  45.575  69.500  38.064
H  48.163  63.334  60.704
H  64.126  47.370  30.794
H  64.597  45.939  30.991
H  60.586  37.739  49.312
H  59.947  63.094  54.416
H  61.356  63.625  54.615
H  46.527  57.494  52.517
H  46.060  56.523  53.587
H  46.666  39.300  71.425
H  45.643  40.422  71.380
H  63.469  32.911  44.129
H  63.587  33.653  45.449
H  37.103  29.969  58.949
H  37.426  39.846  40.688
H  37.912  38.410  40.776
H  37.628  31.106  59.808
H  66.963  29.278  46.599
H  66.336  30.644  46.381
H  68.281  49.169  57.868
H  60.635  39.061  50.058
H  67.400  50.082  58.703
H  55.524  37.566  32.801
H  56.797  38.114  33.423
H  45.734  58.568  38.186
H  35.545  41.218  26.618
H  34.408  40.961  27.592
H  43.374  47.853  61.225
H  42.159  48.042  60.334
H  65.724  68.638  50.243
H  47.120  56.892  38.516
H  45.990  55.892  38.693
H  66.743  69.750  50.416
H  44.485  59.432  38.177
H  27.235  57.712  57.730
H  71.761  60.374  50.845
H  70.826  61.563  50.983
H  56.892  36.373  38.737
H  26.115  58.011  35.921
H  61.781  42.897  45.714
H  61.894  44.407  45.599
H  26.764  57.047  34.943
H  72.560  50.857  33.306
H  71.122  50.388  33.441
H  59.201  49.747  70.789
H  60.287  50.768  71.079
H  46.396  65.895  61.258
H  75.165  38.590  56.759
H  58.057  35.845  37.918
H  73.847  37.926  57.115
H  64.543  36.866  29.232
H  63.905  38.147  29.738
H  72.261  61.696  41.598
H  71.267  62.845  41.591
H  41.913  33.131  60.682
H  61.607  51.156  30.506
H  60.101  51.230  30.326
H  40.907  34.263  60.791
H  51.592  78.510  49.131
H  50.094  78.603  49.363
H  68.326  52.746  62.532
H  46.623  66.590  59.927
H  56.012  32.904  40.305
H  50.092  40.012  55.911
H  48.352  25.421  45.345
H  27.773  59.119  57.922
H  60.548  51.215  68.469
H  61.099  52.350  69.315
H  50.378  35.052  29.525
H  51.894  34.977  29.485
H  27.455  64.121  59.857
H  60.867  57.826  38.723
H  60.964  59.324  38.491
H  27.686  62.804  59.137
H  35.391  56.511  67.055
H  34.458  56.156  68.200
H  49.742  41.390  56.446
H  70.969  51.131  65.325
H  64.260  62.545  60.131
H  44.455  69.756  43.411
H  45.255  70.753  44.230
H  63.907  61.360  61.012
H  58.004  36.522  74.204
H  58.140  36.438  72.693
H  62.022  59.262  73.651
H  63.419  59.851  73.576
H  48.901  25.431  43.929
H  60.030  70.511  65.531
H  59.695  71.492  66.641
H  71.545  50.796  66.690
H  69.812  52.525  62.307
H  31.805  41.479  54.562
H  55.369  31.552  40.048
H  57.414  37.873  36.573
H  56.244  36.910  36.470
H  28.333  58.122  65.730
H  31.042  42.959  65.968
H  31.970  42.672  67.136
H  34.093  65.179  40.788
H  35.244  64.204  40.613
H  36.921  57.769  32.449
H  29.837  38.983  62.267
H  30.344  38.461  60.934
H  35.414  57.950  32.385
H  51.532  31.255  54.789
H  51.633  32.726  54.426
H  53.184  46.524  63.759
H  54.396  45.632  63.962
H  40.767  71.632  43.379
H  46.669  46.070  29.324
H  46.541  44.558  29.380
H  42.185  71.135  43.161
H  44.269  49.477  77.306
H  42.942  50.114  77.677
H  31.911  56.412  56.018
H  30.613  56.848  55.361
H  27.543  57.174  66.615
H  28.247  48.241  59.498
H  28.384  49.752  59.434
H  60.964  26.769  59.582
H  25.478  43.514  63.519
H  32.155  54.341  45.958
H  31.484  53.501  44.886
H  64.269  34.230  35.823
H  35.921  54.499  74.538
H  37.133  53.584  74.534
H  65.730  34.090  36.213
H  34.105  61.673  47.955
H  34.584  62.352  49.226
H  56.883  31.539  34.258
H  58.048  30.576  34.397
H  30.446  64.498  44.609
H  29.676  51.400  51.477
H  46.298  26.898  55.214
H  28.360  50.652  51.365
H  29.444  46.800  56.165
H  30.198  45.487  56.053
H  63.815  60.550  68.449
H  62.593  59.649  68.444
H  65.717  36.478  31.580
H  46.243  58.371  30.251
H  47.538  57.601  30.065
H  66.698  35.372  31.927
H  60.398  27.173  60.932
H  46.236  28.416  55.220
H  49.021  57.324  75.092
H  49.685  56.001  75.434
H  29.439  63.372  44.457
H  66.627  51.237  62.310
H  65.874  35.601  41.452
H  66.150  36.560  42.597
H  66.166  49.801  62.491
H  55.495  47.489  71.610
H  54.021  47.855  71.646
H  49.814  43.268  59.361
H  49.786  41.961  58.588
H  51.832  65.092  34.548
H  33.479  62.718  33.014
H  32.852  61.967  34.175
H  36.872  62.404  35.326
H  51.600  64.044  35.623
H  73.572  45.885  52.301
H  52.079  60.238  53.273
H  50.588  60.476  53.105
H  28.659  39.068  49.281
H  60.803  55.315  50.729
H  61.123  56.749  51.111
H  28.978  40.217  50.222
H  29.260  31.970  45.036
H  29.399  30.531  44.572
H  63.332  67.905  34.624
H  62.099  68.790  34.695
H  72.720  46.386  53.454
H  31.043  40.197  54.278
H  37.300  63.713  34.686
H  66.936  67.004  65.970
H  38.727  31.722  42.753
H  38.170  31.083  44.013
H  55.602  72.235  66.603
H  54.800  73.438  66.140
H  67.320  54.294  37.655
H  52.129  39.320  69.440
H  51.363  38.285  68.634
H  66.237  53.230  37.610
H  31.727  45.315  32.221
H  30.351  44.878  32.692
H  46.816  66.334  55.452
H  65.529  66.435  65.916
H  48.310  66.182  55.679
H  65.630  49.662  54.727
H  64.164  50.056  54.737
H  26.772  48.278  38.314
H  73.659  51.524  41.852
H  73.275  51.058  43.245
H  61.342  66.589  52.422
H  61.244  68.105  52.453
H  41.719  59.300  26.266
H  33.149  55.999  60.135
H  34.180  57.080  60.409
H  42.427  59.517  27.592
H  28.019  48.998  37.830
H  25.986  42.087  63.633
H  28.443  44.289  45.422
H  34.284  57.518  71.636
H  51.804  35.761  46.518
H  50.389  36.242  46.791
H  44.777  39.932  40.379
H  38.897  46.186  68.064
H  37.403  46.427  67.946
H  43.923  41.163  40.131
H  52.177  73.706  65.018
H  51.226  72.789  65.767
H  56.608  57.143  70.296
H  55.385  56.856  69.442
H  40.153  47.475  66.059
H  36.190  37.018  52.314
H  37.643  37.435  52.171
H  40.303  46.052  65.550
H  54.016  38.605  31.582
H  54.388  39.940  30.962
H  65.300  68.298  61.351
H  64.894  69.756  61.228
H  44.984  45.769  23.564
H  59.215  41.171  50.694
H  59.046  41.815  52.059
H  43.498  45.832  23.870
H  42.841  76.003  54.102
H  60.054  68.658  56.512
H  59.906  69.587  55.320
H  56.347  64.472  38.095
H  47.225  56.125  76.175
H  41.807  65.649  68.967
H  44.123  55.641  69.920
H  40.009  25.325  60.212
H  38.604  25.714  60.638
H  42.298  35.153  29.449
H  40.912  35.712  29.717
H  65.525  46.798  29.001
H  63.609  39.764  44.492
H  63.292  39.450  43.040
H  67.026  46.723  28.777
H  35.667  41.239  34.990
H  42.577  76.418  52.665
H  36.634  41.845  33.988
H  33.220  35.352  46.548
H  27.701  56.614  54.300
H  37.257  40.697  59.238
H  36.107  39.719  59.069
H  27.911  56.781  55.795
H  42.318  39.135  69.017
H  41.298  40.259  69.065
H  36.491  43.781  67.262
H  37.408  42.733  66.657
H  56.448  63.223  38.954
H  46.350  56.042  74.936
H  34.378  35.590  45.595
H  60.062  32.924  49.433
H  59.860  34.400  49.730
H  63.114  67.902  46.112
H  71.060  46.530  45.370
H  34.999  60.807  44.701
H  36.023  61.910  44.905
H  45.999  74.634  40.471
H  53.531  44.898  59.516
H  53.746  45.593  60.849
H  47.303  75.045  41.132
H  24.605  39.752  49.572
H  25.682  40.821  49.516
H  50.432  63.388  52.587
H  50.477  62.289  51.540
H  69.984  45.656  44.751
H  47.304  54.178  62.981
H  37.820  52.338  64.220
H  47.239  55.623  62.516
H  48.293  66.398  45.037
H  49.639  65.821  45.439
H  44.671  45.276  75.315
H  43.702  46.445  75.314
H  57.545  57.758  67.735
H  66.043  58.754  65.201
H  65.026  59.880  65.126
H  58.774  58.649  67.769
H  53.833  50.178  64.013
H  38.170  52.241  65.694
H  42.309  66.750  68.048
H  42.618  39.181  59.111
H  50.300  65.569  51.686
H  49.334  36.725  54.778
H  50.034  35.384  54.644
H  63.182  68.290  47.579
H  37.779  28.089  60.160
H  37.590  27.604  61.587
H  66.305  35.962  46.785
H  65.641  37.216  47.328
H  65.473  64.901  42.436
H  64.674  33.441  61.807
H  65.180  34.112  60.541
H  64.478  63.754  42.410
H  49.258  66.485  52.304
H  31.497  48.593  47.463
H  75.788  44.839  40.836
H  76.375  43.454  40.625
H  28.046  59.464  60.440
H  60.443  58.946  52.669
H  61.831  58.471  53.063
H  29.184  59.329  61.436
H  35.545  45.027  74.459
H  34.906  43.822  73.792
H  66.955  62.571  54.494
H  66.958  61.145  55.017
H  43.044  38.102  60.091
H  32.735  48.884  48.294
H  35.183  58.618  71.100
H  42.625  55.755  69.693
H  54.836  65.455  55.646
H  48.139  75.691  43.886
H  72.332  68.165  52.052
H  69.807  49.487  31.202
H  71.322  49.551  31.283
H  71.632  66.879  52.457
H  42.178  64.157  38.975
H  41.138  64.938  38.191
H  54.683  72.334  45.456
H  54.073  70.944  45.426
H  50.981  48.114  32.878
H  63.283  36.792  37.470
H  62.884  38.108  38.113
H  52.423  48.501  32.599
H  46.187  61.091  47.524
H  46.813  62.401  47.075
H  36.980  57.280  64.976
H  35.864  56.289  64.692
H  44.881  23.582  54.288
H  66.060  60.469  59.218
H  65.900  61.312  57.965
H  45.159  22.090  54.336
H  35.409  53.807  36.273
H  35.834  55.214  35.889
H  48.869  76.594  42.907
H  66.939  64.946  61.340
H  68.212  64.278  61.830
H  59.517  45.909  59.025
H  27.763  44.495  46.764
H  36.466  55.708  71.897
H  36.766  57.184  72.096
H  55.860  40.846  43.462
H  55.516  42.324  43.527
H  69.004  40.286  60.364
H  55.532  68.494  53.166
H  54.377  69.479  53.121
H  68.176  39.958  59.134
H  61.530  28.672  57.391
H  60.043  28.813  57.669
H  55.874  49.900  70.751
H  39.768  44.549  37.095
H  32.119  42.614  52.112
H  31.803  34.434  41.250
H  33.138  34.657  40.562
H  31.170  41.503  51.700
H  59.979  65.771  65.290
H  58.617  66.427  65.431
H  68.507  42.758  44.470
H  68.568  42.226  45.891
H  59.803  47.267  59.642
H  49.862  50.579  40.627
H  48.836  50.254  41.698
H  41.243  44.502  36.738
H  56.701  49.799  69.481
H  63.709  30.727  44.405
H  48.487  60.222  61.173
H  61.866  52.299  46.461
H  63.056  53.242  46.421
H  62.598  37.411  62.985
H  35.143  58.222  41.891
H  33.726  57.929  41.431
H  63.922  37.815  62.362
H  38.842  47.977  46.215
H  39.529  48.807  45.145
H  36.039  27.362  49.962
H  37.394  26.737  49.681
H  62.740  57.302  71.756
H  54.092  44.364  28.644
H  40.367  50.501  46.264
H  61.258  57.255  71.429
H  30.347  50.320  53.297
H  29.616  49.225  52.540
H  52.035  28.241  46.267
H  52.585  29.114  47.381
H  26.492  44.968  50.995
H  27.545  57.991  42.225
H  27.007  56.593  41.974
H  26.485  44.621  52.473
H  42.414  55.966  33.156
H  41.198  55.213  32.645
H  39.347  51.597  46.009
H  54.893  65.919  57.091
H  53.998  42.854  28.516
H  45.874  76.255  45.748
H  47.885  61.196  60.175
H  65.119  30.190  44.579
H  57.031  64.000  47.570
H  57.310  64.471  48.987
H  37.431  54.322  32.197
H  37.618  53.942  33.655
H  41.341  44.260  57.259
H  61.484  57.379  26.309
H  61.876  58.826  26.554
H  42.349  44.961  56.366
H  62.219  59.880  71.233
H  44.818  43.117  76.450
H  63.111  61.026  71.680
H  59.285  23.712  44.745
H  70.406  35.225  48.241
H  50.974  36.676  38.527
H  49.970  37.626  39.157
H  71.683  35.013  49.035
H  48.638  39.053  41.352
H  48.345  39.718  42.686
H  68.607  44.393  67.910
H  69.038  44.024  66.501
H  43.324  43.376  76.542
H  45.782  74.873  45.126
H  60.759  24.080  44.743
H  57.150  40.991  40.448
H  33.057  49.321  30.495
H  61.967  67.830  63.167
H  39.742  57.220  42.380
H  38.917  58.133  41.490
H  72.422  56.343  61.966
H  73.459  57.223  62.641
H  42.650  34.306  56.004
H  60.399  47.926  69.909
H  59.263  47.268  69.147
H  41.201  34.581  55.639
H  58.823  53.884  74.995
H  59.890  53.966  76.072
H  25.565  58.412  47.108
H  26.809  57.834  47.758
H  40.173  50.819  26.693
H  32.618  57.281  48.853
H  33.839  56.592  49.437
H  41.155  51.406  27.693
H  44.669  65.966  54.970
H  44.798  66.768  56.253
H  58.649  41.508  62.806
H  59.503  40.987  61.664
H  45.832  38.767  66.961
H  54.505  28.742  56.771
H  54.212  27.348  57.296
H  55.369  63.333  58.861
H  30.813  38.465  36.704
H  31.253  39.464  35.649
H  56.082  64.646  58.592
H  47.376  26.935  51.857
H  59.813  43.731  49.319
H  59.614  45.235  49.385
H  48.144  25.746  51.306
H  36.207  72.143  58.535
H  34.699  72.047  58.384
H  62.258  51.468  59.976
H  61.969  50.004  60.261
H  43.529  53.636  70.686
H  38.386  63.770  48.673
H  39.732  63.871  47.978
H  44.469  38.102  67.054
H  42.078  53.693  70.242
H  65.158  49.619  25.555
H  55.266  30.976  55.807
H  54.564  32.296  56.072
H  70.627  44.329  35.695
H  57.934  50.449  25.892
H  59.243  49.681  25.849
H  71.563  44.257  34.501
H  43.039  65.920  51.397
H  43.279  67.375  51.033
H  75.570  41.950  51.891
H  74.828  40.644  52.111
H  65.348  51.125  25.585
H  47.955  57.038  65.981
H  46.642  56.275  65.992
H  63.094  49.766  71.884
H  45.480  32.297  63.935
H  59.373  51.989  28.260
H  57.960  51.994  27.704
H  56.409  66.776  70.037
H  56.227  65.760  71.150
H  60.141  69.180  30.969
H  57.289  29.652  53.348
H  56.095  29.108  54.112
H  59.821  68.172  32.059
H  67.782  67.857  46.191
H  67.774  69.343  46.506
H  50.464  52.513  71.135
H  41.867  45.079  31.196
H  41.092  69.619  35.741
H  37.492  31.944  40.948
H  37.149  30.647  41.659
H  40.962  69.411  34.242
H  32.156  66.398  45.705
H  32.633  67.825  45.498
H  42.162  62.267  36.198
H  42.698  62.388  37.614
H  65.913  46.087  48.857
H  24.962  60.045  42.570
H  24.467  61.427  42.962
H  43.002  44.074  31.285
H  30.814  47.356  41.009
H  51.946  52.831  71.031
H  55.435  31.979  52.722
H  63.811  48.894  72.900
H  31.045  54.893  29.650
H  78.350  45.310  48.334
H  77.185  44.418  48.724
H  31.481  56.202  29.015
H  68.181  37.585  67.846
H  67.299  36.350  67.923
H  36.299  27.977  58.476
H  37.327  26.865  58.364
H  31.988  64.030  62.965
H  49.281  26.998  49.666
H  45.759  31.017  63.167
H  50.587  26.260  49.429
H  37.913  52.106  27.460
H  37.536  50.636  27.522
H  64.638  71.011  53.759
H  64.696  69.550  54.170
H  35.772  54.471  30.416
H  69.501  47.127  30.205
H  70.966  47.501  30.346
H  35.877  55.667  31.346
H  59.990  45.679  61.163
H  59.221  44.403  60.865
H  55.523  32.522  51.307
H  33.491  63.811  62.936
H  66.261  47.565  48.881
H  32.056  46.755  40.374
H  41.689  64.541  60.890
H  47.056  76.759  58.180
H  64.790  36.308  65.999
H  65.940  35.375  66.335
H  63.261  40.438  39.677
H  43.910  64.840  66.050
H  45.255  64.135  66.034
H  64.584  41.086  40.050
H  52.033  60.087  55.468
H  52.764  60.913  56.512
H  37.408  69.092  52.781
H  35.931  68.824  53.007
H  50.790  37.047  33.426
H  60.390  74.011  50.965
H  59.545  73.052  50.147
H  49.658  36.298  34.107
H  45.253  52.047  66.979
H  43.806  51.628  66.783
H  48.591  54.439  29.524
H  47.550  53.341  29.656
H  75.694  37.520  53.865
H  57.433  72.716  62.095
H  57.466  72.959  63.594
H  74.587  38.447  54.337
H  46.874  75.569  57.253
H  62.126  55.729  46.845
H  70.082  45.803  62.448
H  69.276  46.943  63.044
H  42.133  31.417  54.976
H  40.855  32.223  54.819
H  45.171  26.838  47.462
H  35.864  53.546  64.169
H  35.220  54.285  65.329
H  39.211  38.641  43.074
H  38.346  39.465  44.013
H  62.294  51.415  55.616
H  46.469  61.675  32.748
H  45.410  61.908  31.684
H  60.914  51.401  54.981
H  56.956  38.636  45.046
H  39.772  74.940  51.603
H  52.533  57.703  22.304
H  51.897  58.359  23.517
H  48.746  55.252  36.686
H  44.073  48.918  63.377
H  45.400  48.229  63.644
H  49.016  53.993  37.491
H  66.483  69.902  37.911
H  66.988  68.474  37.792
H  65.385  32.789  38.156
H  66.494  31.874  37.667
H  62.006  54.987  45.525
H  40.153  76.046  52.572
H  57.521  39.447  43.893
H  72.973  51.768  63.445
H  71.763  52.681  63.354
H  29.500  42.440  41.407
H  29.843  41.444  40.313
H  36.512  69.032  47.985
H  36.671  67.611  48.499
H  58.911  63.894  70.322
H  56.147  69.611  43.428
H  55.181  70.146  42.385
H  58.793  64.133  68.827
H  71.718  58.864  54.175
H  70.251  59.192  54.392
H  41.707  54.201  58.393
H  56.759  33.997  53.647
H  42.289  54.643  57.062
H  35.355  41.646  59.817
H  34.633  42.539  60.811
H  47.368  49.932  36.188
H  33.332  61.058  29.913
H  32.657  59.705  29.771
H  68.619  42.112  59.192
H  70.098  41.765  59.163
H  58.610  70.048  45.470
H  31.129  55.958  47.847
H  31.733  55.074  48.924
H  57.662  70.458  46.584
H  47.853  51.308  36.610
H  41.609  66.049  61.049
H  53.141  69.651  43.067
H  57.935  34.339  54.545
H  69.611  63.139  39.538
H  43.184  60.036  47.754
H  44.416  59.227  48.119
H  70.601  64.289  39.487
H  46.531  64.534  30.117
H  46.937  63.100  29.826
H  69.756  45.122  57.605
H  68.649  45.181  56.567
H  65.847  39.687  55.784
H  36.083  40.909  49.998
H  35.449  39.752  50.751
H  51.954  68.773  42.712
H  64.728  38.660  55.792
H  40.859  60.162  68.399
H  31.178  45.424  28.606
H  31.138  45.183  30.105
H  57.204  55.861  43.757
H  52.427  37.280  28.391
H  50.987  37.494  27.959
H  57.525  54.376  43.735
H  38.265  37.461  27.175
H  39.497  36.785  26.597
H  42.071  73.541  51.674
H  43.081  74.275  50.809
H  39.775  60.497  67.389
H  60.988  66.680  63.012
H  57.141  63.050  72.464
H  59.174  58.723  71.107
H  46.319  29.406  38.233
H  60.467  44.943  73.059
H  66.155  43.108  52.727
H  65.279  44.222  53.274
H  31.485  66.182  43.621
H  31.607  65.454  42.294
H  49.938  50.655  60.972
H  42.181  57.907  53.293
H  42.713  56.493  53.448
H  49.362  49.429  60.285
H  66.915  40.527  36.071
H  68.123  40.009  35.311
H  64.753  54.345  53.661
H  65.390  55.715  53.511
H  40.874  70.877  37.805
H  29.484  42.587  31.105
H  29.357  44.053  30.729
H  40.677  69.374  37.888
H  62.141  49.246  68.502
H  63.193  49.358  69.592
H  50.095  60.603  33.261
H  51.326  60.057  32.560
H  39.834  60.312  74.273
H  44.813  29.249  38.349
H  59.620  46.157  72.723
H  41.265  26.484  53.785
H  41.787  25.449  54.766
H  58.753  51.264  59.489
H  60.041  51.807  58.894
H  64.429  70.913  56.769
H  33.205  45.976  43.217
H  33.945  46.458  44.453
H  64.733  69.468  57.121
H  40.362  72.142  54.559
H  39.028  72.864  54.482
H  59.334  60.505  29.870
H  59.874  61.690  29.088
H  63.242  42.805  35.763
H  49.862  40.750  37.508
H  37.620  46.484  45.005
H  63.141  43.774  34.599
H  26.747  44.193  39.719
H  27.744  45.309  39.460
H  53.748  60.861  28.183
H  52.308  61.343  28.154
H  49.526  38.172  60.992
H  30.910  50.689  33.988
H  29.880  50.168  34.976
H  49.770  39.531  61.624
H  26.042  38.697  61.452
H  26.880  39.784  62.101
H  36.154  46.412  44.615
H  50.812  39.666  37.987
H  38.325  60.474  74.204
H  48.035  35.373  56.426
H  33.011  48.580  32.650
H  32.737  49.471  33.849
H  31.428  56.697  42.980
H  24.615  53.493  62.177
H  26.083  53.811  62.401
H  74.552  44.165  53.814
H  73.506  44.242  54.913
H  63.467  63.314  71.624
H  51.095  51.526  21.802
H  52.381  50.801  22.156
H  63.205  64.691  71.040
H  31.557  55.217  42.664
H  54.954  42.365  36.287
H  60.985  59.058  29.680
H  61.288  59.848  28.419
H  28.040  39.011  41.670
H  60.959  31.650  47.857
H  59.449  31.678  47.702
H  27.622  37.904  42.622
H  65.477  30.367  41.891
H  65.808  31.848  41.851
H  42.060  51.432  30.587
H  42.026  50.010  31.120
H  34.496  48.853  30.621
H  55.563  40.982  36.440
H  59.072  70.060  38.395
H  40.126  27.170  47.635
H  39.273  40.351  55.904
H  47.766  34.968  54.987
H  60.983  63.291  59.402
H  62.324  62.760  58.927
H  55.695  32.639  61.015
H  53.049  67.830  36.046
H  51.631  68.111  35.581
H  54.878  31.363  61.120
H  33.486  32.669  35.206
H  34.683  31.747  35.358
H  48.217  58.876  44.774
H  48.025  60.122  45.621
H  39.978  27.966  48.920
H  42.186  28.313  55.991
H  66.712  44.100  60.013
H  42.525  28.901  54.632
H  29.004  54.751  42.033
H  29.248  56.241  41.869
H  74.059  41.827  48.594
H  74.590  43.247  48.677
H  58.959  30.146  42.432
H  57.057  52.109  33.354
H  58.388  51.380  33.318
H  58.003  29.767  43.550
H  39.971  39.032  55.623
H  67.620  44.032  58.797
H  58.297  63.497  73.341
H  59.377  69.341  37.092
H  61.688  36.167  70.695
H  35.128  48.580  42.952
H  29.596  52.629  64.764
H  29.130  52.812  66.198
H  57.176  71.188  57.271
H  56.487  72.534  57.416
H  70.627  58.359  43.942
H  58.419  49.622  52.995
H  59.896  49.281  52.897
H  72.109  58.669  44.058
H  32.672  60.473  32.417
H  33.889  59.580  32.252
H  48.974  60.570  39.575
H  47.761  61.126  40.299
H  45.830  41.287  33.447
H  59.207  66.633  53.396
H  59.763  66.300  54.769
H  45.565  39.953  32.770
H  50.037  38.419  31.770
H  49.607  38.044  30.362
H  34.079  43.049  26.982
H  35.383  43.826  27.017
H  43.903  77.183  51.085
H  54.804  64.451  49.113
H  65.897  35.355  39.263
H  66.635  34.600  38.171
H  35.235  49.822  42.084
H  45.068  60.350  59.826
H  58.654  60.149  71.156
H  69.153  42.353  69.002
H  55.895  56.269  26.621
H  55.823  57.549  25.806
H  69.837  43.593  69.550
H  58.824  69.410  61.001
H  57.799  68.291  61.049
H  46.560  62.143  44.787
H  45.618  62.604  43.689
H  59.216  63.971  30.214
H  39.723  32.686  49.694
H  54.671  65.602  50.095
H  39.757  34.006  48.943
H  56.912  66.120  55.304
H  57.594  65.007  56.079
H  65.497  61.328  42.740
H  66.326  62.600  42.714
H  41.733  42.664  40.420
H  69.085  33.530  52.630
H  70.490  34.000  52.964
H  41.048  43.756  39.617
H  32.788  52.766  52.993
H  32.386  51.309  52.842
H  45.119  59.714  61.205
H  59.205  64.018  28.696
H  42.548  77.863  51.007
H  30.073  43.576  54.777
H  29.567  42.373  54.000
H  37.575  33.174  49.691
H  62.542  31.875  61.810
H  47.473  65.040  50.095
H  47.767  66.440  49.586
H  51.461  46.596  65.125
H  50.693  45.575  64.304
H  60.176  36.752  73.474
H  61.870  67.106  67.741
H  60.635  66.331  67.315
H  60.976  37.411  72.364
H  37.208  37.863  68.557
H  37.970  34.587  50.083
H  36.683  38.285  69.918
H  42.472  37.388  53.734
H  47.035  37.138  58.959
H  69.786  48.632  65.909
H  71.269  48.662  66.237
H  47.471  35.700  59.177
H  56.761  70.383  68.748
H  57.204  70.908  67.394
H  22.928  53.790  46.150
H  22.535  55.153  45.607
H  28.327  62.052  61.944
H  60.668  35.967  69.589
H  43.927  37.181  54.119
H  27.092  61.339  61.421
H  62.293  31.868  60.312
H  59.107  58.553  26.397
H  40.419  55.745  46.347
H  40.021  55.801  47.811
H  26.379  58.926  40.599
H  49.843  21.174  51.400
H  51.226  21.373  50.803
H  25.447  58.090  41.458
H  43.360  49.982  65.290
H  42.460  48.870  65.800
H  46.731  72.001  56.702
H  46.711  73.444  56.227
H  73.202  60.248  61.898
H  58.018  57.697  25.774
H  36.688  49.689  29.596
H  72.868  61.705  61.628
H  53.556  64.745  36.346
H  54.191  65.975  35.723
H  50.628  52.948  23.414
H  52.133  53.147  23.361
H  50.960  71.054  58.485
H  50.027  61.291  42.240
H  49.718  59.836  41.935
H  51.676  72.291  57.972
H  48.932  24.282  53.303
H  49.129  22.927  52.646
H  36.648  49.112  31.001
H  69.443  38.556  62.613
H  33.201  50.367  62.467
H  53.013  36.680  65.899
H  36.961  37.803  28.913
H  52.126  75.757  43.096
H  51.826  76.545  41.833
H  36.513  36.439  28.417
H  54.803  65.234  64.269
H  56.266  65.635  64.325
H  61.651  46.720  40.324
H  60.583  47.797  40.408
H  31.262  61.334  37.055
H  30.470  46.917  46.494
H  29.091  47.506  46.250
H  31.403  59.822  37.072
H  46.714  66.132  41.267
H  48.122  66.680  41.421
H  49.020  37.241  72.594
H  47.682  37.395  71.891
H  70.159  60.835  48.742
H  26.073  65.439  46.720
H  26.753  66.655  46.114
H  69.162  59.734  49.055
H  72.227  56.435  40.147
H  72.626  56.932  41.526
H  74.146  43.549  57.211
H  66.730  61.463  52.055
H  66.475  60.009  51.696
H  59.136  68.324  39.872
H  59.149  68.135  41.379
H  55.381  64.665  69.368
H  55.838  63.822  68.190
H  60.785  67.186  37.284
H  59.447  67.117  37.999
H  34.881  30.396  48.949
H  50.935  72.474  49.572
H  50.957  71.316  50.554
H  33.480  30.982  48.959
H  35.021  39.206  40.262
H  35.339  40.502  40.986
H  37.878  50.175  43.182
H  75.506  44.225  57.180
H  37.559  48.716  43.462
H  68.548  53.672  41.630
H  67.944  54.413  40.450
H  46.848  24.070  52.628
H  63.119  52.069  41.120
H  64.240  51.139  40.691
H  70.174  44.494  49.253
H  70.630  45.943  49.285
H  44.711  29.438  30.452
H  50.638  59.480  36.671
H  50.617  60.265  35.372
H  44.809  30.903  30.838
H  46.758  25.417  53.325
H  48.822  46.358  28.975
H  36.395  42.325  58.001
H  36.400  42.328  56.482
H  52.112  35.179  62.960
H  55.935  24.570  45.808
H  57.481  55.567  67.994
H  57.453  54.248  68.745
H  54.446  24.865  45.757
H  39.128  37.218  64.526
H  40.504  37.421  65.136
H  48.302  61.289  72.514
H  49.035  59.972  72.698
H  52.085  26.787  50.951
H  41.917  34.205  49.307
H  53.352  35.790  63.590
H  42.820  34.407  48.103
H  57.484  51.647  71.524
H  56.681  51.061  72.673
H  44.739  32.725  38.878
H  44.187  31.311  38.848
H  61.031  57.578  43.095
H  38.937  58.316  56.863
H  39.014  57.430  58.093
H  59.684  58.112  43.550
H  34.609  31.035  58.962
H  34.044  30.967  60.370
H  33.774  55.872  46.184
H  53.584  26.932  50.751
H  41.006  65.443  30.469
H  62.763  26.389  47.663
H  46.664  30.171  52.689
H  48.088  46.643  27.677
H  63.526  61.396  41.454
H  62.055  61.266  41.100
H  48.073  65.328  31.470
H  46.885  65.688  32.346
H  73.087  53.702  55.414
H  65.172  54.644  32.882
H  64.641  55.824  32.088
H  74.171  52.930  56.146
H  70.042  53.400  60.241
H  71.306  53.576  61.063
H  62.327  26.012  46.258
H  36.961  70.202  45.253
H  27.053  33.246  54.867
H  39.860  49.008  73.616
H  39.676  49.677  72.265
H  28.225  32.762  54.030
H  39.470  71.074  60.334
H  40.444  70.525  61.362
H  61.722  41.195  55.921
H  62.471  42.496  56.155
H  45.901  28.858  52.706
H  63.962  45.689  41.765
H  64.512  44.340  42.195
H  38.329  69.760  44.763
H  34.508  57.097  46.700
H  70.602  44.833  40.674
H  41.894  66.110  31.505
H  47.217  66.856  72.295
H  45.891  66.134  72.456
H  57.998  47.118  64.293
H  48.384  33.010  56.811
H  48.027  32.516  55.420
H  41.210  36.493  58.099
H  42.723  36.461  57.965
H  67.686  39.449  48.234
H  55.590  72.083  54.198
H  56.029  73.481  54.597
H  66.339  40.130  48.402
H  46.184  41.467  30.895
H  47.172  42.603  30.695
H  39.561  53.435  55.449
H  39.158  51.971  55.452
H  33.515  43.922  56.783
H  63.393  52.078  66.226
H  62.902  50.931  67.092
H  32.690  44.695  55.769
H  62.010  54.729  41.698
H  60.854  55.398  40.975
H  53.073  53.784  39.983
H  51.796  53.884  40.799
H  59.352  46.686  63.756
H  44.534  58.638  56.496
H  46.038  58.488  56.352
H  57.814  70.315  55.336
H  30.875  53.096  48.479
H  36.444  53.262  50.922
H  35.897  53.928  52.173
H  31.085  47.531  29.861
H  47.109  55.279  24.321
H  47.533  56.652  24.810
H  31.056  49.030  29.619
H  55.832  46.495  33.431
H  55.591  47.986  33.589
H  54.764  62.503  47.821
H  53.619  63.014  46.965
H  55.998  26.252  65.260
H  62.986  36.758  53.515
H  59.844  67.753  35.145
H  61.678  36.943  52.766
H  45.712  44.983  71.457
H  47.010  45.385  70.779
H  72.548  44.271  37.654
H  71.789  43.006  37.293
H  27.026  37.047  39.284
H  27.116  52.963  46.831
H  25.996  53.341  45.877
H  28.438  37.558  39.509
H  56.935  69.259  54.690
H  58.475  67.344  34.629
H  36.667  54.355  44.931
H  37.657  54.112  43.805
H  54.513  25.933  65.270
H  28.498  39.890  37.578
H  35.134  25.913  53.103
H  34.429  26.929  52.222
H  29.122  39.570  38.925
H  63.580  26.348  40.563
H  62.180  26.135  41.111
H  40.945  64.153  41.756
H  42.299  64.294  42.430
H  47.246  63.437  37.450
H  25.833  54.781  54.566
H  25.670  53.690  53.522
H  49.340  42.500  68.394
H  47.825  64.771  37.015
H  37.664  70.582  63.059
H  48.867  73.882  56.269
H  50.360  74.163  56.272
H  53.483  51.922  29.088
H  38.956  58.362  53.923
H  38.244  57.100  54.377
H  52.107  52.079  28.464
H  24.172  39.815  46.677
H  25.184  40.947  46.693
H  61.625  47.515  23.702
H  61.838  48.953  24.142
H  37.489  72.024  63.501
H  71.444  46.094  40.595
H  50.423  43.564  68.395
H  65.370  49.502  57.234
H  33.753  47.768  35.531
H  34.964  46.949  35.119
H  39.482  57.960  74.022
H  38.231  58.461  73.321
H  65.402  34.563  43.387
H  28.074  62.111  64.130
H  27.688  60.705  63.707
H  64.376  35.671  43.548
H  67.972  45.094  40.110
H  68.236  43.618  39.872
H  56.540  47.509  30.429
H  64.734  50.880  57.294
H  57.293  47.728  29.129
H  67.779  67.269  63.601
H  66.856  66.114  63.948
H  66.558  39.828  46.234
H  49.973  26.864  60.660
H  50.792  25.642  61.036
H  45.589  32.640  54.463
H  44.217  32.129  54.868
H  28.816  56.714  39.766
H  69.460  66.352  44.254
H  70.715  65.757  43.638
H  28.044  55.538  39.193
H  65.137  39.448  46.611
H  29.367  52.925  48.506
H  43.077  66.458  47.116
H  40.259  47.546  24.150
H  53.938  28.707  54.276
H  53.997  30.217  54.128
H  47.173  47.468  25.837
H  33.926  56.534  36.120
H  33.570  57.614  35.114
H  48.688  47.476  25.723
H  72.277  42.266  41.096
H  70.822  41.831  41.093
H  38.388  40.667  35.518
H  37.176  39.754  35.585
H  26.318  44.710  48.728
H  62.497  55.796  39.566
H  63.282  56.971  40.120
H  25.117  45.508  48.251
H  51.456  43.786  70.360
H  52.561  43.136  71.174
H  37.928  40.373  51.272
H  37.557  39.172  50.419
H  38.122  46.880  42.387
H  68.659  55.374  28.830
H  69.103  53.922  28.849
H  38.070  45.362  42.417
H  53.422  55.817  37.055
H  61.371  48.078  47.232
H  61.621  47.750  48.693
H  69.139  69.404  44.134
H  51.692  44.702  25.628
H  72.733  35.864  54.668
H  68.655  60.600  45.811
H  44.350  70.178  50.093
H  45.811  69.788  49.948
H  39.213  35.029  57.967
H  39.746  35.424  59.333
H  57.029  39.712  47.046
H  52.303  25.259  58.024
H  52.515  26.087  59.280
H  57.456  40.955  47.807
H  32.505  60.778  66.724
H  53.335  54.495  37.797
H  31.536  61.384  65.725
H  31.829  58.860  39.992
H  65.163  58.348  31.503
H  28.298  37.501  56.754
H  27.362  36.322  56.953
H  66.319  57.516  30.977
H  66.602  44.130  43.320
H  66.314  43.076  42.265
H  49.317  28.620  47.950
H  49.275  27.194  47.430
H  68.942  70.872  43.796
H  51.078  46.048  25.283
H  32.580  58.282  38.806
H  41.918  65.467  57.774
H  40.810  64.448  57.574
H  48.286  38.365  23.760
H  63.991  40.857  70.743
H  36.193  52.631  38.747
H  36.555  51.476  37.830
H  35.739  35.222  47.898
H  45.412  44.405  57.047
H  44.759  45.775  56.996
H  36.543  33.934  47.913
H  26.450  62.792  47.205
H  25.925  61.678  46.317
H  38.888  61.130  56.094
H  39.854  60.451  55.140
H  65.263  41.601  70.374
H  42.244  55.881  74.215
H  55.583  26.116  42.276
H  42.425  54.373  74.257
H  34.711  71.424  38.986
H  34.521  70.241  39.919
H  38.722  71.277  57.657
H  39.444  72.275  56.769
H  42.989  35.331  42.027
H  74.309  60.915  48.341
H  74.090  62.371  48.715
H  42.727  33.932  41.497
H  63.928  57.532  67.396
H  54.574  25.868  43.383
H  72.363  36.884  53.605
H  48.430  44.059  69.726
H  63.435  43.753  57.950
H  36.349  66.518  34.322
H  36.837  65.907  35.623
H  48.332  39.551  24.707
H  62.750  49.369  56.283
H  62.834  49.843  57.724
H  58.760  76.434  50.370
H  58.498  75.126  51.096
H  45.274  47.919  71.072
H  45.208  61.177  54.183
H  44.260  61.605  55.290
H  46.749  47.562  71.035
H  62.213  43.013  58.466
H  36.423  32.251  43.351
H  68.535  46.485  48.818
H  69.389  46.520  47.563
H  53.385  72.853  36.272
H  56.506  60.386  40.938
H  55.074  60.891  40.927
H  54.707  72.246  36.707
H  53.286  21.740  45.156
H  54.522  22.615  45.265
H  52.324  36.437  55.326
H  52.000  35.658  56.588
H  47.586  43.016  70.438
H  36.461  33.658  43.921
H  39.694  48.928  23.872
H  68.370  62.070  46.063
H  32.488  41.693  43.956
H  39.648  46.477  63.022
H  29.492  68.809  53.751
H  40.193  36.496  68.955
H  40.430  37.984  68.769
H  30.643  67.838  53.949
H  42.439  61.713  31.606
H  43.108  61.313  32.910
H  46.543  54.758  70.762
H  46.909  56.194  70.429
H  40.797  61.560  51.333
H  66.540  68.260  56.557
H  65.934  66.871  56.644
H  40.119  60.256  51.714
H  35.952  33.788  57.769
H  34.517  34.233  57.987
H  71.866  54.828  64.808
H  70.887  55.984  64.705
H  54.408  72.128  32.290
H  37.524  67.215  41.601
H  36.205  67.605  42.245
H  55.454  71.203  31.694
H  58.053  34.340  56.773
H  57.607  35.621  57.455
H  40.451  47.460  63.857
H  47.891  49.825  78.150
H  48.266  50.015  76.691
H  78.506  52.471  50.108
H  42.101  67.072  46.129
H  38.579  73.954  59.171
H  37.079  74.110  58.990
H  66.066  46.248  43.605
H  66.372  47.661  43.139
H  66.855  48.367  56.066
H  29.099  50.414  55.776
H  29.797  49.094  55.500
H  67.685  49.554  55.608
H  38.465  37.708  36.006
H  39.879  38.252  35.902
H  52.421  22.531  56.148
H  41.372  49.514  68.247
H  54.164  38.089  54.285
H  38.164  39.002  62.945
H  36.800  38.402  63.241
H  55.620  38.510  54.185
H  62.389  44.481  36.926
H  61.213  43.592  37.294
H  62.583  61.272  54.402
H  61.363  61.528  53.535
H  77.999  51.592  51.238
H  69.269  46.078  34.019
H  69.445  46.251  35.517
H  40.098  50.188  67.769
H  51.577  23.678  56.676
H  53.197  52.590  63.370
H  44.357  65.653  70.913
H  51.997  38.881  57.743
H  50.821  37.973  57.427
H  49.606  76.547  48.752
H  45.257  53.927  59.921
H  45.879  52.908  60.860
H  48.318  77.346  48.840
H  37.657  60.541  60.070
H  38.196  61.064  58.750
H  51.501  38.866  29.602
H  52.596  39.918  29.639
H  61.581  31.117  44.805
H  33.899  28.545  48.281
H  32.447  68.451  57.692
H  61.554  32.592  45.166
H  35.203  48.062  54.980
H  35.235  46.559  54.763
H  45.801  45.776  77.135
H  45.594  44.541  77.995
H  57.826  75.752  53.095
H  40.453  60.436  34.316
H  39.887  61.839  34.190
H  58.537  76.321  54.310
H  37.731  70.886  48.098
H  39.162  70.466  47.811
H  33.544  68.413  58.741
H  31.222  40.855  43.924
H  35.204  27.897  47.852
H  64.562  67.260  39.469
H  45.624  65.339  70.136
H  53.735  53.905  63.909
H  47.347  51.462  67.820
H  48.339  51.613  66.680
H  43.779  65.785  60.710
H  43.833  64.304  60.378
H  33.873  45.615  39.611
H  63.481  63.787  39.697
H  64.027  65.173  39.991
H  32.736  45.639  38.605
H  65.158  31.955  60.099
H  42.074  26.448  48.380
H  64.189  30.787  60.040
H  45.830  50.050  71.177
H  46.015  52.735  31.290
H  61.473  41.366  73.806
H  60.669  40.195  74.344
H  46.391  51.511  32.108
H  43.791  67.872  40.137
H  43.476  68.783  38.964
H  40.048  28.067  41.572
H  40.003  28.873  42.858
H  42.270  25.679  47.085
H  65.917  67.247  40.155
H  47.189  50.490  70.662
H  64.937  56.399  67.451
H  23.504  40.051  51.537
H  33.397  59.588  43.813
H  53.073  35.545  67.782
H  52.309  64.108  70.678
H  52.630  65.584  70.840
H  46.569  45.711  62.036
H  45.238  44.980  62.034
H  49.727  26.708  35.676
H  66.895  58.016  60.135
H  65.997  56.791  60.132
H  51.112  27.217  36.038
H  74.575  46.654  40.561
H  73.581  45.506  40.555
H  56.737  56.448  46.539
H  56.550  54.996  46.943
H  26.842  39.803  44.263
H  56.050  50.338  39.582
H  56.093  50.483  41.093
H  26.723  40.325  42.842
H  46.103  50.895  74.824
H  44.683  50.527  74.431
H  40.309  30.369  56.284
H  40.656  29.378  57.381
H  46.869  54.091  40.701
H  53.379  40.863  36.687
H  58.211  69.972  35.314
H  59.685  70.143  34.992
H  51.732  36.252  67.878
H  41.030  65.325  33.568
H  60.844  40.963  24.828
H  31.529  65.022  54.994
H  62.339  62.131  68.849
H  62.394  63.578  69.308
H  31.281  65.750  53.685
H  70.171  36.215  40.825
H  69.576  37.583  40.538
H  28.188  68.061  55.564
H  28.119  67.378  56.918
H  40.296  59.232  32.442
H  57.036  68.232  29.490
H  51.942  41.295  36.917
H  58.044  67.758  30.522
H  68.912  59.551  64.675
H  68.209  58.483  65.494
H  50.608  48.626  21.179
H  50.069  49.580  22.231
H  37.796  56.088  46.647
H  35.990  53.102  59.499
H  35.028  54.154  58.974
H  37.837  55.765  48.130
H  31.359  30.875  52.151
H  32.794  30.526  51.800
H  39.956  64.256  33.675
H  38.817  59.525  32.626
H  48.170  54.410  39.984
H  50.878  71.181  31.523
H  51.429  72.055  32.637
H  52.290  36.446  49.113
H  45.851  49.843  65.082
H  46.756  51.050  65.257
H  63.758  67.144  36.849
H  65.219  67.557  36.855
H  40.860  72.820  39.710
H  41.074  71.758  35.034
H  39.647  71.328  34.741
H  41.738  74.050  39.860
H  53.424  30.676  57.028
H  52.200  29.777  56.994
H  50.894  36.908  49.493
H  47.972  28.522  60.423
H  64.667  47.081  50.478
H  39.647  64.193  60.148
H  39.591  62.676  60.132
H  63.263  47.444  50.930
H  34.194  43.554  54.589
H  33.568  42.457  53.745
H  32.021  36.477  58.479
H  33.527  36.626  58.601
H  50.166  37.357  42.493
H  66.744  44.403  62.254
H  67.903  43.597  62.815
H  47.772  28.846  61.893
H  59.402  41.430  24.925
H  43.075  34.891  53.832
H  50.399  40.626  67.374
H  43.526  75.571  47.969
H  43.363  74.083  48.222
H  47.797  35.702  67.910
H  43.237  72.641  54.250
H  42.115  73.644  54.043
H  48.570  36.957  68.276
H  38.538  51.621  36.509
H  38.182  50.200  36.107
H  67.026  55.137  34.018
H  67.313  55.642  35.421
H  28.169  61.810  38.719
H  49.345  39.660  67.886
H  50.907  21.291  48.403
H  28.383  60.327  38.469
H  61.588  28.240  39.431
H  60.485  27.281  39.020
H  54.436  68.828  71.417
H  54.933  68.466  70.029
H  57.332  35.717  65.296
H  57.998  37.461  46.600
H  59.065  38.450  46.164
H  56.898  34.764  66.396
H  30.812  40.577  67.395
H  31.494  40.793  66.056
H  51.447  22.684  48.129
H  49.980  36.668  41.153
H  23.022  47.849  39.977
H  62.461  28.615  44.398
H  55.254  34.720  56.423
H  56.198  33.734  55.757
H  41.832  67.821  49.434
H  40.898  68.848  48.817
H  60.412  30.714  49.774
H  63.812  50.677  51.149
H  63.794  49.728  49.963
H  58.901  30.765  49.628
H  39.471  55.637  31.293
H  38.835  56.732  32.131
H  65.426  48.856  40.233
H  66.176  49.185  41.511
H  32.606  49.713  45.027
H  70.375  30.710  51.249
H  71.745  31.263  50.898
H  33.673  48.672  44.737
H  29.052  55.220  53.260
H  28.950  54.123  54.305
H  61.282  48.210  36.965
H  60.556  49.419  37.527
H  47.744  24.134  57.470
H  39.806  68.132  52.396
H  40.270  67.057  51.428
H  65.462  74.175  46.930
H  57.799  58.226  74.539
H  58.231  59.461  75.311
H  64.019  74.435  47.325
H  46.660  22.610  48.098
H  53.632  34.943  27.160
H  53.023  33.885  26.257
H  46.879  23.728  49.101
H  60.517  40.788  48.719
H  60.105  41.931  47.808
H  69.542  46.328  51.998
H  70.928  46.519  51.406
H  44.052  39.967  63.705
H  50.130  68.548  52.511
H  51.194  67.527  52.147
H  48.713  25.265  57.172
H  44.709  38.651  64.082
H  66.908  36.490  51.038
H  25.663  59.242  52.432
H  24.149  59.130  52.494
H  25.429  57.649  38.496
H  48.590  34.673  72.922
H  47.285  33.897  72.878
H  26.920  57.501  38.743
H  39.613  46.269  51.606
H  41.014  46.779  51.895
H  59.497  44.631  46.733
H  58.293  44.766  47.650
H  67.131  35.059  51.495
H  48.236  35.426  61.313
H  49.452  35.860  62.113
H  55.412  25.324  47.808
H  71.773  38.054  37.439
H  26.040  46.611  54.774
H  24.577  46.555  54.369
H  74.021  47.327  43.275
H  73.985  48.837  43.115
H  57.920  41.433  42.951
H  41.185  69.800  63.634
H  39.986  70.723  63.505
H  59.270  41.912  42.447
H  46.882  40.823  54.719
H  45.742  40.543  55.683
H  28.839  57.029  36.910
H  64.111  45.758  52.218
H  56.297  77.277  48.816
H  30.058  43.837  47.850
H  31.192  43.132  48.575
H  57.727  77.783  48.888
H  46.897  49.637  29.538
H  47.823  49.939  30.703
H  66.511  70.438  56.206
H  66.046  71.662  55.438
H  61.052  28.933  44.868
H  38.614  62.358  64.810
H  38.738  62.105  66.303
H  63.301  46.734  53.053
H  22.613  48.921  40.972
H  29.278  58.202  37.768
H  37.063  60.892  65.348
H  55.101  26.572  47.001
H  55.005  57.599  28.657
H  59.430  47.536  51.577
H  59.048  46.077  51.397
H  54.247  57.597  27.341
H  46.155  27.987  44.224
H  47.448  27.333  44.679
H  32.369  44.793  64.268
H  33.219  44.674  63.015
H  33.278  28.406  40.674
H  69.178  60.112  51.594
H  72.338  36.681  37.756
H  68.608  60.579  52.922
H  48.028  63.810  33.762
H  47.103  64.850  34.368
H  33.723  61.786  58.762
H  34.669  61.199  57.728
H  33.502  70.209  47.650
H  45.184  62.696  49.593
H  44.458  63.290  50.787
H  33.687  69.597  46.272
H  49.217  26.637  38.952
H  48.665  25.475  38.144
H  37.144  59.468  64.825
H  34.787  28.234  40.674
H  32.095  60.271  43.432
H  66.443  42.006  44.331
H  65.448  53.984  47.377
H  54.711  40.957  52.790
H  34.705  52.812  41.061
H  72.911  39.309  45.001
H  73.093  39.163  43.500
H  69.201  51.560  45.909
H  69.015  50.741  44.643
H  58.904  67.373  63.154
H  62.027  28.409  51.698
H  63.510  28.323  52.018
H  58.471  66.443  62.035
H  28.536  51.852  53.635
H  27.407  50.882  53.334
H  61.528  45.592  47.800
H  61.845  44.842  49.082
H  47.586  41.817  56.957
H  65.551  52.758  54.992
H  64.289  52.521  55.802
H  48.223  43.195  56.941
H  52.396  44.498  63.421
H  52.892  44.248  64.834
H  50.836  58.953  57.369
H  51.519  60.080  58.123
H  57.461  29.333  60.452
H  53.798  39.747  52.881
H  33.615  52.284  40.144
H  51.929  26.603  42.610
H  50.451  26.269  42.496
H  35.698  65.117  63.146
H  35.637  65.007  61.633
H  61.446  44.633  64.068
H  64.823  52.659  45.248
H  66.269  52.248  45.031
H  62.011  44.221  65.416
H  65.092  61.399  66.876
H  65.707  62.697  67.369
H  76.152  40.139  43.037
H  75.807  40.905  44.303
H  32.481  51.351  43.471
H  65.133  53.292  30.531
H  44.581  72.354  64.681
H  32.977  51.359  42.036
H  24.568  49.939  36.902
H  25.862  49.226  36.547
H  63.819  63.957  47.382
H  62.532  63.604  46.657
H  32.861  28.632  56.338
H  44.864  70.622  46.602
H  43.353  70.702  46.479
H  32.815  30.124  56.618
H  67.756  48.606  67.722
H  67.792  47.369  68.603
H  44.642  71.135  63.778
H  66.572  53.777  30.519
H  56.515  30.426  59.987
H  67.525  37.412  44.272
H  25.873  57.821  54.103
H  24.913  56.670  53.858
H  38.511  46.777  49.325
H  53.130  51.332  35.302
H  52.026  52.374  35.303
H  53.329  35.150  58.404
H  52.653  36.269  59.176
H  42.647  54.285  38.764
H  32.100  50.622  38.596
H  31.533  49.467  37.790
H  43.509  55.471  38.366
H  39.547  45.904  48.638
H  28.468  46.382  44.439
H  37.061  59.047  40.145
H  38.211  59.964  39.769
H  59.713  53.832  39.609
H  44.888  70.363  54.624
H  45.311  68.917  54.439
H  58.821  52.836  40.330
H  36.036  39.422  37.781
H  35.350  40.742  37.476
H  66.648  60.812  36.993
H  67.841  60.294  37.776
H  23.388  39.183  52.778
H  27.003  46.003  44.302
H  65.888  41.873  62.030
H  70.896  61.318  54.125
H  38.330  52.865  52.441
H  66.901  36.086  44.671
H  26.523  55.882  61.806
H  27.827  55.499  62.483
H  47.350  63.445  54.914
H  36.640  40.769  68.868
H  35.479  41.739  68.738
H  45.859  63.315  55.171
H  49.095  41.464  23.931
H  48.529  41.255  22.537
H  66.397  40.013  38.147
H  66.221  38.741  38.958
H  71.913  60.848  55.151
H  62.635  61.268  46.604
H  45.273  68.900  64.875
H  62.893  59.820  46.982
H  38.317  33.166  45.250
H  39.546  33.326  44.373
H  35.764  59.128  51.899
H  36.653  59.111  50.668
H  35.900  51.346  63.646
H  65.298  55.949  45.878
H  64.193  55.076  45.309
H  35.932  49.880  63.250
H  38.881  54.256  52.700
H  46.372  67.988  65.390
H  66.377  42.039  45.848
H  66.922  41.197  61.147
H  36.079  36.968  71.592
H  33.378  53.240  35.647
H  48.838  61.286  58.194
H  49.155  59.860  58.610
H  52.024  71.688  54.900
H  50.726  72.476  54.906
H  65.619  52.657  67.247
H  62.848  35.635  46.306
H  63.928  35.044  47.195
H  65.255  53.413  65.981
H  71.542  38.227  42.024
H  71.922  36.756  42.044
H  52.696  32.675  35.088
H  51.581  31.807  34.530
H  45.608  73.496  51.010
H  27.121  33.783  44.479
H  27.787  32.937  43.407
H  47.104  73.494  51.277
H  51.159  47.028  61.290
H  49.683  46.669  61.333
H  29.455  37.845  43.838
H  30.648  38.756  43.607
H  39.262  44.317  73.444
H  62.495  24.728  50.115
H  28.597  50.209  49.200
H  29.206  49.268  48.175
H  32.292  54.302  35.674
H  59.073  34.445  65.871
H  66.452  54.994  47.907
H  72.193  38.370  61.489
H  44.456  52.035  38.250
H  44.765  53.072  39.316
H  72.516  37.908  62.900
H  59.181  61.305  53.363
H  58.535  60.022  52.872
H  50.252  50.801  37.439
H  49.947  51.977  36.528
H  45.516  66.237  66.892
H  39.677  54.028  61.471
H  62.397  24.485  51.611
H  40.867  53.801  60.555
H  59.008  41.449  54.690
H  58.249  42.705  54.301
H  29.339  56.964  48.630
H  29.119  58.291  47.926
H  55.098  49.123  76.124
H  24.688  47.016  38.807
H  25.973  46.610  39.506
H  54.242  48.051  76.776
H  37.160  42.566  35.999
H  37.606  44.015  36.085
H  60.005  33.488  65.149
H  44.914  67.107  67.981
H  40.534  45.126  73.631
H  39.800  60.892  41.021
H  39.726  62.388  41.270
H  50.762  24.828  52.212
H  42.502  43.745  52.101
H  65.340  38.066  33.744
H  66.425  38.904  34.397
H  38.163  28.188  37.656
H  38.248  29.704  37.655
H  68.082  53.198  46.860
H  35.487  37.056  49.103
H  36.938  37.299  49.483
H  68.379  53.852  48.198
H  61.852  32.648  52.136
H  50.400  26.051  53.036
H  62.115  32.293  50.683
H  61.177  75.968  52.108
H  57.462  48.380  71.191
H  46.030  61.192  34.875
H  46.450  62.488  35.548
H  57.563  47.861  72.614
H  53.454  63.496  64.238
H  52.442  63.882  63.174
H  50.192  72.747  36.598
H  49.718  72.280  35.233
H  59.286  54.093  66.857
H  37.404  36.599  72.236
H  61.878  74.666  52.456
H  59.660  53.968  68.323
H  43.674  44.020  53.027
H  32.043  51.162  35.917
H  53.338  45.909  66.777
H  53.952  46.913  67.736
H  49.758  45.813  74.356
H  52.542  70.306  51.698
H  51.909  69.275  50.780
H  49.573  47.308  74.544
H  49.804  42.829  76.815
H  50.160  43.520  75.510
H  38.372  57.355  68.846
H  36.971  57.479  68.273
H  34.957  32.422  48.103
H  30.916  52.108  36.292
H  44.381  35.112  68.241
H  33.870  33.209  48.813
H  22.787  47.225  51.182
H  21.352  46.852  51.512
H  43.799  40.920  72.862
H  44.113  39.436  72.809
H  57.751  44.791  30.355
H  48.715  68.416  49.781
H  50.077  68.005  50.313
H  58.846  44.860  29.305
H  35.811  39.058  33.079
H  36.715  40.050  32.368
H  43.726  35.893  69.367
H  33.314  49.683  61.116
H  36.923  64.019  67.967
H  43.388  77.179  56.542
H  37.183  54.771  66.607
H  32.666  55.886  53.458
H  33.076  57.341  53.309
H  36.274  54.626  67.815
H  42.982  48.102  32.137
H  42.252  47.607  33.373
H  34.602  50.689  69.719
H  35.123  51.160  71.066
H  47.668  61.693  42.543
H  48.002  61.901  49.096
H  49.093  60.849  48.992
H  47.443  60.215  42.276
H  40.648  49.131  70.368
H  39.189  48.794  70.116
H  32.560  69.246  38.972
H  32.633  69.025  40.472
H  21.784  48.325  45.854
H  45.340  73.587  57.941
H  44.458  72.812  56.977
H  23.262  48.216  46.186
H  62.966  39.946  36.885
H  62.046  39.986  35.677
H  40.854  33.075  30.768
H  41.793  60.139  40.475
H  43.312  60.150  40.469
H  66.831  63.862  51.260
H  65.890  64.252  50.133
H  51.059  29.700  39.774
H  50.827  28.200  39.796
H  40.302  70.196  32.295
H  41.415  71.062  32.859
H  63.749  47.196  39.780
H  42.373  28.589  36.701
H  41.873  29.309  37.941
H  62.991  48.502  39.941
H  39.076  45.038  34.334
H  39.977  43.824  34.197
H  58.999  58.527  65.378
H  39.546  33.842  30.861
H  59.295  59.347  64.135
H  44.304  31.563  44.388
H  42.913  31.718  44.976
H  45.330  37.497  71.794
H  25.553  51.522  35.733
H  26.540  52.671  35.622
H  73.319  53.762  60.070
H  73.384  52.248  59.964
H  41.193  73.543  56.038
H  62.429  41.917  48.529
H  62.988  43.160  47.859
H  42.145  72.365  56.140
H  45.761  36.165  71.205
H  25.983  54.666  50.147
H  41.849  48.299  38.888
H  42.788  48.825  37.817
H  31.001  54.156  63.707
H  52.864  66.723  38.157
H  49.172  51.166  28.627
H  49.445  49.795  29.220
H  51.924  67.895  37.935
H  47.207  37.603  65.381
H  48.108  38.213  66.440
H  55.803  39.296  66.250
H  56.669  38.954  67.450
H  50.577  61.345  59.767
H  49.326  68.968  63.663
H  31.386  52.710  63.445
H  49.913  68.325  64.907
H  60.519  51.842  23.188
H  60.311  50.907  24.367
H  42.762  71.265  48.823
H  42.484  72.273  49.924
H  35.851  56.790  27.825
H  58.055  31.377  66.057
H  57.744  30.165  66.916
H  35.227  57.038  29.187
H  35.499  44.266  69.706
H  35.615  45.505  68.835
H  32.692  60.565  63.992
H  50.717  59.885  60.162
H  45.632  52.801  63.368
H  39.731  41.798  61.366
H  36.408  40.913  62.880
H  26.977  53.523  50.032
H  56.334  50.327  27.400
H  56.476  48.815  27.399
H  55.844  50.188  25.258
H  55.790  48.976  24.344
H  44.487  33.043  30.439
H  42.734  73.109  36.023
H  42.519  72.224  37.239
H  44.538  33.631  31.838
H  35.111  45.781  27.987
H  35.562  46.342  29.325
H  38.385  41.137  61.122
H  51.856  38.544  54.440
H  63.808  53.811  67.725
H  65.664  43.696  69.717
H  64.548  43.656  70.746
H  62.391  53.270  67.792
H  67.112  42.849  34.754
H  67.395  42.789  36.245
H  34.531  57.256  38.964
H  34.973  58.493  39.727
H  36.634  41.052  64.375
H  38.182  65.963  43.628
H  39.364  65.017  43.522
H  51.875  40.056  54.584
H  32.906  62.061  64.142
H  43.940  34.942  71.371
H  44.301  52.553  62.681
H  46.242  43.545  68.778
H  45.354  42.884  67.739
H  52.197  41.022  72.543
H  63.648  72.153  37.503
H  64.306  70.975  36.806
H  43.898  56.461  31.578
H  44.254  57.898  31.239
H  48.192  69.965  51.288
H  34.373  68.687  43.805
H  35.350  69.850  43.795
H  48.720  71.282  50.748
H  34.573  67.535  55.480
H  33.650  67.836  54.312
H  27.809  63.929  39.608
H  26.673  63.824  40.611
H  42.424  36.300  46.853
H  32.172  35.584  44.620
H  32.473  34.916  43.290
H  41.171  37.151  46.963
H  28.941  60.445  47.547
H  27.523  59.914  47.655
H  31.351  44.888  61.536
H  30.410  45.842  62.249
H  52.366  40.542  73.974
H  40.106  38.855  66.757
H  40.878  39.737  65.792
H  70.772  32.007  42.495
H  56.124  65.741  34.698
H  66.382  65.453  55.022
H  65.959  66.792  54.445
H  62.516  60.142  42.954
H  70.420  48.277  46.732
H  68.949  48.327  46.359
H  63.651  59.163  42.713
H  28.699  40.261  64.697
H  30.116  39.834  64.355
H  70.601  56.477  58.644
H  71.976  56.785  59.210
H  46.897  23.468  43.890
H  43.554  44.337  59.288
H  47.158  41.964  62.824
H  42.992  42.952  59.015
H  43.587  37.820  33.800
H  42.632  37.071  32.887
H  62.094  64.337  57.394
H  60.849  65.152  57.089
H  28.564  34.961  41.374
H  65.315  40.484  42.415
H  64.614  41.779  42.788
H  28.664  35.393  39.921
H  69.301  31.631  42.476
H  47.467  43.128  61.899
H  51.169  30.556  48.257
H  52.053  31.773  48.054
H  46.537  23.261  42.429
H  47.504  77.953  45.683
H  49.180  73.570  48.798
H  49.252  74.669  49.843
H  48.494  76.825  45.909
H  39.515  71.261  41.501
H  38.720  69.967  41.501
H  59.881  24.904  52.005
H  60.361  23.465  52.070
H  54.405  36.738  56.639
H  33.017  39.205  56.356
H  31.751  40.030  56.504
H  48.610  36.834  28.819
H  54.830  37.484  57.891
H  49.931  38.850  70.502
H  67.464  53.913  54.911
H  67.695  54.160  56.391
H  54.366  35.146  53.633
H  58.742  24.912  38.728
H  58.157  26.247  39.155
H  53.692  35.581  52.344
H  37.264  74.264  50.165
H  36.086  75.041  50.726
H  29.616  51.118  57.944
H  30.986  50.647  58.398
H  50.969  38.629  71.589
H  43.533  36.104  72.260
H  47.625  35.893  28.149
H  67.306  48.652  51.294
H  40.053  72.667  50.930
H  40.613  71.287  50.633
H  60.536  55.620  38.575
H  59.426  55.398  37.562
H  58.493  42.296  37.572
H  41.426  28.370  39.883
H  41.047  26.901  39.812
H  57.110  42.923  37.560
H  29.893  33.153  41.581
H  30.855  32.011  41.307
H  48.533  33.204  34.594
H  66.600  49.410  50.183
H  47.766  31.900  34.735
H  21.774  44.142  51.370
H  22.138  44.408  52.820
H  44.494  62.860  33.688
H  46.461  61.494  67.450
H  46.198  60.619  68.663
H  49.091  54.498  59.690
H  48.068  53.818  60.583
H  53.208  50.869  77.715
H  57.491  41.793  32.003
H  58.697  41.578  32.900
H  52.804  49.412  77.855
H  44.554  63.598  35.014
H  56.854  66.127  33.424
H  58.032  60.418  62.498
H  60.844  52.588  62.139
H  49.562  33.672  36.953
H  50.649  33.087  36.068
H  41.888  29.995  32.474
H  62.021  75.811  45.303
H  63.383  75.140  45.338
H  41.693  28.499  32.649
H  52.395  61.348  67.784
H  53.046  60.486  68.851
H  44.621  74.240  38.623
H  43.844  73.006  39.047
H  64.737  30.839  51.856
H  62.288  57.799  45.192
H  63.679  57.865  44.584
H  65.365  29.607  51.230
H  68.888  35.479  55.284
H  69.507  36.233  54.119
H  64.177  51.430  61.708
H  64.112  50.412  60.583
H  51.130  68.268  58.517
H  35.068  35.663  34.314
H  34.990  35.625  32.798
H  52.245  69.031  59.210
H  42.080  68.207  43.199
H  38.569  41.421  53.276
H  38.049  42.557  52.412
H  38.264  45.430  53.439
H  31.993  46.634  34.189
H  31.043  61.398  52.380
H  35.773  47.343  50.316
H  35.204  49.673  67.583
H  35.300  48.710  66.413
H  59.813  63.828  37.503
H  58.324  63.971  37.241
H  55.340  46.422  59.242
H  33.997  72.338  50.700
H  33.162  73.416  50.032
H  56.345  47.008  60.219
H  55.046  40.983  69.787
H  41.003  69.276  43.244
H  55.417  41.020  68.315
H  65.450  56.863  28.562
H  45.897  32.649  68.407
H  38.890  54.823  27.170
H  37.377  54.828  27.039
H  46.329  34.090  68.195
H  40.170  44.339  67.570
H  41.609  44.628  67.959
H  39.099  68.189  43.430
H  40.040  67.209  44.108
H  36.749  45.525  53.409
H  33.304  45.870  34.112
H  65.415  55.353  28.720
H  26.502  52.793  64.405
H  25.640  51.940  65.319
H  34.260  36.462  56.511
H  39.104  32.258  32.408
H  64.297  33.779  49.647
H  63.933  32.319  49.444
H  45.757  38.264  41.843
H  43.953  59.514  45.723
H  43.284  58.593  44.717
H  46.887  37.733  40.978
H  49.121  58.268  25.113
H  50.307  58.846  25.865
H  55.729  45.252  74.448
H  56.341  46.500  73.836
H  39.691  32.224  33.809
H  72.867  52.895  34.609
H  67.817  61.824  34.091
H  71.621  53.040  33.753
H  61.044  48.466  65.346
H  59.531  48.346  65.283
H  58.550  66.444  42.650
H  57.403  65.466  42.470
H  25.783  65.677  50.626
H  37.937  53.472  37.536
H  37.605  53.575  36.058
H  26.638  66.933  50.602
H  51.704  37.434  65.739
H  67.521  63.244  34.543
H  29.978  62.481  52.379
H  57.648  46.333  66.323
H  44.500  26.951  45.370
H  51.326  32.170  68.789
H  49.923  32.415  68.262
H  35.655  35.927  56.780
H  63.485  63.321  36.176
H  62.696  64.292  35.316
H  45.669  53.765  37.434
H  45.086  55.048  36.869
H  41.959  62.883  67.940
H  70.958  49.858  59.188
H  71.469  51.287  59.235
H  40.457  62.746  67.769
H  43.576  28.009  45.947
H  59.754  43.491  63.187
H  56.319  26.154  37.392
H  57.424  25.629  36.491
H  45.427  26.801  41.586
H  41.409  66.955  36.273
H  40.942  67.080  37.713
H  44.704  27.692  42.582
H  58.880  54.477  61.395
H  57.362  54.424  61.404
H  63.401  36.427  58.797
H  64.334  36.058  59.937
H  58.705  47.176  67.014
H  60.771  42.372  63.044
H  62.035  51.651  62.241
H  37.057  46.867  50.973
H  42.432  46.919  68.900
H  41.649  36.450  26.922
H  64.421  66.674  41.668
H  72.309  49.888  46.867
H  71.002  50.341  46.240
H  63.334  67.733  41.708
H  43.263  42.230  23.939
H  44.054  43.503  24.181
H  63.397  47.541  55.252
H  64.670  47.718  54.442
H  58.898  46.420  41.316
H  63.274  48.610  46.244
H  62.142  48.826  45.255
H  59.000  46.478  42.830
H  63.599  72.684  52.715
H  62.505  72.968  53.730
H  30.901  58.516  57.281
H  31.708  59.743  56.896
H  54.654  70.267  56.248
H  67.134  38.421  41.956
H  66.918  37.594  40.700
H  55.566  69.397  57.094
H  39.500  52.294  32.779
H  38.087  51.806  32.513
H  40.895  35.134  27.000
H  28.386  45.065  42.017
H  28.785  43.950  42.968
H  41.120  39.175  29.548
H  57.470  61.822  62.359
H  65.334  40.935  68.214
H  65.191  42.391  67.803
H  62.477  43.573  43.101
H  61.974  44.967  43.432
H  59.437  49.086  77.067
H  51.401  38.985  24.749
H  50.094  38.289  25.083
H  58.385  48.054  77.432
H  58.264  64.795  45.895
H  57.045  64.969  45.006
H  51.450  47.744  30.522
H  66.301  47.829  73.716
H  32.772  35.267  63.684
H  69.295  53.033  35.969
H  69.993  53.913  34.947
H  32.871  36.006  65.006
H  63.522  71.803  40.303
H  64.069  73.219  40.340
H  32.564  48.625  52.728
H  31.552  47.593  52.261
H  42.596  39.532  29.563
H  72.620  41.726  35.673
H  74.006  41.780  36.292
H  66.295  47.865  72.198
H  50.468  47.849  29.369
H  57.278  55.714  51.718
H  37.423  65.225  60.234
H  47.852  51.612  62.796
H  47.324  51.338  61.399
H  45.911  41.003  60.860
H  59.695  53.099  37.401
H  60.972  53.748  36.898
H  45.156  39.746  61.255
H  65.502  58.100  52.934
H  64.102  58.194  53.514
H  59.823  43.841  52.686
H  60.942  44.543  53.436
H  47.921  45.427  25.495
H  66.430  50.328  67.356
H  49.272  73.961  65.365
H  47.163  44.402  26.321
H  30.452  34.385  61.356
H  30.820  35.496  60.389
H  49.159  54.654  64.091
H  49.361  55.443  65.373
H  58.830  53.645  48.265
H  57.665  36.007  60.973
H  58.309  34.666  61.273
H  57.561  53.530  49.091
H  23.900  48.569  62.233
H  24.793  47.512  61.606
H  48.499  72.678  65.115
H  42.046  47.534  67.566
H  65.069  50.278  68.029
H  60.173  62.444  43.680
H  37.650  65.984  58.938
H  58.769  55.771  51.434
H  31.055  41.279  61.954
H  29.541  41.323  62.064
H  53.561  69.491  37.567
H  52.246  69.793  36.870
H  49.415  48.874  72.882
H  42.582  58.294  41.531
H  41.189  58.081  40.964
H  49.613  50.149  73.683
H  42.021  22.860  52.387
H  33.612  65.555  53.324
H  42.181  23.541  53.735
H  43.392  60.348  35.645
H  59.516  48.606  49.204
H  56.473  51.032  35.534
H  56.839  49.565  35.677
H  58.583  49.756  48.871
H  42.019  66.403  63.548
H  41.655  65.020  63.037
H  38.647  50.012  31.184
H  39.782  49.003  31.163
H  34.242  65.539  51.942
H  61.659  62.161  43.814
H  42.917  59.302  36.639
H  37.738  62.830  68.443
H  36.591  59.928  56.595
H  49.037  49.627  24.564
H  48.373  67.045  37.882
H  48.688  68.529  37.943
H  67.810  61.494  49.430
H  66.478  62.218  49.525
H  33.226  44.868  48.527
H  24.380  59.622  45.128
H  25.858  59.932  44.967
H  34.741  44.842  48.631
H  33.653  52.631  66.980
H  35.149  52.467  67.181
H  48.410  48.755  32.888
H  48.244  48.985  34.380
H  37.299  44.178  44.086
H  69.780  44.555  31.172
H  68.838  44.705  32.355
H  38.015  43.041  44.793
H  69.773  34.854  57.225
H  68.312  34.879  57.640
H  61.635  44.706  59.763
H  61.547  45.113  58.303
H  52.940  58.908  28.923
H  54.799  56.230  40.574
H  54.346  56.113  39.129
H  72.515  60.759  45.455
H  46.788  22.583  45.902
H  45.627  21.876  45.225
H  73.363  62.018  45.424
H  55.929  58.108  59.467
H  70.531  66.252  49.757
H  70.599  66.484  48.257
H  56.484  57.329  58.287
H  57.971  24.126  49.868
H  57.899  23.023  50.910
H  24.723  63.006  53.209
H  24.111  61.628  53.395
H  69.161  69.735  58.698
H  56.610  56.379  74.418
H  55.413  57.314  74.406
H  51.649  58.827  28.128
H  67.785  69.749  58.058
H  74.512  47.335  50.108
H  62.793  40.988  46.128
H  64.219  41.511  46.128
H  60.955  52.271  41.631
H  34.001  53.745  33.311
H  35.502  53.746  33.085
H  60.194  52.508  42.924
H  55.332  41.664  24.169
H  55.355  43.056  23.563
H  48.142  71.829  67.926
H  47.739  70.412  68.295
H  73.653  46.083  50.059
H  72.075  40.901  49.254
H  71.501  39.506  49.079
H  66.084  51.876  47.389
H  61.279  42.362  53.431
H  40.879  69.573  59.427
H  42.129  68.727  59.590
H  51.367  28.795  42.807
H  50.529  29.046  44.049
H  45.528  49.990  61.297
H  33.955  66.659  34.656
H  33.214  67.964  34.886
H  45.596  50.734  62.619
H  54.451  52.605  37.109
H  55.486  53.668  36.787
H  23.808  52.420  57.479
H  53.486  49.532  30.855
H  41.919  24.392  44.364
H  47.465  26.934  63.107
H  47.084  28.068  64.042
H  41.890  23.833  45.776
H  40.565  38.542  48.733
H  41.880  37.812  48.944
H  54.428  30.438  34.612
H  55.625  29.504  34.634
H  25.018  60.163  57.638
H  33.641  50.826  29.001
H  34.958  50.362  28.405
H  54.326  48.387  31.395
H  49.054  44.705  37.419
H  23.876  51.915  58.909
H  30.656  63.466  50.101
H  66.789  51.354  48.629
H  55.251  72.316  34.438
H  41.295  62.258  61.594
H  42.739  62.665  61.361
H  54.800  73.735  34.737
H  43.124  34.662  33.181
H  41.649  34.701  32.818
H  57.638  71.923  33.963
H  57.454  71.684  32.475
H  60.365  42.471  60.020
H  55.816  66.991  37.244
H  60.981  40.934  53.852
H  57.256  67.330  36.899
H  51.061  41.912  23.053
H  52.080  40.839  22.712
H  37.652  71.602  35.628
H  36.291  70.928  35.613
H  60.765  31.647  40.148
H  73.391  40.298  38.124
H  72.903  39.819  36.768
H  59.344  32.170  40.027
H  39.483  65.381  27.961
H  40.729  64.652  28.435
H  30.256  64.412  48.983
H  61.384  41.892  60.986
H  26.257  60.824  57.061
H  49.595  44.943  36.021
H  43.805  68.340  70.571
H  68.807  44.280  42.886
H  50.769  70.739  62.272
H  49.499  71.566  62.373
H  67.639  50.595  29.815
H  40.726  36.896  72.444
H  39.519  36.000  72.232
H  66.640  51.517  30.493
H  62.293  61.467  27.282
H  62.065  62.876  27.801
H  33.991  34.969  54.562
H  35.220  35.859  54.628
H  75.288  45.596  44.803
H  57.098  33.439  30.897
H  57.731  32.907  32.171
H  74.582  44.886  43.662
H  42.504  50.942  47.283
H  42.767  52.437  47.260
H  31.619  40.824  30.931
H  30.721  39.628  31.194
H  43.630  30.419  68.086
H  56.600  73.596  59.813
H  57.911  72.841  59.950
H  44.152  31.289  69.216
H  69.396  43.313  41.874
H  55.319  66.847  59.196
H  44.733  46.602  69.010
H  43.961  45.340  68.664
H  40.742  47.164  74.431
H  42.189  47.502  74.117
H  44.905  77.227  56.491
H  60.430  46.378  65.664
H  60.142  45.517  66.881
H  62.845  32.628  54.099
H  61.991  31.375  54.013
H  28.057  65.647  49.056
H  26.978  48.004  65.675
H  26.923  47.972  67.192
H  27.079  64.556  48.656
H  50.576  25.762  45.341
H  53.188  27.929  33.852
H  71.313  45.977  42.874
H  72.692  45.392  42.626
H  38.512  49.690  55.279
H  75.213  56.004  38.529
H  74.741  57.431  38.749
H  37.184  48.992  55.511
H  32.693  27.753  54.328
H  33.122  28.865  53.387
H  67.582  30.553  55.158
H  68.043  31.781  55.924
H  55.983  68.206  59.338
H  53.428  28.137  35.337
H  50.147  27.219  45.363
H  33.096  49.687  40.562
H  33.879  48.440  40.931
H  43.897  62.704  64.353
H  44.218  63.824  63.379
H  50.497  35.722  58.368
H  50.188  34.652  57.334
H  68.955  60.123  56.000
H  61.074  59.732  56.449
H  60.219  58.865  57.356
H  70.176  60.799  56.598
H  70.622  39.044  45.934
H  69.139  38.753  46.079
H  61.127  26.825  50.118
H  50.635  64.631  26.248
H  62.175  27.790  49.592
H  43.334  57.919  49.567
H  42.094  57.181  50.043
H  67.034  32.279  44.084
H  60.960  54.281  27.736
H  61.033  53.292  28.886
H  53.311  29.605  51.382
H  54.808  29.861  51.402
H  72.327  60.021  47.990
H  55.809  26.720  59.196
H  56.469  27.993  58.695
H  71.608  59.162  49.015
H  67.614  32.233  45.487
H  44.862  67.929  71.581
H  66.691  70.772  60.438
H  51.062  63.396  27.023
H  60.220  50.359  42.451
H  40.341  39.909  59.488
H  39.814  38.905  60.499
H  58.973  49.494  42.499
H  46.852  69.057  41.337
H  48.205  69.381  40.728
H  65.728  48.731  32.865
H  66.486  50.038  32.707
H  57.530  36.641  54.768
H  51.117  32.027  38.813
H  50.344  30.933  38.097
H  67.161  69.351  60.694
H  56.090  36.498  55.229
H  63.923  60.709  39.399
H  36.273  48.147  58.053
H  36.410  47.032  57.030
H  48.572  63.425  51.108
H  54.744  72.885  42.076
H  53.449  72.114  42.266
H  49.200  63.630  49.741
H  41.017  45.015  54.024
H  40.383  44.911  55.400
H  56.407  67.997  67.641
H  57.841  67.579  67.363
H  65.206  61.198  40.047
H  47.851  49.776  23.626
H  55.118  54.032  41.300
H  38.137  51.622  70.689
H  63.011  57.332  59.021
H  48.189  64.985  62.158
H  54.362  42.899  68.757
H  54.120  43.830  67.582
H  41.450  31.148  29.891
H  42.883  30.651  29.805
H  63.779  55.500  36.872
H  69.389  52.296  66.320
H  68.073  51.638  66.696
H  64.002  54.485  37.980
H  49.303  74.846  46.644
H  49.707  74.641  45.194
H  37.181  26.119  47.277
H  38.347  25.488  46.535
H  62.377  64.061  29.631
H  56.186  54.101  33.718
H  54.985  55.028  33.659
H  61.388  63.877  30.769
H  63.637  48.505  43.180
H  64.095  47.884  41.872
H  58.037  54.856  32.178
H  57.405  54.055  31.052
H  49.407  31.213  40.290
H  64.079  58.402  58.868
H  48.023  66.310  62.881
H  58.544  48.750  22.970
H  59.671  48.494  23.955
H  33.089  45.481  72.590
H  34.029  44.550  71.845
H  47.713  39.466  62.423
H  45.945  36.067  32.566
H  45.742  37.399  33.267
H  48.074  38.776  63.727
H  68.707  56.957  36.502
H  68.194  58.191  37.224
H  32.678  36.538  67.458
H  31.319  36.349  66.808
H  64.326  46.492  63.972
H  34.652  36.118  62.918
H  55.042  49.189  37.006
H  63.004  46.196  64.658
H  63.373  56.171  28.781
H  63.233  57.671  28.975
H  61.236  65.419  39.896
H  62.208  65.305  38.734
H  42.106  77.715  48.437
H  41.269  62.762  64.155
H  40.104  63.708  63.919
H  41.079  77.291  49.472
H  61.310  39.333  52.138
H  59.892  38.788  52.111
H  53.813  50.075  37.102
H  34.971  36.741  64.266
H  48.355  31.774  41.229
H  32.307  43.099  37.150
H  67.938  46.440  45.779
H  67.800  45.321  44.761
H  60.061  62.128  35.221
H  68.338  43.926  54.048
H  67.497  43.045  54.956
H  59.439  62.710  26.940
H  60.491  62.133  26.009
H  76.627  53.345  40.316
H  25.625  51.777  52.376
H  24.828  51.949  51.095
H  76.042  52.081  39.711
H  61.514  62.440  35.533
H  33.504  56.707  31.532
H  36.674  64.478  42.437
H  35.786  65.498  43.127
H  47.556  63.321  68.843
H  60.784  36.135  54.606
H  62.015  36.395  55.456
H  49.006  63.688  68.579
H  47.284  28.164  49.514
H  46.002  28.599  48.826
H  48.311  62.723  27.738
H  48.337  64.073  28.434
H  35.864  61.058  55.887
H  32.178  56.106  31.099
H  40.088  33.530  46.505
H  43.824  26.508  52.929
H  64.545  29.182  58.491
H  32.673  44.382  36.425
H  74.382  41.179  42.247
H  75.416  42.251  42.542
H  62.361  50.531  39.103
H  56.147  51.587  29.748
H  55.732  51.547  31.208
H  62.071  51.917  38.553
H  46.975  21.743  51.779
H  47.226  21.996  53.255
H  40.538  67.456  33.327
H  39.458  68.143  32.510
H  44.022  25.850  54.283
H  71.825  44.999  59.138
H  34.706  51.801  49.111
H  71.303  43.589  58.918
H  63.766  45.750  48.520
H  63.349  46.838  47.545
H  61.654  49.027  34.861
H  62.271  49.856  33.748
H  71.652  53.226  53.646
H  63.642  32.358  56.187
H  62.857  32.159  57.472
H  71.439  54.720  53.819
H  65.803  28.428  58.887
H  33.457  51.141  48.554
H  55.772  52.959  40.447
H  41.496  34.086  46.381
H  70.383  57.661  41.870
H  70.539  62.455  45.540
H  42.083  26.090  57.114
H  43.242  26.439  58.031
H  58.294  52.192  73.652
H  58.091  50.859  74.349
H  42.202  69.789  50.365
H  34.102  55.289  43.842
H  33.614  56.725  43.924
H  41.648  68.914  51.476
H  41.950  39.658  53.905
H  42.620  40.444  55.019
H  34.616  43.202  46.516
H  34.381  41.704  46.606
H  53.106  61.386  51.161
H  62.421  49.014  63.717
H  63.048  49.687  62.509
H  53.736  61.742  52.497
H  55.430  70.853  61.437
H  55.388  69.745  62.475
H  59.755  51.369  51.222
H  61.025  50.884  51.900
H  27.048  63.160  52.074
H  43.912  31.371  62.032
H  62.101  56.541  62.394
H  61.184  57.370  63.276
H  70.674  63.202  44.225
H  72.713  51.770  57.485
H  37.780  52.506  71.871
H  30.822  35.834  53.568
H  44.290  32.511  52.252
H  43.462  31.424  52.914
H  31.595  34.784  54.347
H  63.675  58.836  50.381
H  62.238  58.689  50.850
H  36.717  68.844  32.640
H  36.406  69.431  34.005
H  25.114  63.424  51.055
H  37.109  39.270  54.851
H  43.618  30.541  63.269
H  37.779  37.907  54.834
H  42.364  63.905  31.373
H  42.919  63.762  29.967
H  41.971  31.801  58.200
H  40.868  32.842  58.267
H  58.545  46.767  53.851
H  59.980  65.558  44.070
H  60.181  64.318  44.923
H  59.984  46.506  53.441
H  59.305  52.730  70.928
H  60.101  54.010  71.115
H  71.674  52.878  57.491
H  26.039  62.768  50.046
H  27.929  64.333  51.685
H  45.723  49.277  31.369
H  46.085  47.803  31.397
H  61.479  54.741  24.336
H  56.685  59.743  49.819
H  43.544  24.899  39.046
H  45.033  25.184  38.967
H  47.002  53.359  66.717
H  47.867  54.578  66.986
H  74.686  55.380  63.897
H  40.083  55.860  59.234
H  41.464  56.423  59.521
H  74.946  54.318  62.844
H  67.656  46.175  59.341
H  62.604  55.703  24.672
H  68.618  46.852  58.380
H  61.630  69.355  37.015
H  61.728  59.697  63.430
H  41.459  72.302  45.926
H  42.481  72.545  44.829
H  62.875  60.589  62.990
H  47.409  59.360  27.676
H  46.127  60.030  28.137
H  55.971  59.639  62.028
H  56.110  58.767  63.263
H  39.952  45.044  41.319
H  69.028  57.540  41.195
H  62.022  70.814  36.868
H  41.459  45.215  41.249
H  55.298  60.112  49.320
H  65.690  44.741  46.743
H  49.881  72.145  40.971
H  48.891  71.604  41.988
H  64.886  61.773  35.101
H  42.022  60.569  45.680
H  40.637  59.988  45.909
H  65.914  62.568  35.888
H  40.449  50.625  52.579
H  39.393  50.821  53.652
H  29.228  60.523  50.574
H  29.024  62.014  50.372
H  44.953  52.762  74.608
H  64.681  44.108  45.800
H  44.221  24.388  42.793
H  45.521  54.124  74.249
H  38.322  47.216  32.434
H  37.703  47.120  31.050
H  50.094  40.960  52.165
H  51.357  40.134  52.331
H  57.833  29.594  46.094
H  62.981  28.725  55.679
H  63.628  29.658  54.671
H  58.808  28.453  45.863
H  62.249  64.682  48.742
H  62.001  63.183  48.750
H  44.233  25.741  43.482
H  44.524  35.057  53.409
