10074
Supercell generated
Cl  41.567  60.454  73.558
Cl  45.664  30.855  59.273
Cl  39.407  42.053  77.976
Cl  39.730  50.164  59.223
Cl  62.007  57.887  60.647
Cl  64.825  44.628  60.118
Cl  60.491  66.874  41.429
Cl  38.581  40.309  74.129
Cl  31.423  50.597  46.457
Na  46.312  37.670  61.205
Na  36.552  52.237  53.893
Na  41.096  66.438  69.337
Na  35.772  36.780  44.716
Na  48.151  57.615  35.467
Na  38.228  29.269  64.116
Na  37.570  44.821  52.041
O  50.408  43.225  73.014
O  56.124  62.405  28.149
O  67.009  52.225  69.918
O  75.449  53.719  47.273
O  55.516  49.423  31.141
O  57.577  39.243  65.208
O  42.726  58.216  60.404
O  28.805  52.135  38.777
O  68.810  48.726  40.523
O  72.684  49.134  34.711
O  50.174  31.177  51.558
O  45.192  65.556  37.125
O  46.294  64.291  56.695
O  54.355  67.339  33.841
O  60.073  48.576  33.342
O  47.622  66.622  36.149
O  45.146  48.693  28.014
O  52.213  69.491  39.160
O  55.760  63.461  35.103
O  26.234  45.868  56.219
O  26.123  38.457  53.652
O  33.932  56.143  33.788
O  57.827  55.669  41.179
O  46.274  68.792  34.677
O  52.053  70.670  35.004
O  56.993  38.587  52.393
O  56.789  50.898  37.742
O  49.308  53.511  75.982
O  51.241  48.995  30.213
O  45.520  47.124  38.215
O  65.141  71.744  49.892
O  60.885  55.579  74.661
O  36.814  65.777  45.369
O  57.981  55.866  66.088
O  39.588  53.565  44.818
O  45.721  64.663  44.705
O  59.442  45.434  35.477
O  70.984  38.486  66.073
O  45.094  54.365  34.056
O  51.939  65.364  40.730
O  54.793  57.148  33.360
O  35.410  62.256  59.321
O  43.641  31.274  32.564
O  42.127  37.563  71.922
O  66.048  58.281  34.594
O  70.801  45.897  66.306
O  58.720  65.503  39.151
O  69.710  40.111  37.712
O  40.604  58.549  26.697
O  35.959  37.180  37.323
O  36.942  54.395  53.901
O  66.362  57.384  56.531
O  43.711  25.069  50.302
O  64.354  31.694  48.077
O  55.552  58.689  64.959
O  37.244  42.623  51.970
O  32.211  43.864  31.489
O  64.556  54.326  60.642
O  65.902  46.106  56.633
O  41.978  42.610  63.110
O  33.462  58.376  63.431
O  42.943  56.604  45.865
O  28.364  63.978  56.834
O  27.072  51.394  43.687
O  28.686  51.685  46.286
O  31.909  44.625  52.889
O  45.878  73.256  62.682
O  44.242  51.739  26.412
O  50.079  30.892  47.591
O  37.454  68.176  66.530
O  70.468  54.497  45.299
O  49.201  57.901  58.455
O  52.321  49.026  71.264
O  73.589  57.707  51.137
O  54.264  68.535  66.871
O  54.597  67.375  50.541
O  55.940  39.499  26.622
O  28.688  44.237  56.391
O  60.942  35.191  45.182
O  46.371  74.573  47.564
O  72.628  43.314  52.182
O  74.950  55.425  42.423
O  66.134  43.712  65.036
O  46.153  58.669  50.309
O  68.116  64.132  36.841
O  43.872  48.008  71.130
O  62.695  70.562  57.560
O  52.520  39.018  53.350
O  37.623  75.188  51.191
O  59.238  36.652  51.534
O  37.705  52.224  55.807
O  73.260  45.901  63.255
O  33.717  40.460  34.673
O  50.290  69.325  47.958
O  27.519  58.477  45.513
O  26.715  57.780  60.957
O  72.957  59.306  58.394
O  38.445  68.388  36.880
O  70.621  49.034  38.193
O  54.152  43.402  37.469
O  51.037  61.848  69.103
O  42.886  36.685  35.336
O  32.875  38.263  37.174
O  56.526  56.076  46.379
O  73.155  45.369  39.637
O  66.684  58.948  58.991
O  46.425  46.463  61.867
O  47.910  50.258  30.019
O  67.225  71.279  56.838
O  40.907  61.754  65.796
O  23.971  48.643  41.667
O  61.178  39.986  26.965
O  61.648  62.424  68.380
O  69.513  37.591  40.626
O  64.084  45.675  52.642
O  28.829  66.322  55.059
O  68.560  58.140  64.900
O  52.188  48.627  22.819
O  33.748  53.834  58.935
O  33.530  31.952  52.432
O  40.119  65.192  34.120
O  58.112  70.432  35.571
O  50.907  64.946  68.687
O  58.933  66.342  29.460
O  49.074  40.913  65.979
O  32.309  41.776  67.092
O  57.326  37.984  46.233
O  55.086  68.427  69.836
O  42.363  47.072  51.902
O  56.785  45.109  46.957
O  57.139  58.638  74.567
O  54.847  34.219  54.777
O  40.320  69.051  49.718
O  64.660  49.279  51.763
O  38.702  56.688  32.314
O  46.350  35.051  72.819
O  59.024  72.246  45.630
O  46.490  41.709  53.404
O  62.168  41.188  64.325
O  31.528  44.112  47.852
O  45.802  51.232  74.991
O  40.494  29.766  57.888
O  53.234  40.813  35.289
O  50.279  70.768  32.688
O  43.804  75.387  48.721
O  43.048  72.688  55.138
O  38.283  51.502  36.122
O  67.110  53.894  34.721
O  52.561  22.355  49.413
O  44.014  45.314  75.402
O  55.957  49.441  40.130
O  58.439  39.184  49.923
O  56.483  62.728  53.843
O  43.733  57.996  74.132
O  44.349  65.337  52.162
O  66.811  45.331  36.200
O  49.376  30.431  54.966
O  56.695  60.166  69.566
O  65.329  54.766  57.871
O  72.510  58.475  63.750
O  59.927  57.059  68.738
O  44.016  53.020  31.783
O  58.628  57.925  39.783
O  49.622  37.881  46.421
O  39.581  26.917  57.392
O  68.572  31.467  47.425
O  43.304  55.942  35.623
O  73.972  55.319  49.429
O  42.732  27.912  40.440
O  55.601  36.859  25.436
O  65.148  66.556  58.598
O  51.520  44.858  65.988
O  37.730  42.046  40.672
O  36.669  51.070  58.114
O  60.087  54.937  64.131
O  56.517  47.842  46.443
O  37.660  32.253  51.913
O  49.540  32.705  30.633
O  31.107  58.184  32.623
O  67.859  68.382  40.210
O  45.987  55.537  30.286
O  38.853  69.397  39.541
O  73.289  34.494  51.426
O  41.885  54.534  68.016
O  54.474  78.275  47.110
O  36.905  59.620  66.156
O  29.319  64.240  52.959
O  36.421  57.359  61.658
O  38.644  65.846  30.854
O  32.459  38.475  41.358
O  63.201  65.865  56.445
O  47.258  42.080  35.272
O  40.704  35.242  36.928
O  60.280  35.916  32.492
O  42.578  55.078  30.391
O  71.428  43.946  64.369
O  28.583  39.947  53.676
O  35.740  42.735  29.902
O  38.079  61.243  70.296
O  58.000  32.604  36.614
O  33.004  61.424  61.429
O  73.375  62.430  40.554
O  67.980  41.196  43.526
O  58.554  69.220  52.924
O  59.750  49.337  67.396
O  50.817  22.878  47.247
O  66.157  26.819  48.296
O  54.125  32.805  40.073
O  38.323  45.098  63.728
O  52.518  49.694  59.788
O  32.430  41.068  59.172
O  55.385  48.569  36.253
O  38.533  37.562  60.921
O  57.109  25.538  56.385
O  33.682  33.217  63.659
O  58.572  42.976  45.891
O  59.492  32.866  43.926
O  71.012  47.302  33.245
O  68.475  45.408  64.442
O  66.781  37.962  60.879
O  31.951  35.384  34.693
O  49.023  59.436  74.270
O  57.161  66.970  33.545
O  48.603  70.564  36.572
O  39.102  63.485  57.016
O  59.968  37.014  66.069
O  54.633  39.506  39.906
O  29.802  52.485  29.493
O  44.621  77.889  47.439
O  66.258  51.431  38.895
O  34.105  54.153  69.864
O  29.449  42.041  37.297
O  52.167  55.766  43.965
O  68.200  59.038  38.170
O  51.152  68.005  41.550
O  51.928  52.765  77.144
O  68.863  62.814  53.675
O  39.771  40.123  39.847
O  55.465  52.684  25.749
O  69.434  61.544  37.092
O  53.825  44.826  23.115
O  30.627  60.565  44.951
O  54.640  32.795  45.947
O  35.928  50.570  43.023
O  53.888  51.813  34.147
O  65.980  62.679  56.442
O  44.962  29.746  40.933
O  49.013  45.670  72.507
O  51.816  56.664  37.980
O  49.312  56.237  25.856
O  35.000  53.501  43.215
O  71.764  49.740  51.063
O  24.097  51.549  44.323
O  62.059  39.133  55.531
O  44.847  25.449  47.229
O  55.908  61.875  41.568
O  29.405  64.757  46.471
O  22.914  56.105  58.366
O  71.089  51.253  47.785
O  55.927  46.122  52.808
O  44.155  53.605  23.238
O  32.933  37.081  59.488
O  56.825  55.016  63.586
O  39.035  42.430  70.704
O  67.550  41.632  63.565
O  37.569  72.408  37.303
O  46.437  44.281  74.087
O  41.186  61.656  47.609
O  42.511  54.389  50.669
O  49.236  72.069  60.320
O  42.061  42.047  26.915
O  54.824  53.922  71.523
O  34.876  66.407  62.981
O  53.243  62.922  41.620
O  63.093  34.477  30.583
O  62.450  50.841  44.107
O  50.276  63.922  56.117
O  76.780  45.034  43.582
O  36.389  41.663  54.568
O  44.475  36.591  61.858
O  37.247  45.161  55.351
O  74.279  54.426  57.248
O  57.065  34.531  38.559
O  32.174  63.443  52.942
O  45.821  38.874  52.989
O  56.671  38.205  58.698
O  52.123  59.387  73.206
O  56.754  59.471  25.305
O  30.197  63.052  33.758
O  73.480  49.115  39.108
O  52.102  62.874  44.233
O  52.220  59.828  62.440
O  34.739  57.234  55.692
O  55.172  65.307  41.008
O  24.262  62.699  47.593
O  40.117  66.033  36.834
O  28.895  55.987  61.672
O  35.183  59.074  48.797
O  35.312  70.970  42.432
O  68.349  51.034  36.981
O  53.315  70.244  58.748
O  42.323  39.655  63.241
O  59.291  40.442  67.949
O  42.337  60.093  28.986
O  52.839  61.395  33.909
O  29.409  51.922  41.583
O  56.488  24.024  53.935
O  49.000  70.660  57.830
O  67.614  40.646  68.725
O  37.881  50.566  39.355
O  51.163  28.595  30.680
O  35.080  62.190  63.221
O  68.849  65.549  52.956
O  30.672  54.248  52.537
O  39.025  34.177  63.209
O  71.928  54.470  32.937
O  46.318  45.819  66.660
O  59.308  48.624  60.178
O  44.246  61.044  47.605
O  40.240  65.438  63.075
O  42.777  29.152  43.414
O  45.054  33.773  46.382
O  57.441  64.784  72.013
O  36.493  47.851  69.452
O  60.098  63.982  71.178
O  47.143  57.331  27.654
O  48.276  42.250  37.971
O  52.255  70.725  65.082
O  35.412  42.054  69.605
O  45.765  57.521  71.524
O  69.973  34.447  60.179
O  69.366  65.593  64.689
O  41.841  50.642  74.666
O  38.626  39.989  65.522
O  61.649  25.900  54.985
O  47.017  41.924  72.539
O  67.783  37.418  64.849
O  57.410  49.591  62.173
O  69.077  59.826  40.778
O  62.157  30.432  37.559
O  24.855  59.360  52.466
O  45.844  60.966  54.632
O  59.798  46.680  51.002
O  36.952  58.123  44.694
O  50.150  54.737  28.375
O  58.727  49.865  35.926
O  63.567  39.361  53.007
O  59.432  25.713  52.108
O  47.251  31.772  38.723
O  26.730  60.885  37.177
O  66.101  45.357  50.629
O  49.167  45.000  36.049
O  44.610  48.699  68.285
O  53.462  37.560  69.218
O  59.472  60.140  35.156
O  50.542  30.899  34.705
O  73.020  48.761  63.895
O  42.622  73.638  61.649
O  57.821  44.936  76.012
O  41.306  68.120  54.436
O  65.396  38.644  45.497
O  49.852  31.138  42.762
O  56.060  28.704  45.722
O  47.987  44.592  59.985
O  36.960  49.902  32.959
O  34.305  47.517  38.725
O  34.589  62.098  54.167
O  53.180  45.596  53.680
O  37.942  71.482  43.623
O  59.457  40.658  44.290
O  61.972  64.786  42.927
O  29.169  34.115  42.324
O  74.735  56.128  54.861
O  59.287  59.346  60.404
O  28.006  40.491  42.883
O  66.588  49.494  35.256
O  61.973  52.967  32.677
O  45.480  38.740  35.736
O  52.258  40.467  29.684
O  29.247  37.174  52.664
O  58.753  69.429  48.221
O  43.218  30.766  57.022
O  28.656  38.404  41.018
O  47.377  35.427  63.270
O  28.208  42.637  33.270
O  53.817  61.068  64.507
O  58.784  51.954  61.698
O  41.983  49.337  36.623
O  71.265  34.667  53.488
O  70.120  61.915  59.997
O  55.029  51.401  60.738
O  57.694  30.000  38.016
O  67.478  67.157  60.409
O  42.480  41.318  44.485
O  51.459  74.065  62.828
O  59.127  61.083  41.777
O  28.079  49.338  41.738
O  37.277  42.408  43.463
O  48.080  55.315  46.487
O  38.556  46.440  25.575
O  69.229  38.354  53.117
O  37.704  68.169  63.687
O  41.809  36.801  63.859
O  62.788  47.033  27.334
O  37.445  26.769  54.084
O  57.614  51.810  68.831
O  25.595  42.857  53.867
O  30.965  38.811  63.427
O  45.301  64.596  41.881
O  32.563  33.471  50.194
O  40.628  68.519  63.431
O  64.420  49.578  39.913
O  50.706  68.788  51.718
O  62.355  68.461  55.606
O  31.192  60.366  34.235
O  66.572  32.566  38.846
O  31.901  44.592  67.800
O  38.823  50.990  49.253
O  50.836  61.447  29.612
O  57.187  29.525  50.989
O  65.325  64.811  33.052
O  38.191  35.441  31.798
O  32.993  44.357  50.315
O  48.201  38.443  34.594
O  66.846  33.310  62.488
O  60.177  54.702  30.350
O  66.506  30.740  53.473
O  48.524  38.699  30.807
O  27.330  55.344  48.259
O  53.940  67.811  40.640
O  23.858  57.033  55.822
O  72.978  53.023  45.596
O  58.818  27.466  57.610
O  43.229  68.073  56.607
O  43.569  47.225  41.409
O  63.059  55.397  56.158
O  50.976  73.978  58.902
O  44.515  53.596  67.414
O  70.062  59.779  57.728
O  38.456  30.772  46.808
O  47.731  59.371  70.640
O  55.082  67.645  62.775
O  44.752  29.260  35.269
O  57.524  30.241  56.708
O  57.807  45.538  26.339
O  32.950  70.559  49.694
O  70.383  60.435  34.499
O  29.382  50.647  31.713
O  47.563  43.327  65.787
O  35.117  45.182  34.232
O  30.067  42.730  58.453
O  39.803  30.976  40.310
O  36.138  55.834  41.835
O  42.854  31.941  48.729
O  31.412  31.689  48.214
O  41.999  49.231  48.874
O  50.654  54.305  60.957
O  62.182  33.571  43.000
O  46.033  76.241  50.504
O  54.459  57.651  77.543
O  51.847  41.796  27.137
O  30.778  52.816  33.706
O  69.300  58.116  67.659
O  51.259  45.894  58.277
O  55.950  74.730  48.752
O  60.740  42.027  35.764
O  24.804  49.366  63.125
O  59.182  67.264  69.804
O  38.556  42.590  30.628
O  64.389  48.472  66.190
O  57.219  37.500  41.523
O  42.084  51.592  50.764
O  41.864  43.960  34.969
O  43.822  65.445  57.726
O  45.000  42.014  65.065
O  61.628  53.737  44.737
O  40.686  52.978  29.776
O  44.956  43.813  27.268
O  50.199  27.216  65.121
O  36.346  71.426  49.635
O  23.745  52.700  54.806
O  60.804  33.760  38.369
O  26.766  50.908  50.117
O  55.126  46.164  75.910
O  46.008  71.623  37.215
O  67.726  37.680  37.110
O  36.909  68.142  57.963
O  30.112  36.192  36.893
O  46.150  59.198  75.092
O  55.795  72.027  49.645
O  38.003  44.526  72.411
O  51.929  50.600  74.506
O  68.663  72.038  54.473
O  38.212  26.213  41.730
O  38.460  36.756  42.596
O  38.807  72.616  40.945
O  34.391  62.756  36.659
O  40.443  56.132  70.619
O  44.922  53.285  28.876
O  53.354  68.180  47.823
O  45.628  52.734  77.494
O  41.681  61.400  58.345
O  69.609  69.421  53.639
O  50.293  49.242  76.501
O  40.718  32.179  62.009
O  63.583  38.056  36.481
O  51.497  43.811  55.296
O  25.372  44.717  49.810
O  40.397  33.831  51.529
O  52.309  26.513  46.923
O  60.161  61.129  71.566
O  49.144  54.817  68.535
O  68.022  55.826  32.722
O  64.105  62.289  36.644
O  50.232  64.843  71.558
O  59.062  61.764  58.780
O  56.030  36.130  51.579
O  51.058  62.068  37.379
O  60.977  51.704  36.100
O  45.532  40.573  59.279
O  34.172  50.490  47.453
O  39.852  34.959  34.251
O  39.963  49.451  51.692
O  54.263  56.631  63.446
O  57.660  67.704  57.574
O  53.007  24.729  55.721
O  65.396  69.870  43.350
O  33.682  54.092  27.066
O  62.018  41.742  69.275
O  68.595  49.226  53.395
O  44.858  59.869  43.563
O  67.799  64.344  42.921
O  71.763  40.951  34.473
O  47.442  30.543  62.173
O  56.292  47.852  65.198
O  23.708  46.746  46.985
O  34.239  69.124  62.199
O  59.964  29.572  36.309
O  50.028  55.725  41.926
O  61.796  37.057  57.496
O  68.835  52.693  43.719
O  41.357  74.650  43.266
O  35.446  50.439  54.374
O  28.193  49.845  61.110
O  58.064  57.721  36.576
O  49.553  47.701  34.946
O  61.681  59.138  58.141
O  73.556  39.452  39.744
O  46.486  26.498  37.432
O  65.625  46.178  70.430
O  37.084  60.507  28.302
O  68.320  44.274  52.507
O  63.667  61.210  50.714
O  39.786  33.766  41.243
O  71.436  39.842  51.908
O  46.032  60.380  34.319
O  47.312  28.426  57.477
O  56.693  44.549  67.091
O  66.097  38.062  68.016
O  47.612  61.036  31.757
O  56.781  61.857  50.405
O  39.982  46.580  39.116
O  51.207  28.893  53.221
O  32.485  54.003  63.051
O  41.632  30.129  34.716
O  64.037  63.354  63.074
O  52.896  51.232  25.959
O  71.475  67.860  58.633
O  48.493  75.016  36.250
O  45.714  38.823  69.270
O  28.928  40.165  57.720
O  71.467  56.200  67.346
O  67.198  34.962  41.898
O  32.599  42.304  61.903
O  52.542  64.298  57.933
O  40.850  44.517  64.910
O  60.375  49.347  62.695
O  35.367  59.851  37.394
O  49.312  44.173  24.777
O  43.541  35.194  37.553
O  55.914  34.416  68.258
O  71.646  47.424  60.289
O  63.385  68.685  51.336
O  47.779  71.279  33.952
O  51.790  55.426  66.069
O  74.158  64.164  53.344
O  39.022  53.302  34.072
O  42.834  60.862  55.707
O  45.656  66.694  49.928
O  41.157  47.535  31.763
O  52.318  53.728  35.493
O  35.146  50.222  25.102
O  51.545  40.183  59.529
O  60.951  44.648  30.549
O  59.229  38.495  54.723
O  37.036  54.682  73.953
O  51.814  76.087  49.367
O  64.812  33.067  66.396
O  67.315  26.675  45.662
O  61.510  46.728  62.353
O  33.606  71.350  60.359
O  42.091  26.687  37.462
O  40.109  65.199  66.005
O  43.790  32.449  29.118
O  54.890  48.534  61.019
O  44.334  64.042  27.964
O  40.767  37.779  38.388
O  29.044  32.658  46.725
O  50.960  61.068  48.236
O  34.965  35.683  60.962
O  52.515  55.751  71.600
O  31.652  50.700  57.121
O  70.698  41.319  44.398
O  30.613  43.799  42.941
O  65.237  47.057  62.094
O  72.101  31.825  54.343
O  59.104  53.445  46.245
O  68.479  37.532  33.651
O  49.446  67.939  54.114
O  45.649  56.097  67.775
O  54.874  56.535  53.810
O  76.663  44.104  47.263
O  45.073  74.847  56.162
O  57.043  30.215  40.841
O  30.880  43.687  34.027
O  69.988  58.954  46.859
O  47.499  28.283  40.734
O  51.522  77.649  46.459
O  25.219  48.239  57.683
O  62.773  44.404  62.400
O  42.327  45.116  39.977
O  57.948  41.057  70.489
O  42.351  67.609  47.991
O  54.818  26.009  59.929
O  61.071  57.927  66.212
O  48.769  39.500  37.250
O  58.555  52.268  64.663
O  69.594  37.858  59.560
O  39.539  24.156  49.110
O  33.345  64.029  50.400
O  46.702  44.773  34.142
O  61.786  49.051  29.121
O  76.341  53.474  44.403
O  68.706  54.891  28.320
O  68.689  56.557  43.200
O  57.475  45.173  71.237
O  41.988  55.573  39.150
O  47.788  40.721  76.812
O  36.441  54.569  28.077
O  46.209  61.835  41.966
O  69.150  50.637  55.815
O  41.999  43.315  70.585
O  41.744  32.100  69.325
O  29.583  58.009  35.333
O  53.613  65.852  68.076
O  38.654  28.104  51.911
O  70.194  35.756  44.313
O  33.276  38.736  44.903
O  72.233  64.418  57.152
O  58.188  46.204  33.016
O  59.761  71.815  60.992
O  62.077  33.664  47.435
O  50.186  41.639  35.081
O  50.059  52.720  66.755
O  34.556  64.631  55.819
O  28.616  35.017  54.554
O  56.096  39.232  61.238
O  45.523  61.870  57.411
O  47.002  34.634  51.922
O  45.285  46.962  35.334
O  55.216  26.268  47.309
O  57.419  48.464  51.794
O  47.607  28.057  43.571
O  32.937  44.657  63.129
O  68.826  59.711  51.949
O  48.154  63.666  36.395
O  33.793  60.187  58.115
O  43.922  62.205  50.351
O  49.066  26.945  38.739
O  37.831  60.926  63.705
O  49.623  35.430  61.033
O  29.811  58.846  38.056
O  73.836  48.136  42.997
O  60.303  48.536  38.019
O  29.047  53.866  54.812
O  70.696  31.598  49.324
O  44.916  72.334  46.622
O  54.336  59.486  26.919
O  69.411  37.626  62.532
O  51.720  34.412  26.817
O  59.584  42.379  49.498
O  69.970  46.715  53.122
O  26.702  46.672  53.433
O  51.082  43.168  37.370
O  39.928  66.804  52.326
O  56.680  33.386  43.999
O  71.031  44.122  43.391
O  51.674  71.169  43.103
O  48.306  34.555  32.460
O  48.645  29.955  30.706
O  53.927  64.072  38.674
O  36.469  62.599  56.622
O  37.979  51.829  46.543
O  65.430  43.770  38.692
O  35.744  39.988  43.922
O  44.549  62.947  68.110
O  44.251  69.557  46.785
O  61.426  31.009  56.103
O  64.868  37.780  58.756
O  41.163  34.187  71.192
O  65.609  40.737  29.764
O  49.903  36.981  40.589
O  46.762  33.936  58.744
O  31.668  53.466  56.010
O  70.817  48.776  43.649
O  53.440  33.101  68.990
O  58.675  63.814  52.404
O  29.181  47.878  63.782
O  60.691  42.784  66.864
O  47.600  49.010  62.021
O  57.119  58.689  34.124
O  42.601  74.438  58.921
O  49.014  40.373  53.874
O  30.777  35.889  48.457
O  68.711  57.865  49.655
O  46.469  73.255  54.001
O  44.937  58.235  35.867
O  56.508  44.724  36.431
O  44.930  50.829  30.004
O  59.273  56.820  45.969
O  36.178  52.858  30.325
O  39.089  35.763  56.152
O  40.609  56.050  28.164
O  52.895  77.072  53.490
O  36.589  45.530  58.235
O  46.548  73.938  38.808
O  69.802  44.810  60.879
O  64.454  67.551  33.663
O  42.006  65.236  53.892
O  64.959  66.595  44.544
O  55.432  65.000  60.803
O  43.801  55.595  72.405
O  48.402  53.966  73.095
O  74.226  45.998  60.480
O  69.443  51.352  51.597
O  61.350  55.781  51.782
O  34.345  52.021  63.637
O  69.909  51.501  70.212
O  45.040  69.785  65.933
O  65.901  57.902  39.730
O  30.083  54.504  40.098
O  34.534  40.172  29.355
O  44.048  57.915  63.637
O  45.654  40.866  37.571
O  48.990  72.961  52.359
O  29.695  40.223  46.762
O  44.446  68.288  52.896
O  64.542  25.413  54.640
O  49.984  64.310  42.598
O  30.098  35.980  63.368
O  37.208  72.837  56.317
O  34.064  68.983  57.219
O  34.092  53.984  47.804
O  33.508  29.761  48.471
O  26.643  54.232  56.637
O  37.671  44.692  39.505
O  73.040  37.316  51.867
O  46.747  51.809  64.277
O  35.135  49.981  40.207
O  53.202  44.511  50.899
O  45.400  49.716  34.484
O  66.105  35.998  51.419
O  22.868  41.527  45.381
O  30.059  52.688  44.187
O  27.138  50.118  65.758
O  70.185  32.467  45.132
O  38.624  32.608  65.693
O  35.271  52.342  45.690
O  61.656  54.890  61.308
O  74.528  48.077  46.325
O  53.591  56.727  60.472
O  47.862  38.787  39.817
O  35.805  32.965  61.736
O  23.478  47.640  55.196
O  24.455  50.026  55.724
O  60.725  29.103  53.050
O  27.258  42.936  48.574
O  64.492  43.612  48.928
O  42.227  23.287  48.468
O  51.124  38.860  34.673
O  54.648  63.171  45.474
O  46.436  25.008  62.350
O  75.108  38.189  45.208
O  61.880  69.204  39.443
O  67.723  39.288  55.471
O  66.528  51.233  54.398
O  60.517  34.439  65.007
O  29.258  57.762  67.304
O  54.512  65.655  46.925
O  46.705  70.574  63.386
O  61.313  43.390  71.574
O  35.464  36.038  49.412
O  49.353  55.751  35.377
O  50.699  31.997  57.231
O  40.751  59.716  63.056
O  40.491  57.138  61.888
O  47.978  53.193  34.615
O  66.839  34.661  65.056
O  44.880  77.461  42.597
O  69.763  58.384  60.290
O  52.556  30.165  32.841
O  29.417  49.606  44.398
O  30.669  58.637  49.464
O  46.416  56.196  48.653
O  26.751  48.474  44.817
O  42.336  46.217  25.823
O  36.663  33.323  39.519
O  56.643  56.119  38.618
O  23.591  48.994  48.749
O  70.157  48.844  69.015
O  62.039  53.484  49.475
O  73.650  46.225  55.341
O  55.504  35.178  47.380
O  49.550  68.634  61.780
O  45.252  25.475  57.790
O  44.658  72.743  41.731
O  32.892  53.793  35.179
O  47.552  37.391  51.207
O  66.032  53.193  66.420
O  72.179  38.839  60.838
O  52.111  29.658  60.601
O  31.697  46.325  38.880
O  57.053  34.464  62.431
O  32.864  47.382  61.689
O  74.066  53.724  61.763
O  70.630  60.755  44.515
O  62.695  60.728  62.972
O  71.382  50.064  40.764
O  40.448  44.145  41.904
O  47.737  38.669  62.554
O  45.778  33.590  36.809
O  63.670  46.276  64.367
O  47.949  48.794  27.513
O  41.476  77.125  49.929
O  44.304  58.575  41.136
O  48.964  65.738  61.225
O  56.480  76.469  45.798
O  37.868  34.711  60.478
O  53.470  48.543  76.022
O  34.903  64.898  47.422
O  45.820  66.505  67.039
O  59.295  35.181  27.957
O  59.413  54.294  68.197
O  57.020  56.617  76.644
O  62.791  43.876  65.211
O  44.032  73.973  44.370
O  33.307  51.120  43.911
O  39.047  57.899  67.004
O  47.370  54.502  27.541
O  53.808  53.745  63.863
O  57.208  46.817  62.539
O  63.784  54.657  38.300
O  74.880  42.186  56.580
O  45.019  35.601  53.791
O  54.058  49.599  64.230
O  62.293  42.374  41.285
O  43.599  71.535  39.350
O  50.775  59.707  59.965
O  62.531  47.518  51.236
O  50.543  36.239  43.266
O  46.801  73.509  50.447
O  46.818  48.650  66.462
O  51.087  66.513  48.308
O  38.779  61.712  46.028
O  52.630  49.007  27.730
O  63.817  63.744  30.663
O  55.644  59.799  48.794
O  46.083  24.052  43.748
O  56.439  70.245  59.542
O  58.273  42.428  37.382
O  46.623  37.465  27.045
O  44.990  63.379  35.100
O  60.187  67.719  60.290
O  52.925  50.282  78.234
O  41.900  36.268  47.286
O  41.685  26.291  42.659
O  42.402  46.204  28.889
O  42.517  50.055  33.957
O  55.278  36.460  56.746
O  53.574  36.313  53.174
O  45.368  53.520  62.135
O  66.260  66.262  51.796
O  62.140  47.519  40.003
O  77.264  48.502  45.524
O  48.718  76.755  45.891
O  35.794  65.600  50.255
O  57.526  40.246  42.223
O  51.978  39.908  71.238
O  30.603  61.102  39.757
O  59.336  64.138  41.676
O  58.225  48.289  71.516
O  61.341  51.541  38.911
O  48.960  33.879  42.381
O  49.077  32.589  60.782
O  59.097  28.435  47.019
O  73.968  56.679  58.955
O  25.725  60.864  59.379
O  62.569  65.326  45.839
O  31.895  36.250  53.369
O  70.107  42.274  62.392
O  24.660  63.498  50.375
O  52.628  74.267  52.690
O  58.846  46.675  53.417
O  33.374  31.441  41.534
O  41.705  38.465  31.362
O  72.211  63.039  45.696
O  42.064  69.852  52.087
O  53.704  60.348  50.847
O  30.870  33.304  44.600
O  27.584  63.538  50.693
O  56.571  50.714  66.274
O  66.421  62.776  34.852
O  53.156  75.451  45.273
O  45.713  54.146  74.075
O  59.851  47.627  26.928
O  37.700  55.075  60.138
O  71.226  44.860  58.650
O  67.490  53.607  47.512
O  67.224  67.838  54.173
O  57.191  58.682  57.436
O  41.251  64.508  31.316
O  53.583  52.980  74.526
O  35.384  31.005  50.431
O  34.688  51.383  60.202
O  47.467  25.827  52.502
O  45.637  29.802  30.924
O  59.319  38.837  57.589
O  39.377  38.453  27.512
O  52.261  52.588  28.643
O  54.303  76.015  50.842
O  44.965  26.623  60.367
O  69.178  60.828  48.923
O  52.056  62.618  50.305
O  47.690  46.408  29.113
O  44.283  71.744  52.551
O  72.432  53.684  55.133
O  72.461  48.154  53.440
O  29.355  32.456  55.750
O  31.728  61.201  36.893
O  60.242  61.828  64.390
O  47.271  30.873  52.905
O  34.599  46.163  52.983
O  55.420  24.988  44.508
O  54.947  71.523  31.948
O  24.331  40.545  52.658
O  36.233  27.713  46.020
O  35.074  49.668  62.666
O  56.809  65.662  63.187
O  32.449  41.344  47.434
O  68.956  43.099  66.105
O  52.322  26.483  51.637
O  39.513  39.412  68.359
O  61.553  57.008  44.401
O  56.468  29.761  48.326
O  34.728  52.920  40.348
O  41.765  65.538  46.104
O  66.804  48.829  56.438
O  59.302  38.045  69.610
O  54.719  38.881  55.386
O  66.503  29.742  48.858
O  76.828  51.783  49.112
O  39.463  48.900  24.274
O  30.743  68.612  54.568
O  66.489  43.378  30.424
O  38.499  60.605  51.375
O  62.612  71.462  51.308
O  49.067  58.013  51.729
O  33.661  30.703  56.431
O  68.155  35.229  39.207
O  60.714  28.826  44.576
O  46.913  41.120  25.864
O  77.012  46.596  60.570
O  33.477  48.675  44.737
O  47.999  25.626  56.914
O  41.259  30.277  46.125
O  54.079  58.466  30.908
O  43.274  75.344  41.217
O  35.001  28.004  40.331
O  38.246  64.504  51.368
O  34.358  68.923  47.549
O  59.875  30.199  50.445
O  71.290  37.452  37.531
O  27.549  61.067  39.949
O  62.121  51.146  64.440
O  56.459  34.344  65.332
O  72.101  41.345  54.275
O  49.294  47.048  75.030
O  34.960  33.135  48.541
O  42.223  54.536  44.008
O  58.037  44.139  30.801
O  64.746  27.011  44.367
O  44.398  45.631  53.429
O  58.795  74.966  46.824
O  40.312  45.509  73.812
O  33.928  61.086  39.942
O  44.194  43.282  51.617
O  39.561  67.053  60.611
O  32.004  66.246  53.557
O  72.218  34.243  46.265
O  38.136  59.064  34.306
O  65.177  50.922  64.635
O  37.601  57.769  47.778
O  56.577  56.920  43.583
O  51.225  35.825  67.737
O  51.413  57.485  64.070
O  50.045  28.481  36.461
O  63.859  72.580  47.397
O  25.152  40.301  43.940
O  47.215  56.620  41.670
O  64.935  61.006  48.016
O  47.063  35.303  67.208
O  56.516  78.108  49.275
O  56.369  60.890  67.042
O  56.172  43.520  44.735
O  42.866  61.753  70.945
O  45.180  39.464  63.869
O  62.390  54.150  35.856
O  26.206  57.782  38.654
O  71.082  44.948  37.649
O  70.847  54.945  53.380
O  42.244  69.757  41.151
O  61.347  62.151  36.093
O  58.823  38.422  72.480
O  59.010  62.500  67.020
O  47.482  36.747  59.558
O  54.221  41.125  66.816
O  26.936  62.480  61.422
O  52.461  74.751  39.625
O  65.257  69.270  57.308
O  54.940  33.062  61.159
O  69.650  62.779  63.613
O  62.634  51.376  27.563
O  49.538  40.640  61.556
O  59.320  44.713  73.407
O  62.574  29.550  47.645
O  49.561  51.283  60.739
O  24.125  55.245  48.113
O  41.336  69.526  37.583
O  62.748  30.322  50.320
O  38.578  59.706  72.679
O  64.660  43.298  35.915
O  42.142  51.290  40.451
O  39.680  52.753  74.716
O  31.356  69.180  62.185
O  61.202  32.972  60.630
O  31.254  54.898  60.572
O  41.682  28.636  54.370
O  31.510  57.617  43.234
O  63.845  63.773  69.811
O  26.616  37.895  44.610
O  34.215  48.483  29.029
O  63.785  34.779  36.049
O  29.109  52.306  50.853
O  64.275  36.388  32.442
O  27.313  58.911  65.493
O  36.036  57.734  32.640
O  59.730  30.295  42.343
O  48.287  62.864  58.304
O  41.541  71.603  43.461
O  28.628  49.443  37.810
O  42.717  60.643  26.098
O  68.025  51.258  64.152
O  51.820  63.920  35.167
O  28.210  40.666  50.204
O  56.824  33.097  41.090
O  37.687  30.459  58.700
O  46.331  59.090  39.026
O  29.941  63.316  44.180
O  65.478  68.820  49.182
O  66.568  53.984  37.579
O  56.904  63.499  39.416
O  44.183  40.703  40.057
O  40.825  47.412  64.580
O  47.940  65.706  58.565
O  41.807  35.522  61.227
O  28.940  44.517  46.765
O  68.157  40.301  60.484
O  43.328  56.579  69.637
O  32.539  41.413  51.105
O  71.532  66.044  52.186
O  51.638  47.139  32.969
O  45.575  23.954  53.881
O  64.718  30.520  45.282
O  26.683  58.193  35.809
O  41.921  46.167  57.666
O  45.420  42.310  76.042
O  61.963  37.388  62.952
O  62.100  57.670  71.575
O  59.496  46.597  58.254
O  51.590  71.733  57.070
O  48.341  23.745  48.581
O  65.687  62.198  45.508
O  29.488  47.675  32.767
O  25.461  59.375  41.053
O  73.041  59.906  61.171
O  71.637  34.545  49.031
O  43.971  78.796  50.228
O  48.461  25.491  44.672
O  28.264  64.437  59.822
O  44.455  45.031  24.123
O  62.182  66.951  48.175
O  65.018  64.875  42.136
O  28.523  59.989  60.772
O  43.452  38.652  59.865
O  46.566  75.991  40.825
O  28.607  56.274  56.397
O  47.804  56.346  61.648
O  47.495  49.137  55.062
O  58.194  58.616  67.291
O  63.069  60.740  60.105
O  51.764  51.263  55.922
O  49.926  46.535  45.779
O  54.126  48.486  45.226
O  53.716  52.192  51.630
O  49.340  49.776  45.667
O  49.622  53.644  53.691
O  48.745  51.071  51.050
O  30.180  44.900  36.913
O  65.320  46.629  28.850
O  27.353  44.267  51.930
O  27.575  58.540  57.634
O  51.018  49.892  48.695
O  35.579  51.737  34.786
O  55.767  44.404  61.563
O  60.162  60.269  68.621
O  55.191  33.273  58.322
O  44.750  56.004  76.049
O  48.704  46.028  63.847
O  42.321  34.935  42.161
O  47.822  65.102  52.526
O  43.660  77.150  59.093
O  60.300  52.953  73.588
O  27.827  65.997  49.105
O  38.819  46.633  41.856
O  55.583  44.028  27.738
O  37.275  34.630  47.448
O  26.547  45.878  47.409
O  46.777  51.915  32.128
O  35.920  50.562  49.656
O  42.264  28.213  47.825
O  65.645  32.935  54.962
O  48.203  76.359  48.534
O  56.416  42.545  47.921
O  61.356  31.414  45.695
O  63.840  65.670  61.182
O  34.551  47.981  32.575
O  59.040  74.942  52.199
O  56.317  30.197  63.346
O  68.386  61.557  46.128
O  48.052  42.710  69.913
O  53.544  73.485  37.179
O  62.142  55.351  69.921
O  75.575  52.980  40.828
O  58.088  27.840  42.276
O  48.353  69.396  50.007
O  48.422  63.055  68.744
O  35.795  59.926  56.003
O  60.654  51.047  47.622
O  62.436  59.405  42.655
O  76.657  47.906  42.740
O  44.117  44.564  58.690
O  52.172  30.104  49.941
O  60.896  67.932  32.273
O  52.922  51.747  31.541
O  49.904  63.658  39.559
O  54.597  59.411  40.847
O  41.735  25.630  46.796
O  46.299  51.220  60.563
O  52.061  32.662  60.374
O  48.620  37.900  24.949
O  57.666  47.266  37.305
O  46.707  49.057  70.643
O  33.588  50.011  37.666
O  26.969  34.408  40.299
O  66.951  30.378  40.956
O  42.948  67.859  31.485
O  65.334  56.690  32.265
O  51.281  59.121  31.208
O  62.639  51.524  72.847
O  55.755  56.316  58.511
O  72.094  59.925  49.223
O  51.048  73.783  41.970
O  67.010  50.137  32.487
O  65.953  64.838  46.688
O  73.791  45.103  43.141
O  44.429  32.677  68.274
O  32.766  50.961  34.903
O  42.489  48.661  58.993
O  57.657  50.836  43.508
O  61.530  46.661  46.378
O  57.112  36.464  54.354
O  49.350  63.370  49.365
O  38.438  48.094  28.014
O  50.338  64.208  28.824
O  38.009  31.597  34.511
O  67.396  60.096  56.386
O  38.643  66.801  40.580
O  67.477  33.003  44.117
O  74.613  43.500  45.216
O  66.432  35.147  60.361
O  55.979  39.685  48.287
O  61.439  41.520  52.693
O  41.838  52.855  33.868
O  63.175  56.734  26.624
O  69.757  69.757  41.891
O  68.705  63.899  50.565
O  47.927  48.042  24.719
O  46.069  78.383  52.247
O  38.918  49.404  56.197
O  34.429  36.933  42.955
O  54.455  67.603  60.017
O  52.705  45.191  70.170
O  59.985  52.427  42.607
O  60.152  31.066  39.551
O  48.913  78.072  51.525
O  43.988  69.804  36.371
O  34.352  44.861  47.717
O  43.466  46.135  62.376
O  37.893  45.107  44.180
O  68.954  69.342  59.035
O  61.434  40.563  58.443
O  49.460  26.246  47.487
O  53.857  72.887  34.247
O  68.621  64.038  57.829
O  60.071  42.734  59.868
O  72.875  60.261  46.411
O  58.954  52.889  39.962
O  44.938  55.562  40.030
O  53.422  61.297  38.771
O  58.394  49.932  49.440
O  39.867  43.738  32.853
O  34.818  65.850  53.124
O  58.825  48.780  75.123
O  44.742  35.634  64.614
O  57.304  60.654  62.080
O  36.345  49.456  36.722
O  38.145  53.542  66.565
O  45.276  75.727  53.216
O  49.094  61.610  42.051
O  31.739  58.769  55.581
O  23.861  48.516  44.615
O  47.181  67.910  52.138
O  25.942  53.681  49.916
O  55.559  36.386  60.839
O  33.633  35.862  38.779
O  43.996  34.001  31.696
O  47.135  64.232  47.323
O  35.357  40.928  62.486
O  55.417  59.562  43.448
O  52.492  66.430  38.085
O  55.043  31.368  37.746
O  48.673  51.165  74.349
O  45.955  34.486  39.572
O  57.365  55.022  53.146
O  27.310  41.765  55.948
O  56.565  72.778  36.286
O  45.933  55.770  64.199
O  49.350  59.427  68.264
O  63.700  56.024  49.886
O  45.338  34.810  56.379
O  62.595  38.113  65.701
O  29.401  45.531  40.961
O  56.442  26.792  50.284
O  31.332  34.464  55.694
O  52.939  48.097  57.399
O  37.581  44.541  47.003
O  53.942  38.661  59.756
O  32.653  35.665  64.740
O  47.086  57.323  44.525
O  42.513  40.087  29.070
O  63.256  67.358  42.312
O  66.817  46.957  66.106
O  57.556  46.838  43.212
O  39.638  43.684  54.530
O  55.366  69.173  57.010
O  32.224  53.268  42.204
O  47.546  35.897  36.256
O  50.932  61.933  58.105
O  37.188  29.798  39.940
O  35.322  58.165  28.951
O  59.169  52.901  49.099
O  64.596  35.997  47.842
O  37.131  47.712  50.550
O  38.343  59.385  42.359
O  55.652  47.437  58.425
O  67.106  59.089  47.529
O  45.515  33.168  65.706
O  54.733  31.151  31.136
O  45.192  26.041  41.862
O  39.315  46.036  52.720
O  64.995  50.598  71.329
O  42.220  28.578  32.284
O  65.192  29.122  51.463
O  28.330  46.577  38.395
O  50.934  68.820  59.336
O  36.340  61.783  67.871
O  35.436  37.219  56.037
O  41.828  63.554  67.964
O  58.547  40.915  26.048
O  50.331  28.108  57.390
O  50.088  65.872  36.759
O  33.661  70.740  54.375
O  46.596  58.223  32.549
O  24.935  44.204  42.945
O  47.721  38.755  57.441
O  59.630  59.020  47.800
O  64.706  53.782  69.000
O  46.503  41.242  61.942
O  70.824  58.978  36.989
O  47.781  44.307  27.200
O  49.543  49.519  70.311
O  46.026  38.113  42.862
O  63.143  31.437  34.595
O  71.857  51.590  33.465
O  28.226  62.173  54.555
O  25.722  66.183  51.096
O  26.751  67.462  53.451
O  69.110  41.341  53.158
O  58.006  47.071  67.313
O  29.072  62.211  36.322
O  57.753  51.189  30.828
O  49.416  44.634  33.120
O  53.557  46.810  35.001
O  59.170  32.774  51.343
O  41.709  46.085  71.310
O  72.596  52.888  49.494
O  53.937  24.825  49.578
O  63.706  39.613  31.680
O  63.850  62.448  43.286
O  40.388  48.892  62.219
O  41.523  52.750  27.030
O  37.987  40.929  27.753
O  35.788  61.007  34.748
O  63.358  58.735  65.078
O  46.714  47.936  49.184
O  32.262  56.119  31.025
O  50.827  31.872  27.975
O  39.580  45.775  29.553
O  38.854  49.256  66.880
O  71.839  64.848  40.847
O  71.302  39.728  63.400
O  71.288  39.159  57.527
O  31.370  47.071  47.896
O  37.647  49.645  61.553
O  58.505  33.162  68.118
O  46.742  51.561  38.849
O  57.050  30.517  43.802
O  55.149  33.840  50.054
O  46.125  46.511  72.234
O  67.910  57.922  54.119
O  71.517  57.026  48.920
O  40.347  51.991  61.995
O  38.226  59.664  37.365
O  32.182  48.373  67.471
O  32.576  31.264  45.573
O  38.569  73.229  49.117
O  46.232  71.090  49.053
O  58.244  64.986  58.118
O  45.395  43.746  61.095
O  52.419  67.115  64.902
O  36.495  71.099  39.734
O  54.188  59.410  71.180
O  36.040  32.624  57.183
O  64.874  47.266  35.127
O  57.148  36.749  66.503
O  60.471  73.269  43.279
O  47.540  48.701  73.466
O  45.736  58.343  65.940
O  53.122  39.588  48.529
O  26.019  36.909  58.781
O  34.889  45.138  31.327
O  55.312  41.048  64.044
O  38.284  43.889  27.909
O  49.678  65.095  33.541
O  43.529  60.354  62.431
O  53.341  37.278  46.647
O  30.518  69.850  48.227
O  63.037  48.365  24.767
O  45.983  65.984  62.456
O  34.786  42.659  41.894
O  47.774  63.837  63.394
O  62.064  51.811  54.319
O  38.013  35.935  39.105
O  45.666  67.164  32.395
O  44.345  53.446  64.576
O  64.339  52.062  52.511
O  57.220  44.788  55.194
O  72.619  64.988  43.629
O  46.367  51.317  21.663
O  53.492  35.579  39.672
O  54.874  30.328  60.633
O  60.295  33.901  30.329
O  57.093  44.992  58.135
O  51.541  26.203  62.754
O  39.171  55.543  39.676
O  47.306  39.921  28.420
O  43.261  65.790  43.619
O  49.739  75.638  60.958
O  49.618  47.261  22.490
O  46.780  51.670  27.804
O  57.343  68.056  50.349
O  41.026  55.999  55.972
O  70.094  59.872  62.883
O  27.656  51.778  56.278
O  40.637  28.694  61.621
O  30.860  61.042  54.012
O  52.364  43.189  61.088
O  53.109  32.597  63.472
O  41.414  51.633  43.341
O  62.615  45.964  70.762
O  51.707  26.680  34.936
O  40.364  68.029  66.419
O  36.400  33.812  33.570
O  44.781  51.480  72.320
O  62.218  50.724  50.806
O  39.977  41.180  34.346
O  42.012  52.286  65.524
O  56.749  61.228  45.389
O  45.646  28.807  64.757
O  64.991  50.804  42.651
O  34.251  51.920  56.762
O  58.631  22.874  52.306
O  57.972  61.337  48.028
O  42.739  66.077  29.267
O  61.396  60.068  32.985
O  40.257  45.152  47.921
O  31.692  45.426  45.122
O  60.550  44.661  27.718
O  60.470  44.412  40.739
O  30.366  40.967  34.378
O  41.870  54.865  53.415
O  46.878  30.788  66.755
O  68.011  61.366  42.918
O  52.456  38.419  66.727
O  30.822  39.732  39.385
O  42.027  63.063  33.795
O  50.121  77.766  54.207
O  63.212  62.016  56.491
O  65.278  47.317  46.252
O  34.451  41.378  65.201
O  44.833  36.591  47.171
O  28.175  58.210  51.414
O  51.424  71.973  47.390
O  27.098  48.831  34.028
O  31.748  38.258  47.247
O  39.105  69.894  54.905
O  69.720  42.533  50.555
O  47.736  30.995  44.619
O  64.771  40.495  34.169
O  69.238  38.669  50.144
O  62.182  36.600  34.499
O  62.496  47.453  68.147
O  42.218  60.978  43.878
O  53.781  68.908  31.550
O  59.502  32.853  55.096
O  51.405  60.802  26.770
O  58.406  40.195  60.067
O  41.757  33.462  38.942
O  56.478  37.071  69.403
O  72.424  57.409  53.753
O  51.249  54.607  73.973
O  60.121  72.599  40.452
O  56.145  23.830  58.548
O  62.988  50.580  34.270
O  42.044  31.496  51.404
O  37.407  51.061  52.185
O  49.321  42.447  28.870
O  49.752  69.642  44.971
O  66.053  57.339  45.367
O  45.537  51.828  69.259
O  41.437  30.191  64.013
O  56.330  57.661  71.858
O  43.267  52.428  56.771
O  53.286  29.729  63.358
O  34.936  65.347  37.732
O  53.287  51.640  70.610
O  33.035  40.466  69.572
O  30.223  62.001  64.164
O  30.259  52.278  61.526
O  45.793  62.286  61.791
O  74.851  48.383  49.104
O  49.489  58.802  38.235
O  42.452  55.463  63.782
O  52.357  64.501  52.744
O  55.996  43.970  50.840
O  48.282  21.498  50.496
O  46.306  53.310  25.210
O  67.806  40.089  46.222
O  39.030  63.987  70.647
O  28.557  57.070  40.132
O  44.541  67.970  42.029
O  28.061  38.182  38.246
O  44.181  26.219  35.508
O  40.698  61.064  69.118
O  62.368  36.976  52.221
O  70.463  53.955  50.820
O  31.161  46.759  30.389
O  61.360  70.529  42.583
O  63.308  44.945  40.235
O  68.287  53.637  53.236
O  57.360  31.382  59.527
O  58.394  56.805  59.570
O  47.770  62.977  54.563
O  54.428  62.046  72.557
O  62.246  60.086  47.474
O  47.153  64.210  39.017
O  57.953  26.495  45.047
O  55.021  26.181  52.762
O  39.885  47.423  49.696
O  46.891  41.332  56.308
O  29.492  56.672  53.674
O  63.642  35.797  44.016
O  42.456  31.562  59.770
O  42.513  40.461  33.393
O  46.798  36.996  32.381
O  58.746  50.033  39.931
O  39.935  63.653  25.285
O  58.787  65.550  50.199
O  36.540  62.730  50.427
O  67.254  58.258  61.749
O  62.633  30.772  61.970
O  28.470  35.474  46.792
O  51.006  44.703  22.417
O  54.434  25.980  62.923
O  51.855  49.325  35.711
O  46.388  40.343  33.012
O  41.733  71.883  57.705
O  44.816  37.518  73.346
O  26.016  37.123  40.501
O  57.511  53.970  24.155
O  59.443  46.542  64.468
O  65.814  50.090  45.487
O  67.650  40.699  49.044
O  50.721  57.073  61.282
O  34.578  44.398  55.688
O  69.514  32.093  58.098
O  46.053  45.913  40.864
O  46.373  66.698  40.258
O  38.577  53.417  58.061
O  48.078  44.890  76.424
O  31.290  49.911  42.280
O  60.707  59.657  45.094
O  26.251  55.291  41.032
O  35.944  29.385  55.184
O  48.966  30.355  58.882
O  49.511  35.434  65.520
O  48.856  51.582  25.839
O  75.000  51.426  55.486
O  56.130  41.068  50.942
O  57.370  34.078  53.167
O  66.841  63.352  64.451
O  33.106  38.672  54.479
O  31.473  42.917  55.797
O  45.374  32.430  62.823
O  70.486  49.510  62.701
O  58.321  68.547  31.316
O  34.860  73.403  54.770
O  41.764  67.957  35.096
O  66.952  47.147  48.542
O  47.852  62.865  71.642
O  35.092  55.690  30.620
O  60.031  64.794  68.462
O  69.197  42.529  70.178
O  34.260  47.684  47.319
O  73.033  36.309  44.244
O  61.673  56.335  47.601
O  41.489  52.468  47.908
O  64.354  41.224  39.461
O  75.055  38.394  42.299
O  50.050  36.081  34.012
O  60.814  44.845  24.869
O  74.690  39.458  52.978
O  70.695  42.462  47.067
O  69.227  62.931  39.613
O  48.628  75.255  54.303
O  47.734  54.430  78.442
O  64.975  39.137  56.259
O  71.801  54.504  37.518
O  38.723  54.437  42.203
O  45.150  28.430  47.467
O  63.609  42.425  53.776
O  54.343  38.975  51.215
O  60.850  39.408  46.444
O  28.000  38.717  62.745
O  33.416  45.620  28.661
O  57.314  38.961  31.263
O  40.105  33.571  54.505
O  56.405  54.240  44.317
O  48.207  53.784  37.669
O  61.296  65.311  30.949
O  41.722  42.209  39.877
O  31.296  54.876  28.629
O  42.691  43.018  66.297
O  70.817  51.937  38.465
O  41.318  46.617  36.509
O  41.148  75.608  56.573
O  54.146  54.612  42.204
O  44.866  43.134  32.607
O  33.483  61.312  51.553
O  39.741  57.170  46.001
O  38.525  55.179  62.845
O  67.131  41.404  57.999
O  63.426  36.918  29.020
O  30.125  47.625  60.907
O  37.249  47.490  47.509
O  52.017  36.432  36.121
O  37.063  65.769  33.393
O  72.523  52.528  52.469
O  40.248  67.896  45.776
O  45.681  37.737  55.658
O  33.203  27.038  42.262
O  39.753  37.935  33.777
O  54.889  39.827  43.301
O  48.954  44.954  55.864
O  67.047  37.679  48.439
O  44.486  38.013  66.276
O  40.492  50.126  27.406
O  54.637  58.404  56.041
O  36.047  47.925  42.404
O  38.246  47.927  34.678
O  71.191  57.888  43.739
O  49.899  66.207  30.820
O  59.009  32.309  62.345
O  59.183  55.047  43.655
O  73.040  47.254  36.835
O  24.820  58.172  58.567
O  45.783  52.078  36.076
O  40.260  63.052  36.799
O  31.898  49.583  30.674
O  31.456  66.514  61.181
O  47.707  28.487  51.169
O  54.751  35.426  37.032
O  43.241  53.332  70.572
O  29.638  46.055  51.424
O  32.779  64.295  62.713
O  70.227  43.380  33.953
O  55.949  63.267  58.640
O  42.831  34.331  55.019
O  72.622  66.187  54.940
O  57.267  68.644  45.834
O  54.770  58.602  67.772
O  48.436  39.476  73.561
O  60.323  56.974  41.825
O  59.769  58.069  56.313
O  36.541  48.259  57.488
O  53.860  54.924  37.341
O  69.925  54.614  30.869
O  40.044  41.311  49.143
O  38.680  38.090  36.411
O  41.492  50.270  67.476
O  37.296  38.662  63.286
O  59.276  44.993  38.303
O  62.340  60.767  53.866
O  69.551  46.303  35.546
O  48.991  51.320  77.984
O  40.561  45.931  61.894
O  41.606  37.619  69.121
O  43.685  61.029  32.802
O  47.318  55.241  70.685
O  67.734  67.530  57.053
O  36.141  35.452  58.199
O  71.368  55.813  64.465
O  36.443  67.564  42.384
O  29.852  50.315  54.982
O  49.590  34.498  58.187
O  43.958  63.282  63.957
O  67.120  71.570  59.724
O  56.859  66.983  67.023
O  72.121  47.537  49.248
O  62.501  41.685  45.093
O  33.212  39.173  49.538
O  55.841  42.850  23.533
O  47.543  70.005  69.741
O  46.519  23.245  46.351
O  49.671  68.523  38.257
O  60.157  52.242  28.800
O  43.452  55.867  48.535
O  63.615  25.787  49.465
O  65.829  47.888  42.640
O  70.504  38.788  46.060
O  51.163  27.390  44.329
O  33.288  48.488  41.292
O  40.859  39.268  60.827
O  46.211  70.404  42.047
O  64.503  48.763  32.526
O  49.961  32.069  39.617
O  44.116  51.149  48.158
O  64.376  60.441  39.044
O  54.892  71.971  42.673
O  41.771  45.632  54.825
O  58.041  72.547  58.827
O  37.993  72.303  60.135
O  42.224  48.167  23.433
O  37.606  68.643  45.473
O  71.835  37.579  54.487
O  49.040  28.703  45.962
O  61.368  48.633  48.982
O  54.097  29.153  54.232
O  33.600  57.579  36.137
O  72.008  42.011  40.310
O  37.483  40.484  35.428
O  62.596  56.495  40.072
O  51.447  42.666  70.391
O  51.305  44.531  26.881
O  66.507  43.531  43.352
O  64.609  54.070  33.341
O  39.717  61.327  33.359
O  45.552  64.594  59.939
O  63.948  63.560  39.765
O  64.491  30.666  59.728
O  47.628  51.794  71.322
O  59.673  41.235  72.732
O  43.723  68.554  39.150
O  39.920  28.578  43.175
O  38.169  70.116  47.949
O  64.274  67.492  39.565
O  30.682  39.461  43.591
O  54.790  56.412  73.907
O  27.005  36.961  56.000
O  33.458  60.844  67.568
O  38.962  49.811  72.207
O  40.033  70.252  61.100
O  61.533  41.965  55.819
O  64.066  44.962  42.986
O  63.020  26.887  46.705
O  52.913  35.299  61.455
O  57.045  33.884  56.253
O  55.704  54.015  68.698
O  49.923  60.916  71.865
O  42.127  35.978  50.252
O  32.709  59.006  38.413
O  55.430  51.236  73.220
O  38.392  58.615  56.192
O  34.569  31.636  59.508
O  35.052  57.309  46.815
O  39.071  36.675  64.753
O  51.761  22.144  56.260
O  45.890  64.492  69.982
O  47.532  51.301  67.359
O  44.240  69.200  49.702
O  40.202  35.252  58.732
O  50.658  25.494  58.839
O  44.182  31.785  38.850
O  50.569  38.908  57.128
O  23.111  61.475  51.720
O  70.221  66.303  49.596
O  68.246  37.840  44.051
O  26.418  56.832  63.717
O  36.406  40.605  67.191
O  48.730  41.559  23.626
O  67.027  39.846  38.945
O  46.563  67.839  64.533
O  51.095  59.384  56.824
O  62.357  61.380  40.693
O  67.606  47.556  68.808
O  63.096  62.861  47.269
O  65.827  37.196  34.848
O  38.002  29.839  37.121
O  38.342  39.095  49.887
O  62.067  32.802  51.530
O  60.989  72.848  53.303
O  47.698  60.709  36.688
O  52.499  62.736  62.546
O  41.410  70.259  46.931
O  50.802  72.303  37.075
O  65.967  42.105  61.386
O  36.058  64.227  61.433
O  66.511  52.779  31.566
O  52.716  43.319  63.943
O  52.520  27.351  41.708
O  65.007  53.307  55.471
O  32.589  36.992  56.624
O  67.077  44.743  62.024
O  65.423  41.844  45.519
O  48.283  66.297  48.948
O  64.793  54.189  48.354
O  57.779  60.253  53.300
O  49.624  51.319  37.078
O  41.331  54.449  61.162
O  59.024  42.679  54.233
O  28.108  58.114  48.404
O  65.051  52.800  44.992
O  25.178  47.579  39.276
O  44.626  52.653  40.453
O  36.059  41.521  33.118
O  31.821  52.483  37.259
O  50.934  25.144  53.746
O  54.488  41.342  53.289
O  72.639  39.514  43.990
O  68.698  51.246  46.089
O  62.736  27.495  51.609
O  27.472  51.980  53.186
O  61.265  45.058  49.051
O  37.983  43.490  36.941
O  65.148  61.994  66.345
O  75.957  40.868  44.331
O  43.848  72.018  64.129
O  58.495  75.993  49.484
O  45.450  62.663  52.750
O  37.241  33.722  44.187
O  69.696  46.555  47.845
O  57.109  60.308  39.722
O  34.784  36.385  53.314
O  52.903  24.584  42.937
O  62.850  42.987  58.259
O  65.329  41.306  70.644
O  36.021  52.249  37.785
O  61.521  48.445  57.140
O  46.690  45.660  57.634
O  39.882  60.725  54.339
O  55.212  27.339  42.733
O  51.738  36.675  55.546
O  41.090  65.463  56.669
O  56.023  33.679  32.125
O  31.958  39.099  32.705
O  54.333  28.819  51.446
O  56.431  28.510  58.894
O  44.030  66.921  70.908
O  46.563  44.511  37.351
O  26.594  63.897  46.342
O  58.997  22.980  49.315
O  36.037  67.218  35.900
O  38.966  70.768  57.655
O  25.907  49.021  36.834
O  37.685  37.952  72.443
O  25.318  60.301  46.219
O  46.807  64.958  34.001
O  70.031  53.788  59.355
O  38.844  63.219  67.593
O  41.038  48.216  73.389
O  60.497  45.782  67.071
O  62.874  30.956  53.642
O  26.452  47.446  64.759
O  34.124  69.506  38.842
O  53.896  27.551  33.133
O  73.811  54.642  39.738
O  32.688  29.514  53.848
O  67.424  29.108  56.452
O  43.646  46.041  68.841
O  68.686  44.541  41.634
O  50.248  71.336  62.962
O  39.927  36.134  73.159
O  62.723  61.691  28.909
O  63.971  56.444  67.865
O  74.174  62.012  49.027
O  71.597  46.673  41.863
O  46.519  54.454  59.571
O  36.461  59.580  59.352
O  53.213  38.133  31.049
O  56.177  57.871  28.571
O  42.178  44.936  31.404
O  57.502  68.134  61.140
O  39.068  32.704  48.962
O  57.020  65.484  55.485
O  65.655  61.093  41.481
O  68.878  32.989  53.449
O  33.227  53.043  53.588
O  44.211  60.637  59.627
O  65.694  35.949  37.853
O  47.104  62.130  44.671
O  30.894  45.763  55.322
O  69.503  68.278  44.380
O  56.241  65.863  69.608
O  45.417  66.178  54.889
O  57.900  41.013  62.721
O  54.542  27.139  56.259
O  48.321  57.075  66.815
O  62.854  47.936  72.859
O  78.456  45.878  45.884
O  69.053  38.201  68.292
O  58.837  58.714  70.768
O  57.344  61.905  72.340
O  24.738  60.984  43.433
O  43.217  62.722  37.387
O  56.366  40.768  45.622
O  72.148  52.983  63.834
O  43.518  58.634  49.060
O  47.135  65.244  30.884
O  68.846  45.910  57.428
O  35.826  40.368  49.871
O  41.581  59.120  66.977
O  59.761  46.094  69.808
O  31.081  43.847  28.756
O  41.863  37.990  26.071
O  56.754  28.388  53.604
O  43.370  74.310  51.368
O  29.723  42.194  40.154
O  36.963  67.455  48.344
O  56.281  68.626  42.476
O  70.859  59.795  54.031
O  52.156  37.103  28.382
O  58.695  54.343  76.182
O  25.217  58.031  48.281
O  33.138  57.013  48.991
O  36.326  31.669  41.974
O  32.785  66.686  46.616
O  53.531  68.949  43.170
O  36.870  27.935  57.453
O  37.804  50.331  26.216
O  64.588  68.912  53.909
O  36.380  54.665  32.810
O  56.705  64.233  48.631
O  31.709  34.909  40.917
O  59.604  66.230  64.277
O  37.941  63.794  63.659
O  49.008  49.748  39.376
O  66.556  65.111  62.181
O  47.890  75.329  43.259
O  68.740  49.177  30.388
O  53.952  65.607  54.949
O  60.130  57.563  27.695
O  43.479  64.782  39.631
O  47.137  61.268  47.655
O  36.102  57.355  64.530
O  65.666  61.618  59.132
O  35.613  54.495  35.810
O  55.819  50.340  70.490
O  48.201  61.084  60.577
O  55.306  70.997  45.506
O  40.910  44.029  37.764
O  43.010  66.382  68.171
O  42.315  34.988  29.492
O  62.273  38.468  39.020
O  44.115  54.973  58.091
O  62.958  60.372  71.389
O  27.498  56.111  43.489
O  68.163  46.410  29.693
O  59.216  45.518  61.028
O  54.058  32.135  52.323
O  51.342  53.629  69.954
O  57.199  52.865  28.260
O  50.331  27.832  49.964
O  58.416  73.214  63.111
O  62.865  59.159  68.123
O  60.626  27.323  59.887
O  60.595  25.501  45.710
O  41.403  55.808  32.993
O  52.043  37.918  39.036
O  69.078  44.867  68.497
O  45.852  76.369  45.179
O  54.966  41.338  28.898
O  62.854  52.689  46.849
O  34.557  58.771  42.315
O  40.138  47.574  46.429
O  35.980  27.016  50.992
O  41.152  50.270  46.060
O  31.157  51.197  52.534
O  52.597  29.440  47.094
O  48.819  38.631  43.606
O  35.119  42.154  59.629
O  31.810  60.343  30.851
O  69.814  42.290  59.406
O  48.314  61.377  39.352
O  58.779  66.465  53.472
O  50.637  36.847  31.321
O  35.488  43.734  27.071
O  54.004  64.756  49.667
O  29.081  42.568  54.029
O  40.526  55.198  47.973
O  27.222  39.456  59.949
O  51.059  21.056  51.450
O  46.760  71.806  56.507
O  37.902  34.706  50.480
O  36.728  48.099  30.581
O  50.748  53.735  25.247
O  51.811  60.497  41.111
O  50.090  22.370  53.875
O  58.341  59.646  27.711
O  43.027  48.411  65.859
O  33.664  59.310  33.705
O  41.087  25.930  53.751
O  66.117  44.572  54.308
O  24.544  54.155  62.128
O  71.910  43.843  55.630
O  54.132  65.510  36.084
O  51.372  51.339  23.479
O  46.483  63.768  50.178
O  61.122  67.536  66.372
O  33.760  67.495  59.668
O  34.777  47.859  55.286
O  45.954  44.205  78.263
O  34.726  27.114  48.427
O  50.013  28.583  62.339
O  52.656  55.811  24.167
O  53.995  41.319  25.165
O  36.819  37.938  68.507
O  43.022  39.525  53.714
O  71.419  48.870  66.339
O  51.713  46.650  63.629
O  57.434  71.429  67.204
O  60.227  35.548  68.603
O  59.571  70.987  37.984
O  59.041  51.319  58.733
O  33.339  46.333  43.121
O  40.277  72.260  53.868
O  59.221  60.191  31.103
O  35.574  46.392  45.249
O  26.805  45.124  39.801
O  53.871  61.002  29.387
O  29.176  50.813  34.628
O  23.583  54.330  45.243
O  33.612  42.430  53.911
O  55.724  40.922  36.821
O  59.328  31.273  47.791
O  67.476  43.976  59.193
O  30.116  55.013  42.940
O  73.659  42.485  49.764
O  48.277  34.828  55.666
O  58.320  49.444  54.384
O  57.821  71.882  56.054
O  29.423  50.321  67.558
O  31.469  55.265  47.207
O  42.404  66.542  60.372
O  31.162  49.075  39.331
O  48.372  59.633  45.509
O  58.287  44.886  49.355
O  61.884  50.672  59.155
O  38.880  63.099  48.862
O  65.584  51.470  27.963
O  55.917  31.359  54.606
O  59.213  50.180  25.660
O  42.458  67.257  51.033
O  75.272  42.126  51.981
O  30.021  39.054  36.424
O  39.776  56.933  43.142
O  72.778  56.358  61.577
O  35.868  70.821  58.625
O  62.556  59.223  30.486
O  34.200  33.739  35.417
O  61.779  62.833  58.772
O  65.364  32.597  42.098
O  41.887  50.741  31.284
O  61.825  67.225  62.593
O  26.977  43.967  61.534
O  32.676  53.616  45.058
O  36.443  53.385  71.545
O  34.471  61.731  48.781
O  57.110  31.939  34.028
O  46.591  28.665  54.675
O  32.160  48.255  34.166
O  51.962  67.691  35.445
O  39.801  28.055  49.242
O  58.821  51.232  33.511
O  32.143  64.790  43.042
O  43.025  57.301  52.327
O  69.004  40.080  34.879
O  63.662  54.865  53.307
O  29.099  42.482  30.460
O  62.497  49.639  70.310
O  49.999  59.599  33.710
O  46.003  29.160  38.292
O  51.572  40.120  37.440
O  40.873  41.242  55.315
O  41.112  64.031  59.410
O  47.361  28.226  60.393
O  52.015  30.092  55.855
O  62.230  56.565  29.412
O  61.495  64.862  39.030
O  41.049  33.517  47.114
O  60.273  39.014  52.125
O  60.617  55.719  25.485
O  61.401  62.774  49.536
O  34.397  56.540  44.154
O  43.619  42.287  54.303
O  35.246  42.558  46.691
O  63.295  49.086  62.674
O  54.395  70.677  61.468
O  59.746  51.198  52.311
O  43.905  29.914  62.679
O  66.151  44.555  46.811
O  45.944  48.827  31.813
O  41.670  59.239  46.097
O  39.872  51.232  53.998
O  28.673  61.450  48.915
O  43.516  25.296  44.605
O  38.497  46.363  32.243
O  50.978  42.217  52.741
O  53.658  48.459  38.639
O  32.253  36.713  67.481
O  68.141  56.954  35.943
O  43.100  29.434  37.506
O  42.143  35.992  32.698
O  56.080  66.051  38.259
O  51.723  41.771  23.208
O  38.797  70.753  35.281
O  73.946  38.441  37.170
O  40.082  65.411  28.337
O  30.391  63.862  50.190
O  24.938  52.089  57.462
O  57.724  71.054  32.717
O  61.320  58.420  63.375
O  62.868  28.512  55.643
O  42.348  27.485  57.067
O  47.069  54.024  66.202
O  41.502  56.202  58.805
O  67.320  47.431  59.294
O  62.135  70.356  36.779
O  41.674  72.974  46.087
O  48.039  60.902  28.793
O  54.955  59.143  61.917
O  44.247  25.764  39.211
O  68.564  56.948  40.414
O  34.517  44.470  71.028
O  57.984  51.510  74.373
O  48.736  72.362  41.086
O  39.144  45.314  35.108
O  42.971  61.219  40.668
O  39.521  66.653  43.282
O  61.605  48.513  65.285
O  32.468  45.549  35.296
O  49.992  34.446  37.014
O  61.596  74.450  47.668
O  52.808  60.677  67.115
O  43.816  74.903  38.386
O  63.784  58.734  44.992
O  67.451  35.151  54.655
O  65.190  51.713  61.806
O  40.891  44.100  68.137
O  40.245  42.644  51.786
O  56.975  64.966  43.166
O  52.302  35.239  64.309
O  50.528  51.589  72.119
O  28.281  59.271  54.912
O  34.249  49.630  51.893
O  29.711  43.187  61.982
O  49.075  34.379  69.010
O  31.812  64.319  35.904
O  53.046  58.438  44.729
O  37.935  56.769  29.416
O  36.118  49.920  66.860
O  70.824  51.884  57.416
O  38.593  52.938  27.104
O  55.872  39.651  68.435
O  45.120  31.181  43.495
O  64.664  65.092  35.937
O  45.483  54.771  37.325
O  70.861  50.268  59.985
O  60.276  42.772  62.775
O  56.134  27.548  37.960
O  41.329  66.900  39.245
O  58.688  54.701  61.389
O  63.026  36.231  60.268
O  44.941  27.853  44.578
O  65.535  57.081  28.364
O  40.746  32.348  33.267
O  45.124  58.603  46.144
O  48.918  59.338  26.484
O  56.532  47.399  73.731
O  67.685  60.525  33.546
O  49.511  32.113  67.122
O  25.340  51.998  64.493
O  42.237  68.467  43.805
O  35.534  36.838  32.067
O  59.339  64.216  36.617
O  34.071  73.226  49.456
O  65.189  33.390  50.257
O  43.017  62.884  61.207
O  66.919  50.927  48.258
O  71.481  40.584  49.141
O  56.190  53.902  30.687
O  32.333  42.559  35.952
O  48.308  43.362  62.776
O  54.724  51.296  29.110
O  47.359  21.836  53.256
O  40.239  67.586  32.619
O  33.600  52.382  50.116
O  63.514  46.574  48.615
O  35.121  36.720  63.770
O  44.127  38.153  33.288
O  62.835  33.174  55.528
O  43.849  57.331  32.432
O  59.265  42.995  33.462
O  67.274  48.871  50.773
O  48.663  35.390  29.605
O  48.869  73.365  48.547
O  39.696  69.458  42.460
O  61.260  23.652  53.073
O  31.792  39.952  56.655
O  50.234  37.851  70.283
O  67.403  54.777  55.683
O  58.499  26.917  39.521
O  64.736  41.310  42.823
O  35.019  74.255  52.005
O  62.986  48.286  42.561
O  38.375  26.209  47.417
O  36.643  64.681  42.627
O  67.186  46.055  44.424
O  69.020  43.950  55.375
O  59.863  61.842  28.631
O  24.880  52.120  52.126
O  59.950  35.535  54.194
O  71.016  56.254  58.776
O  47.340  63.746  28.297
O  48.694  50.349  23.171
O  58.264  64.368  33.921
O  54.216  54.376  32.693
O  64.803  65.259  54.088
O  30.172  41.516  64.268
O  44.243  27.658  53.315
O  47.539  29.675  48.438
O  68.411  28.083  59.011
O  75.116  41.267  41.473
O  62.030  48.280  35.681
O  53.669  43.717  67.831
O  41.832  30.633  30.256
O  68.207  51.531  67.311
O  48.520  73.681  45.604
O  68.132  48.461  46.015
O  47.128  46.492  54.063
O  29.330  51.663  58.869
O  50.717  29.376  40.730
O  47.726  27.205  63.725
O  42.051  40.448  47.309
O  54.671  30.616  34.908
O  34.199  51.235  27.668
O  56.153  53.398  40.463
O  36.510  50.513  70.840
O  44.494  31.676  52.609
O  62.747  58.528  51.099
O  37.728  68.720  33.450
O  39.767  38.532  55.391
O  53.487  47.346  30.666
O  43.369  62.555  30.295
O  59.884  64.413  44.897
O  59.706  53.185  70.808
O  54.513  52.324  38.333
O  32.321  66.805  34.406
O  53.476  29.120  44.349
O  41.956  69.122  59.021
O  68.376  44.834  32.152
O  68.261  35.526  58.047
O  61.675  45.105  59.915
O  54.150  56.664  39.885
O  42.387  33.590  57.725
O  43.858  35.365  71.299
O  40.686  62.564  62.927
O  57.935  47.720  24.370
O  43.365  69.962  33.485
O  49.139  55.072  58.679
O  46.615  61.096  67.475
O  21.446  43.760  52.093
O  48.400  32.895  34.870
O  69.203  31.799  42.092
O  41.444  40.530  65.789
O  45.450  42.665  67.838
O  65.091  70.809  37.364
O  64.117  57.624  58.363
O  45.030  35.228  34.056
O  34.983  69.097  44.647
O  60.667  64.479  56.631
O  27.437  63.924  40.727
O  28.152  61.392  46.079
O  31.749  44.874  60.650
O  54.206  31.508  48.580
O  40.722  73.124  51.098
O  59.973  55.413  39.028
O  39.950  28.009  40.257
O  30.517  31.887  40.700
O  33.233  34.426  43.382
O  35.142  68.250  54.680
O  66.683  36.332  45.895
O  31.169  48.130  58.298
O  56.212  43.155  69.597
O  28.063  45.291  43.887
O  37.789  58.069  39.751
O  68.249  44.532  38.723
O  45.611  69.172  55.497
O  66.294  60.457  36.521
O  32.087  60.443  42.362
O  30.597  53.085  48.506
O  36.066  53.502  51.093
O  46.554  56.189  24.991
O  55.353  46.602  32.717
O  53.721  61.811  47.901
O  34.380  40.654  37.682
O  39.443  53.666  52.523
O  56.075  45.974  29.784
O  48.914  25.887  61.093
O  62.694  52.123  41.347
O  69.846  46.012  50.390
O  51.310  59.468  36.185
O  59.210  68.447  39.508
O  65.699  58.654  52.087
O  50.703  76.030  43.648
O  32.095  51.677  39.909
O  52.987  36.181  58.660
O  52.043  50.845  38.162
O  26.121  57.517  54.207
O  33.941  53.106  32.508
O  66.657  60.528  50.243
O  56.178  69.988  54.354
O  44.241  58.453  54.704
O  46.588  65.207  72.740
O  47.842  32.035  56.912
O  42.460  36.934  57.777
O  56.430  72.841  53.782
O  46.662  42.027  30.433
O  40.615  53.132  55.999
O  54.022  64.811  63.857
O  63.837  51.608  67.040
O  51.847  53.725  40.765
O  37.010  55.148  44.830
O  34.751  47.587  35.771
O  38.460  56.881  72.669
O  27.409  61.367  64.040
O  26.088  52.835  46.505
O  72.434  42.413  37.044
O  45.929  44.697  69.914
O  57.612  67.610  36.339
O  70.390  62.297  56.280
O  62.870  54.874  42.329
O  59.518  47.719  41.346
O  29.492  47.099  45.700
O  47.655  66.145  42.894
O  63.848  55.461  45.955
O  36.461  58.684  51.309
O  40.009  33.687  44.335
O  62.562  37.253  46.263
O  72.171  37.684  41.697
O  52.155  32.585  36.407
O  27.676  32.212  44.073
O  50.107  48.411  60.647
O  29.063  36.820  43.531
O  63.922  24.065  52.031
O  36.863  70.087  61.680
O  40.170  61.482  41.665
O  53.013  69.598  50.276
O  49.761  42.618  75.792
O  38.327  55.627  68.561
O  44.633  36.123  68.581
O  22.255  46.467  52.750
O  43.546  40.929  74.235
O  51.109  72.505  54.416
O  48.332  60.729  56.314
O  29.246  50.405  48.821
O  58.531  32.209  65.214
O  54.244  46.159  66.388
O  33.581  52.304  67.672
O  60.360  66.833  37.116
O  70.203  46.240  39.719
O  48.635  36.826  72.494
O  26.528  66.724  46.639
O  72.687  56.871  41.406
O  73.910  44.690  57.826
O  36.505  42.757  57.235
O  67.001  52.645  41.482
O  39.290  49.000  43.326
O  34.808  39.970  40.997
O  50.300  71.588  50.149
O  45.290  32.140  55.377
O  56.262  63.057  68.801
O  69.926  65.446  44.669
O  50.085  43.037  67.813
O  34.540  27.277  53.547
O  62.324  28.270  41.033
O  42.235  63.574  42.203
O  66.636  66.548  64.616
O  26.346  54.635  53.713
O  49.273  73.681  56.623
O  39.767  58.084  53.242
O  25.210  41.284  47.022
O  60.667  47.325  23.481
O  65.314  51.048  57.659
O  72.557  50.090  45.594
O  38.655  51.925  31.532
O  67.162  39.015  41.693
O  25.152  48.186  60.541
O  65.151  43.692  69.188
O  67.000  42.345  34.359
O  34.948  57.660  39.741
O  39.045  63.845  44.124
O  39.438  41.717  60.344
O  29.862  53.992  64.857
O  50.222  50.592  28.177
O  47.429  37.581  65.416
O  55.075  38.520  65.598
O  40.982  46.873  67.723
O  49.473  67.999  64.691
O  42.356  71.283  49.556
O  57.373  29.532  65.991
O  35.969  44.540  67.959
O  32.912  60.944  64.709
O  52.379  41.056  55.406
O  36.066  45.815  28.910
O  43.476  73.471  35.913
O  56.274  49.863  25.610
O  24.263  48.723  34.588
O  72.868  52.860  59.209
O  61.903  51.025  24.770
O  61.916  42.627  47.648
O  30.650  61.004  51.063
O  50.161  57.820  28.791
O  70.018  55.309  61.937
O  66.719  72.114  52.331
O  72.281  35.678  39.719
O  68.218  68.208  48.651
O  47.924  69.625  66.875
O  45.953  31.772  34.529
O  61.051  42.024  29.049
O  32.291  50.353  61.581
O  42.657  51.983  53.832
O  49.045  33.187  53.457
O  36.787  54.935  47.696
O  58.705  36.155  56.863
O  29.789  37.815  56.409
O  37.437  40.036  70.445
O  38.440  54.143  37.322
O  66.081  59.555  65.157
O  46.418  33.503  70.244
O  70.492  34.307  41.676
O  51.130  40.537  73.953
O  30.582  55.777  49.913
O  72.182  50.738  54.972
O  62.722  35.982  54.972
O  40.828  72.155  38.905
O  28.959  36.313  58.757
O  65.884  63.325  50.546
O  32.590  56.771  53.605
O  48.535  71.918  65.211
O  29.216  34.506  61.008
O  49.041  55.530  64.412
O  58.189  36.716  60.884
O  48.187  53.353  62.169
O  58.411  59.427  64.591
O  30.247  40.617  61.132
O  49.813  46.553  30.944
O  57.319  65.552  46.076
O  65.766  48.118  72.569
O  60.681  44.470  52.680
O  69.085  51.879  34.325
O  31.615  48.309  51.582
O  74.562  40.632  35.424
O  27.664  43.227  41.912
O  38.205  64.701  59.420
O  43.970  37.785  28.001
O  44.344  42.229  24.903
O  63.485  47.216  55.025
O  62.756  49.315  46.486
O  64.287  71.795  53.842
O  31.836  58.209  58.381
O  62.954  71.757  40.392
O  48.587  49.571  32.862
O  64.464  57.438  54.385
O  65.994  49.886  68.068
O  42.756  46.603  33.976
O  62.143  52.004  61.681
O  34.269  49.893  69.104
O  40.501  48.733  69.850
O  31.909  67.613  40.921
O  45.190  73.031  58.521
O  63.286  40.857  36.815
O  40.277  33.063  30.525
O  43.337  48.959  39.118
O  55.333  48.086  27.964
O  57.754  53.686  37.481
O  48.668  60.084  49.708
O  60.756  44.264  44.684
O  50.866  39.759  25.243
O  42.397  56.539  41.863
O  40.916  25.904  50.912
O  43.806  59.868  37.887
O  56.121  50.036  33.927
O  43.164  65.883  63.075
O  39.294  49.307  30.378
O  61.013  62.090  43.629
O  54.048  70.030  36.920
O  65.471  41.791  67.072
O  64.057  33.472  60.703
O  68.436  43.599  45.607
O  75.815  44.516  40.927
O  32.916  39.347  61.371
O  47.608  70.306  39.265
O  32.759  36.364  50.562
O  32.069  66.109  38.380
O  50.517  74.985  47.070
O  49.898  55.847  23.006
O  27.757  44.975  64.335
O  40.725  57.682  35.197
O  57.916  25.398  47.957
O  45.421  37.297  40.055
O  36.816  34.256  54.793
O  44.844  27.628  32.896
O  48.636  32.968  64.408
O  39.417  45.102  58.818
O  26.416  49.064  47.807
O  51.006  42.757  31.215
O  58.574  70.093  43.577
O  58.133  39.024  28.500
O  48.925  58.959  41.152
O  66.346  41.673  53.578
O  51.996  45.067  29.665
O  72.074  62.236  53.660
O  53.930  35.885  66.607
O  62.679  43.368  51.115
O  60.626  37.617  28.513
O  31.048  55.709  33.779
O  53.081  55.297  76.359
O  59.149  62.716  61.677
O  64.775  33.661  33.609
O  29.446  69.251  50.876
O  64.328  58.107  47.816
O  60.591  52.058  66.675
O  49.558  36.202  27.071
O  38.705  33.126  37.505
O  62.231  64.348  51.857
O  34.777  59.989  31.103
O  46.761  58.401  57.193
O  44.281  43.563  29.912
O  34.100  32.895  38.083
O  59.747  39.827  38.623
O  49.424  47.329  66.341
O  34.140  44.032  44.375
O  27.037  62.697  43.374
O  53.156  42.481  32.964
O  49.964  61.992  63.727
O  45.930  44.458  63.944
O  23.741  44.734  55.139
O  72.908  45.697  46.289
O  51.124  60.410  45.434
O  61.859  47.202  31.445
O  22.768  43.967  46.953
O  61.714  69.540  64.428
O  61.782  54.870  66.479
O  33.806  58.827  60.484
O  39.963  36.729  29.739
O  34.047  47.774  26.186
O  34.910  30.042  37.977
O  61.045  36.096  40.091
O  60.241  35.491  59.431
O  71.728  37.452  49.310
O  41.016  61.304  50.415
O  57.363  36.695  49.027
O  45.970  46.500  26.063
O  54.708  34.520  26.924
O  55.041  22.727  56.100
O  64.386  70.127  65.384
O  44.047  63.521  55.224
O  53.837  40.712  57.808
O  64.743  46.167  59.305
O  43.715  25.558  55.259
O  36.200  61.123  41.617
O  65.939  65.289  38.545
O  23.074  54.517  50.692
O  58.036  32.147  30.394
O  35.565  43.255  49.579
O  56.785  40.989  57.530
O  71.768  44.865  31.978
O  68.020  49.747  43.195
O  32.382  57.701  45.927
O  70.527  30.830  52.141
O  59.597  53.020  25.981
O  72.888  53.417  42.745
O  52.395  32.131  66.430
O  41.018  58.328  50.393
O  62.291  34.554  62.770
O  68.172  54.540  67.968
O  39.348  59.695  58.691
O  33.999  33.328  55.043
O  48.247  65.915  68.646
O  67.615  55.806  63.324
O  33.974  46.513  69.045
O  26.270  46.903  42.273
O  31.522  36.026  45.207
O  40.827  37.006  41.037
O  64.388  59.552  56.323
O  41.305  63.596  72.577
O  51.711  30.223  38.117
O  55.608  43.919  64.404
O  52.503  68.739  62.559
O  57.732  55.658  27.308
O  26.797  36.312  61.484
O  36.525  61.868  38.746
O  76.558  53.417  53.906
O  44.113  30.993  46.243
O  62.749  32.311  40.563
O  37.494  62.372  53.366
O  43.370  32.032  35.989
O  41.382  54.056  36.518
O  43.215  56.664  66.393
O  49.182  63.962  45.292
O  40.896  39.749  51.722
O  72.900  42.285  43.073
O  40.295  38.401  46.297
O  32.226  29.459  43.407
O  43.174  54.952  27.394
O  47.448  71.065  45.908
O  26.000  55.785  45.792
O  42.854  40.880  37.477
O  29.694  47.952  35.680
O  34.498  45.373  65.508
O  64.875  61.096  69.141
O  67.070  67.455  42.865
O  50.506  45.537  61.224
O  61.917  40.704  49.912
O  74.382  50.919  50.634
O  37.846  61.891  60.835
O  40.158  38.179  75.933
O  43.933  57.894  57.491
O  32.848  43.783  58.190
O  66.898  46.544  40.281
O  68.668  31.790  60.848
O  26.608  52.439  40.865
O  28.648  46.987  57.447
O  32.200  27.460  47.108
O  59.514  40.790  31.620
O  65.652  39.247  65.409
O  54.513  43.439  55.264
O  31.738  63.638  47.714
O  55.602  48.898  42.907
O  55.206  73.889  45.987
O  60.959  28.034  38.551
O  52.096  37.426  50.161
O  58.568  55.181  72.478
O  30.587  64.031  40.738
O  43.311  39.291  56.575
O  32.030  50.090  49.369
O  59.521  61.254  51.215
O  58.178  55.340  32.219
O  54.767  28.008  65.072
O  29.428  61.552  41.987
O  64.187  67.790  36.753
O  58.427  43.308  24.575
O  46.673  32.377  31.835
O  53.817  58.564  24.087
O  44.641  40.505  50.759
O  57.145  46.369  39.910
O  52.999  72.486  50.402
O  38.072  55.856  35.022
O  57.551  57.878  31.150
O  30.484  47.147  42.940
O  42.948  49.084  26.291
O  50.482  31.451  62.905
O  57.933  61.754  37.294
O  32.415  63.283  38.793
O  32.876  63.206  59.225
O  45.009  46.931  77.637
O  42.517  31.155  41.216
O  60.029  39.346  63.733
O  24.750  47.119  51.324
O  34.818  33.325  45.575
O  39.086  26.961  37.113
O  57.114  40.494  54.715
O  72.993  64.122  50.647
O  61.134  48.994  54.303
O  54.477  33.565  34.814
O  32.289  42.274  38.767
O  33.193  55.900  41.640
O  53.278  62.150  59.810
O  69.567  41.328  56.533
O  39.720  30.603  52.930
O  33.349  37.754  30.423
O  75.116  49.623  53.160
O  33.991  62.663  42.762
O  63.116  42.449  31.075
O  41.311  40.203  72.721
O  66.864  29.519  61.069
O  36.659  67.332  60.707
O  58.750  57.203  62.789
O  52.539  45.918  37.534
O  39.939  54.215  24.917
O  50.477  33.486  46.117
O  60.551  49.441  72.871
O  60.757  32.502  35.807
O  36.379  57.233  36.885
O  53.404  59.094  58.728
O  64.733  49.349  29.674
O  59.055  47.354  47.848
O  53.500  50.459  66.891
O  59.961  30.437  58.642
O  67.953  47.919  62.035
O  69.960  54.746  48.186
O  64.650  57.282  61.935
O  53.962  36.101  44.063
O  65.509  55.901  65.377
O  65.401  59.035  30.476
O  58.821  28.068  63.844
O  35.265  65.108  58.730
O  50.809  47.090  68.918
O  38.959  64.791  54.144
O  39.371  53.664  71.835
O  31.988  60.235  47.595
O  47.025  70.826  52.259
O  66.355  52.871  50.507
O  53.495  40.523  61.722
O  53.140  37.852  41.752
O  26.819  49.383  54.273
O  33.543  58.519  51.406
O  30.265  66.540  51.269
O  39.183  36.497  48.688
O  61.204  71.518  47.424
O  65.360  56.710  37.129
O  27.290  53.994  63.396
O  64.569  29.311  42.580
O  62.009  26.525  43.365
O  68.824  64.370  47.190
O  38.607  51.541  42.087
O  52.340  31.852  44.266
O  32.495  44.378  40.737
O  51.052  53.780  37.995
O  34.427  64.872  34.214
O  59.643  57.865  73.369
O  28.671  47.503  48.975
O  66.842  56.962  68.713
O  31.280  56.902  39.620
O  35.413  34.173  51.622
O  38.491  56.829  50.344
O  65.255  37.076  53.979
O  39.307  39.953  31.706
O  63.101  39.063  60.799
O  40.099  41.306  42.574
O  35.320  48.021  64.864
O  23.898  51.560  41.416
O  76.725  56.647  44.309
O  52.227  52.039  61.610
O  65.154  68.087  62.402
O  28.332  45.420  34.394
O  60.325  62.058  38.964
O  71.520  61.187  38.825
O  39.940  41.372  37.257
O  61.746  65.003  34.943
O  50.116  75.424  51.645
O  37.468  55.744  56.545
O  52.555  69.863  45.667
O  61.196  38.402  31.266
O  47.644  33.860  44.966
O  55.346  60.633  35.364
O  71.674  65.791  47.179
O  47.931  53.545  22.829
O  41.393  51.095  24.699
O  68.261  44.251  48.648
O  50.122  51.484  31.150
O  53.568  57.659  35.881
O  48.650  70.626  54.599
O  71.941  44.473  48.708
O  39.084  48.839  37.537
O  37.186  49.357  45.311
O  23.814  49.462  52.842
O  75.043  43.997  54.162
O  61.849  70.077  60.280
O  31.876  46.830  64.985
O  42.907  63.387  25.452
O  51.977  54.589  30.763
O  51.045  68.877  30.620
O  53.840  43.591  58.075
O  37.142  40.568  38.250
O  42.493  55.498  24.556
O  59.969  49.234  43.871
O  48.949  69.682  42.222
O  44.185  60.062  52.134
O  52.504  27.455  66.933
O  74.665  42.765  38.841
O  53.532  48.025  68.427
O  39.704  67.867  57.744
O  66.544  62.328  38.835
O  67.551  62.821  60.898
O  50.341  51.369  34.246
O  39.095  62.648  27.920
O  57.931  56.823  24.716
O  59.326  27.450  49.707
O  46.926  67.437  70.809
O  51.980  69.695  54.185
O  69.383  36.299  47.162
O  70.267  57.547  55.858
O  30.835  39.255  67.030
O  57.858  49.057  57.266
O  38.701  53.825  49.755
O  27.315  44.146  37.012
O  63.657  39.771  67.893
O  66.464  39.539  51.703
O  73.831  51.973  38.569
O  49.254  66.188  39.797
O  57.978  72.409  51.411
O  58.016  63.667  30.027
O  39.005  65.405  47.158
O  55.752  42.208  31.618
O  52.345  57.423  27.070
O  50.779  68.362  56.530
O  48.796  29.934  64.698
O  62.245  33.993  67.286
O  25.680  39.760  39.306
O  43.701  57.617  29.492
O  46.130  43.350  42.265
O  50.464  59.761  65.614
O  64.230  38.882  41.212
O  42.310  42.217  31.178
O  58.383  34.029  47.297
O  40.896  74.988  48.097
O  67.331  65.131  55.485
O  42.944  28.651  59.775
O  62.586  63.278  65.632
O  31.341  63.215  31.114
O  37.592  43.815  60.908
O  44.136  33.785  60.652
O  29.243  50.857  63.800
O  59.031  43.003  57.105
O  43.949  55.608  55.374
O  77.252  51.335  51.970
O  62.837  45.908  57.433
O  75.441  47.237  40.011
O  48.309  41.811  59.188
O  68.723  53.910  65.218
O  44.364  33.099  41.466
O  50.876  49.341  63.316
O  55.127  59.018  37.914
O  66.725  55.692  50.147
O  58.210  53.787  34.629
O  64.242  32.564  63.630
O  29.147  45.209  59.729
O  29.097  42.375  44.918
O  53.806  61.822  69.649
O  44.558  57.373  26.793
O  50.031  38.679  51.788
O  39.081  57.593  64.177
O  47.893  30.419  36.132
O  28.719  65.731  42.579
O  57.173  41.764  66.570
O  44.908  35.938  58.835
O  59.026  48.578  30.076
O  72.890  62.809  60.770
O  53.535  28.067  38.978
O  47.920  68.148  57.050
O  48.959  62.329  33.891
O  50.657  23.628  44.492
O  68.138  55.764  58.022
O  32.669  52.428  29.978
O  58.587  43.788  64.920
O  56.990  57.275  48.984
O  42.520  49.061  29.126
O  66.685  31.416  58.003
O  29.369  53.648  36.311
O  39.447  64.261  41.391
O  65.026  43.091  56.236
O  30.475  63.027  61.438
O  52.900  37.837  25.667
O  40.299  55.229  65.645
O  69.398  51.914  31.389
O  69.708  69.071  50.826
O  35.578  56.000  49.905
O  64.340  49.817  48.755
O  67.689  32.070  50.925
O  43.624  40.370  67.805
O  31.923  58.472  68.207
O  24.674  51.371  48.454
O  69.412  36.920  55.888
O  58.456  30.963  53.203
O  47.124  58.350  54.308
O  59.662  53.522  54.021
O  42.236  36.100  66.708
O  35.927  55.057  38.861
O  60.375  45.485  77.198
O  60.980  46.771  74.662
O  56.210  51.871  45.787
O  31.987  56.188  64.864
O  40.598  51.481  37.949
O  53.332  54.595  26.860
O  44.414  65.426  47.357
O  41.293  58.575  56.794
O  59.945  55.581  36.062
O  64.730  40.669  49.215
O  54.336  55.866  29.429
O  51.293  41.602  43.612
O  32.833  49.492  64.351
O  60.269  55.235  56.249
O  49.111  23.015  57.115
O  37.601  67.379  51.219
O  31.575  64.680  56.005
O  38.828  36.011  45.462
O  25.959  36.802  47.274
O  33.492  41.347  31.856
O  59.281  33.086  58.030
O  66.490  33.664  46.938
O  57.469  71.582  41.184
O  41.452  58.282  37.867
O  65.337  70.087  40.357
O  69.015  35.749  51.676
O  52.664  34.038  56.772
O  32.773  54.747  38.824
O  27.235  60.928  52.073
O  65.778  44.957  33.475
O  58.327  59.294  43.841
O  65.928  54.166  28.917
O  28.949  64.330  38.325
O  31.438  70.666  52.453
O  62.570  43.150  33.817
O  68.648  54.223  39.532
O  36.883  52.609  61.648
O  65.706  36.004  56.701
O  55.833  50.856  48.404
O  30.895  60.875  59.311
O  50.665  39.689  41.597
O  28.337  61.263  57.953
O  54.543  34.575  29.800
O  35.627  71.341  52.331
O  71.039  56.876  39.014
O  37.540  29.403  49.491
O  30.294  67.014  48.012
O  31.277  55.931  36.655
O  55.960  27.948  35.107
O  38.596  35.670  53.046
O  72.550  57.421  46.267
O  33.143  38.777  65.186
O  27.400  53.101  60.663
O  30.899  33.130  62.851
O  42.806  70.697  61.804
O  43.270  58.935  71.440
O  50.968  53.357  64.126
O  33.025  54.914  51.323
O  70.500  52.789  41.310
O  46.094  68.315  37.821
O  64.100  45.167  31.062
O  61.320  37.770  49.687
O  70.741  61.782  51.105
O  62.066  52.365  69.237
O  51.661  34.572  29.876
O  62.740  44.614  54.923
O  47.065  36.849  45.329
O  48.230  53.583  30.279
O  59.934  70.441  50.722
O  56.366  68.907  39.561
O  49.561  74.219  38.911
O  70.656  55.778  35.175
O  55.947  60.502  59.312
O  64.047  34.447  52.841
O  25.391  56.519  50.938
O  62.992  35.218  50.115
O  64.459  40.544  58.528
O  34.485  50.601  31.144
O  43.729  65.069  73.095
O  40.624  30.917  37.568
O  56.792  36.252  44.057
O  29.315  47.730  53.818
O  39.506  73.718  58.098
O  57.035  36.016  29.544
O  55.007  70.048  64.369
O  62.071  34.017  58.120
O  32.683  67.560  43.779
O  60.907  37.151  42.774
O  41.249  51.561  71.911
O  26.170  43.600  45.528
O  42.137  62.246  52.937
O  29.016  54.887  45.707
O  68.930  42.895  36.495
O  54.767  63.123  56.037
O  36.931  57.229  53.652
O  58.536  40.647  47.505
O  54.089  28.338  30.386
O  62.897  41.999  60.996
O  51.601  40.519  68.196
O  49.845  34.252  71.787
O  61.343  24.421  48.326
O  31.313  50.478  27.892
O  57.154  42.613  59.881
O  52.149  57.346  68.162
O  64.114  36.177  40.228
O  53.245  67.125  57.349
O  66.090  47.642  53.693
O  64.822  65.854  49.170
O  50.161  39.253  28.089
O  53.816  45.556  25.924
O  51.826  38.797  44.462
O  59.895  58.499  50.565
O  44.631  50.424  58.299
O  27.173  39.354  47.862
O  36.283  34.987  41.833
O  48.768  34.581  39.598
O  51.220  73.278  44.978
O  64.481  45.482  66.968
O  53.145  53.288  67.543
O  67.722  52.692  57.561
O  50.708  50.084  67.766
O  34.317  46.992  50.183
O  63.781  53.364  64.589
O  49.090  27.183  54.680
O  69.605  65.599  61.735
O  67.140  54.748  44.883
O  44.963  27.718  50.411
O  74.475  54.647  52.339
O  34.728  40.095  52.577
O  66.362  55.802  52.968
O  62.761  65.438  67.678
O  35.596  56.625  58.638
O  43.630  50.770  22.825
O  60.705  71.836  55.981
O  22.619  51.486  50.354
O  34.291  56.217  66.558
O  64.349  38.020  50.310
O  56.658  56.703  69.003
O  36.846  37.517  51.712
O  54.961  39.553  32.884
O  64.705  70.387  60.779
O  58.740  41.134  51.946
O  51.047  35.878  47.925
O  62.520  29.027  58.464
O  54.249  68.087  53.364
O  53.968  42.618  43.110
O  64.639  67.462  66.450
O  53.446  73.397  64.848
O  37.913  63.162  34.714
O  54.402  47.089  71.741
O  51.009  42.958  58.510
O  33.319  62.319  33.160
O  73.125  46.016  51.406
O  52.578  59.085  53.088
O  58.647  55.372  50.529
O  29.453  30.177  42.872
O  61.978  68.036  34.979
O  31.349  40.873  53.626
O  45.103  39.913  71.890
O  65.729  37.221  42.915
O  64.049  33.274  45.271
O  38.125  46.427  66.758
O  38.929  25.255  59.631
O  61.665  57.890  53.865
O  35.467  44.021  73.769
O  66.762  60.843  53.629
O  50.269  65.595  51.050
O  70.100  46.286  45.055
O  36.240  60.485  46.306
O  53.715  45.704  59.971
O  25.153  41.124  49.930
O  50.495  62.373  53.648
O  36.874  51.458  64.253
O  59.503  68.724  55.707
O  49.109  66.866  45.281
O  49.017  37.473  54.734
O  60.172  34.646  49.545
O  42.679  75.439  54.070
O  61.934  39.948  42.833
O  35.476  42.631  35.782
O  33.753  35.758  46.985
O  37.125  39.866  59.838
O  41.664  40.585  69.905
O  38.329  42.871  67.841
O  48.374  56.133  76.313
O  38.170  27.957  60.423
O  60.086  45.591  55.647
O  37.434  39.014  41.091
O  61.250  66.850  50.912
O  58.409  37.134  39.028
O  63.442  44.570  45.863
O  71.412  49.457  31.359
O  44.067  70.340  43.970
O  59.723  50.331  70.093
O  65.763  37.915  30.396
O  70.737  61.757  41.815
O  60.863  50.655  31.353
O  49.903  78.671  48.825
O  70.003  52.432  61.977
O  49.688  41.641  56.442
O  34.122  56.964  69.344
O  73.769  39.516  55.897
O  46.224  58.986  29.811
O  70.948  51.835  66.255
O  60.300  59.177  37.848
O  43.315  48.944  61.817
O  47.868  56.449  38.723
O  45.904  56.573  52.292
O  60.178  62.627  54.448
O  53.149  71.926  40.374
O  49.626  56.227  31.073
O  36.427  56.289  70.697
O  33.916  55.987  61.034
O  59.190  70.874  64.714
O  56.377  36.870  72.374
O  73.840  50.824  41.936
O  64.088  49.776  55.071
O  27.759  49.577  58.133
O  55.993  38.100  37.520
O  30.609  44.260  65.157
O  34.656  64.188  40.453
O  30.143  37.677  61.052
O  51.766  32.442  54.100
O  54.543  46.636  63.253
O  67.416  29.508  45.609
O  61.966  59.582  74.181
O  46.729  44.900  31.388
O  50.915  57.305  75.226
O  38.801  31.246  43.840
O  56.237  72.668  64.852
O  49.697  38.435  67.402
O  29.514  44.967  31.973
O  48.240  65.760  55.370
O  43.958  49.361  76.204
O  68.020  50.134  58.662
O  56.526  37.824  34.594
O  35.212  40.846  26.631
O  30.885  55.485  57.853
O  37.065  47.686  39.706
O  70.494  67.923  55.901
O  48.310  62.153  51.813
O  22.935  43.132  49.715
O  56.168  47.648  69.468
O  43.876  61.170  65.994
O  37.610  48.470  53.534
O  74.398  41.395  47.396
O  58.958  69.015  67.613
O  37.075  38.926  54.401
O  40.237  61.852  30.541
O  59.836  36.742  47.211
O  58.654  57.608  53.742
O  38.830  46.386  70.358
O  40.323  44.071  25.847
O  36.593  39.382  31.290
O  30.847  65.117  58.742
O  51.786  33.058  41.670
O  58.833  42.145  40.367
O  34.858  67.060  40.071
O  56.687  24.027  50.298
O  64.822  33.566  57.890
O  41.590  43.677  60.317
O  64.538  40.248  62.979
O  49.080  41.085  32.398
O  68.023  50.663  61.419
O  71.098  63.002  48.423
O  56.763  41.811  34.332
O  35.317  53.677  65.764
O  38.612  39.541  44.358
O  45.656  63.112  32.150
O  40.279  75.777  52.390
O  50.994  58.298  24.612
O  45.360  49.215  63.922
O  66.213  69.352  35.134
O  63.880  32.674  37.942
O  70.432  46.753  62.872
O  46.302  76.161  58.428
O  43.156  58.325  24.437
O  64.644  36.249  66.263
O  53.172  60.868  55.325
O  37.830  67.455  54.238
O  55.940  42.082  39.798
O  52.742  34.192  71.608
O  66.654  58.576  42.624
O  41.818  44.628  50.367
O  28.893  58.683  42.800
O  53.328  74.066  47.911
O  42.970  50.508  69.875
O  57.449  36.225  32.431
O  46.161  63.818  65.910
O  65.221  61.634  32.207
O  47.025  41.451  40.423
O  33.877  37.593  34.522
O  55.609  71.719  38.824
O  42.755  64.789  49.614
O  37.417  50.980  74.419
O  62.312  47.832  59.768
O  52.863  38.376  63.567
O  47.163  69.983  60.650
O  28.061  55.271  51.406
O  44.903  56.419  61.325
O  68.721  34.117  49.080
O  36.235  62.915  44.639
O  31.975  61.828  56.642
O  63.538  54.216  30.466
O  39.538  75.182  45.483
O  46.287  58.993  60.934
O  43.913  43.590  38.179
O  35.560  30.551  46.417
O  45.567  48.155  56.854
O  38.111  48.061  63.998
O  37.375  64.608  39.196
O  42.739  65.228  35.598
O  62.605  62.608  33.437
O  51.111  40.870  64.002
O  44.310  36.913  30.703
O  42.170  31.432  54.386
O  55.860  51.826  63.390
O  32.386  68.548  36.751
O  54.651  63.023  51.812
O  40.730  48.229  54.189
O  46.105  34.211  29.559
O  48.253  39.825  70.216
O  46.274  73.536  35.038
O  32.085  41.525  41.830
O  39.537  59.298  29.362
O  35.753  45.726  25.034
O  39.607  50.713  64.527
O  25.013  54.353  59.283
O  23.436  55.267  53.535
O  67.132  68.205  45.978
O  55.750  44.422  41.593
O  56.093  28.031  61.525
O  59.812  29.590  61.613
O  56.310  53.990  74.016
O  67.443  53.020  60.395
O  27.505  46.873  61.540
O  54.384  59.044  74.981
O  48.376  58.398  23.723
O  38.567  59.250  61.422
O  54.036  48.299  24.990
O  37.271  42.677  75.558
O  76.528  50.909  42.987
O  64.399  62.612  53.052
O  46.380  40.124  66.772
O  52.805  41.586  50.648
O  71.757  65.331  59.919
O  70.907  53.624  68.522
O  35.705  43.771  63.380
O  23.986  55.809  42.764
O  55.204  31.637  65.389
O  35.835  47.296  61.972
O  37.003  46.442  37.140
O  58.283  42.833  28.207
O  39.533  35.042  67.071
O  60.283  64.879  60.210
O  47.200  74.153  60.363
O  42.219  69.925  65.497
O  43.518  38.468  49.023
O  34.523  44.879  37.368
O  44.796  40.776  42.889
O  35.565  54.790  63.107
O  40.672  60.917  38.829
O  59.985  62.940  32.179
O  45.430  61.985  39.247
O  25.140  41.805  41.455
O  57.589  68.440  64.190
O  52.931  27.766  58.546
O  58.476  49.887  46.259
O  63.023  58.392  37.505
O  43.497  52.899  59.942
O  43.032  38.203  75.498
O  44.128  59.303  68.358
O  54.450  63.549  66.494
O  29.802  42.904  51.099
O  41.850  31.931  43.831
O  69.416  49.285  48.894
O  67.229  55.730  60.749
O  70.231  54.670  56.323
O  41.471  71.742  34.824
O  67.327  60.853  62.962
O  47.598  55.497  32.880
O  50.119  37.226  63.356
O  61.995  45.894  34.104
O  55.702  58.593  52.040
O  69.491  30.909  55.423
O  43.263  63.066  45.764
O  37.912  31.501  55.087
O  35.928  27.167  43.136
O  59.173  27.407  54.715
O  27.046  42.260  59.129
O  33.189  46.477  57.185
O  49.891  59.491  54.132
O  46.302  23.799  50.648
O  44.324  46.451  31.277
O  49.082  50.150  65.347
O  51.651  57.930  78.024
O  69.040  65.677  40.572
O  35.312  45.356  41.192
O  44.210  42.092  57.136
O  41.964  43.414  74.886
O  44.016  42.111  35.177
O  64.896  49.374  59.994
O  73.183  38.851  47.244
O  31.341  51.551  65.862
O  35.016  36.982  66.594
O  59.309  63.969  47.792
O  60.526  38.277  60.079
O  68.975  48.499  64.903
O  45.523  57.706  22.813
O  43.171  51.705  62.762
O  68.531  29.283  50.769
O  38.036  31.142  61.419
O  69.531  35.864  35.812
O  57.467  64.522  65.633
O  42.727  34.644  44.918
O  65.129  70.214  46.411
O  38.986  74.679  54.896
O  47.602  56.913  73.696
O  40.039  66.109  49.720
O  56.430  62.064  64.439
O  32.062  41.950  44.589
O  53.464  36.975  72.029
O  58.513  44.105  42.826
O  34.274  48.556  59.462
O  57.809  62.669  56.284
O  44.310  34.293  51.185
O  62.954  56.089  63.932
O  62.727  52.445  57.044
O  76.568  42.236  49.390
O  65.574  28.069  54.370
O  51.404  57.758  40.426
O  45.579  61.225  70.281
O  34.860  44.900  60.712
O  44.341  50.740  66.415
O  43.669  45.568  65.310
O  50.739  25.390  40.500
O  31.164  33.521  38.366
O  41.051  31.282  66.620
O  68.446  40.195  65.849
O  66.575  42.793  50.684
O  38.603  72.511  46.233
O  50.524  54.067  33.247
O  43.607  38.002  37.797
O  31.994  48.139  54.434
O  33.840  62.470  46.145
N  48.183  49.425  48.291
N  54.178  51.020  54.335
N  49.572  51.789  56.238
N  48.134  45.709  47.858
N  51.456  52.122  51.709
N  53.128  50.215  49.461
N  48.153  51.066  54.078
N  47.826  48.158  45.105
N  48.084  48.972  51.613
N  51.742  53.760  54.504
N  52.193  48.765  46.373
N  51.156  47.328  44.064
C  50.911  52.117  56.031
C  53.776  49.309  51.647
C  48.106  50.336  51.774
C  53.298  46.383  43.565
C  47.446  49.613  47.051
C  51.346  47.596  42.612
C  47.303  50.917  52.910
C  50.774  54.102  49.616
C  49.017  45.084  48.875
C  48.658  47.550  44.080
C  47.762  48.542  49.256
C  52.252  54.098  56.928
C  46.984  51.060  46.882
C  52.770  50.173  50.878
C  45.791  52.095  51.255
C  51.327  53.525  52.069
C  52.691  46.928  42.243
C  47.826  43.297  45.538
C  45.106  50.584  45.227
C  50.415  54.285  51.109
C  52.315  51.234  46.273
C  53.639  53.529  56.867
C  52.696  49.953  47.040
C  55.884  53.586  56.001
C  45.873  52.869  53.661
C  47.927  46.400  43.380
C  54.596  54.081  56.028
C  52.994  48.115  45.449
C  46.393  51.365  45.492
C  53.394  48.997  53.118
C  54.004  52.459  57.670
C  52.414  46.931  44.713
C  48.194  50.128  55.082
C  49.819  46.128  49.652
C  45.690  44.353  45.641
C  52.203  50.009  48.466
C  48.659  52.606  57.078
C  50.819  53.657  53.484
C  49.948  47.095  44.705
C  46.144  45.353  44.804
C  50.025  52.918  48.996
C  56.238  52.535  56.819
C  48.675  48.338  50.444
C  49.136  50.376  56.239
C  48.975  46.861  50.726
C  52.689  51.575  51.436
C  48.448  50.202  57.610
C  52.991  52.458  46.886
C  48.281  44.301  44.709
C  52.636  51.111  44.787
C  48.300  49.190  45.882
C  46.528  43.320  46.003
C  54.394  49.565  54.127
C  46.657  52.259  52.504
C  47.445  45.336  44.321
C  46.173  52.867  45.314
C  47.906  51.604  57.978
C  55.294  51.971  57.651
C  51.278  53.571  55.865
C  50.499  55.387  48.834
H  45.283  75.586  45.032
H  61.060  25.645  44.866
H  44.757  41.799  75.545
H  68.517  45.667  68.514
H  48.722  39.378  44.220
H  47.910  38.455  43.299
H  71.888  34.395  48.102
H  51.254  37.692  39.555
H  52.607  37.137  39.149
H  68.861  44.351  67.693
H  60.749  57.238  28.368
H  59.692  25.814  45.522
H  63.602  60.585  70.688
H  45.757  42.952  75.385
H  62.796  59.411  71.323
H  42.083  47.031  58.085
H  60.226  56.938  26.956
H  42.648  45.608  58.002
H  36.248  54.712  33.777
H  37.138  55.255  32.638
H  57.293  64.778  49.191
H  56.910  42.040  39.905
H  70.695  34.295  49.072
H  33.528  48.826  29.634
H  39.607  50.161  27.006
H  40.653  56.892  42.714
H  55.438  26.755  56.249
H  54.510  27.795  55.540
H  44.318  38.810  66.810
H  58.500  40.299  63.002
H  58.531  41.752  62.652
H  45.391  67.144  55.024
H  45.072  66.016  53.989
H  40.836  51.028  27.278
H  33.925  56.499  49.252
H  32.618  56.433  48.410
H  61.888  68.038  63.127
H  55.802  64.428  48.943
H  25.058  58.758  47.651
H  59.450  54.746  75.715
H  58.089  55.076  76.391
H  41.916  34.160  54.740
H  59.900  46.022  68.848
H  60.661  46.066  70.186
H  42.823  34.131  55.969
H  72.788  57.098  62.210
H  71.860  56.024  61.626
H  39.355  57.752  42.817
H  26.186  58.070  48.404
H  64.574  30.132  44.399
H  30.713  50.954  53.371
H  45.442  76.830  45.936
H  62.075  52.165  47.102
H  49.069  60.647  60.509
H  64.480  31.459  45.171
H  55.866  49.426  70.154
H  41.315  44.035  36.879
H  49.726  49.147  39.622
H  49.331  50.220  38.585
H  59.417  47.208  59.009
H  69.215  43.272  46.098
H  68.251  42.888  44.965
H  63.169  53.076  47.684
H  58.925  66.928  64.194
H  32.023  41.358  51.928
H  31.546  34.453  40.068
H  30.869  34.780  41.401
H  32.609  42.360  50.899
H  39.955  43.942  37.590
H  54.896  50.631  70.371
H  61.679  29.529  58.475
H  62.671  28.806  57.527
H  67.867  40.656  59.621
H  54.307  67.869  52.416
H  60.294  66.454  63.623
H  48.201  61.711  59.829
H  62.285  37.592  63.852
H  34.640  58.298  41.469
H  55.292  40.713  28.222
H  53.674  66.108  55.740
H  41.239  50.624  45.156
H  40.477  55.990  32.736
H  41.417  54.895  33.341
H  26.875  43.727  52.588
H  27.083  55.791  42.670
H  27.964  56.922  43.219
H  26.704  44.389  51.211
H  53.187  30.054  47.567
H  35.118  59.555  42.180
H  52.953  29.400  46.184
H  55.968  62.337  58.922
H  62.119  56.860  71.040
H  41.216  51.057  46.636
H  54.079  41.006  29.143
H  61.313  57.590  72.144
H  36.881  27.309  51.214
H  35.478  27.094  51.824
H  40.478  48.464  46.232
H  39.207  47.692  46.701
H  62.102  36.432  62.836
H  31.363  50.330  52.138
H  29.351  38.850  37.099
H  42.768  53.669  69.788
H  55.685  63.785  59.419
H  35.470  54.792  30.628
H  65.487  68.589  54.084
H  64.634  69.886  53.954
H  36.905  50.333  25.841
H  37.968  51.251  26.495
H  50.980  27.295  50.462
H  46.145  31.871  62.622
H  50.066  27.292  49.195
H  32.023  63.807  62.334
H  36.327  27.463  58.103
H  68.263  45.908  30.525
H  37.110  28.777  57.893
H  69.680  38.302  67.551
H  30.795  55.421  28.002
H  78.483  45.562  44.967
H  78.130  46.793  45.828
H  32.095  54.596  28.142
H  63.823  48.042  72.864
H  54.774  31.926  52.953
H  51.719  54.373  70.464
H  30.298  49.202  38.895
H  42.765  44.338  30.904
H  69.469  37.552  68.878
H  23.981  61.553  43.222
H  68.747  45.957  29.066
H  60.077  45.866  61.329
H  44.653  51.154  67.236
H  49.453  36.816  34.257
H  59.748  70.197  49.800
H  60.844  70.781  50.754
H  50.762  36.123  34.672
H  36.901  67.674  54.429
H  38.302  68.275  54.463
H  52.429  60.496  55.838
H  53.047  60.471  54.445
H  64.788  42.070  39.233
H  35.511  56.157  31.369
H  46.705  63.840  65.103
H  63.613  41.516  40.030
H  65.334  35.715  65.836
H  65.113  36.742  66.960
H  46.647  75.491  59.048
H  42.112  65.698  59.976
H  31.333  48.121  39.250
H  67.036  47.840  49.219
H  33.419  63.600  62.956
H  54.452  32.688  51.623
H  59.426  44.678  60.587
H  46.058  64.747  66.192
H  30.089  38.213  35.935
H  25.515  61.577  43.402
H  42.289  62.872  37.126
H  43.015  67.929  50.596
H  42.572  66.453  50.493
H  70.794  42.591  34.024
H  59.465  49.342  26.089
H  58.243  50.118  25.595
H  69.753  43.364  34.804
H  55.698  32.269  54.873
H  56.451  31.003  55.342
H  66.333  51.105  27.468
H  54.170  67.230  53.824
H  75.621  42.138  51.076
H  43.721  37.444  66.491
H  38.860  63.869  48.267
H  43.381  54.105  71.153
H  62.067  49.751  59.426
H  61.987  51.169  59.988
H  35.109  71.072  59.185
H  36.609  71.343  58.980
H  48.636  28.359  50.892
H  58.727  45.436  50.029
H  58.784  44.048  49.366
H  47.684  29.288  51.728
H  39.611  62.554  48.525
H  66.653  46.401  49.089
H  75.129  41.193  52.223
H  48.619  57.868  67.298
H  43.745  62.961  36.601
H  33.271  67.474  46.929
H  33.379  65.954  46.852
H  42.305  68.588  34.580
H  37.110  31.602  42.553
H  36.548  32.296  41.253
H  41.548  68.443  35.914
H  41.480  44.380  31.783
H  50.585  54.026  69.487
H  68.783  68.384  45.030
H  65.350  50.769  28.602
H  69.781  67.351  44.495
H  56.126  27.673  53.395
H  56.916  28.831  52.750
H  58.062  69.412  31.677
H  55.867  66.707  69.920
H  56.620  66.134  68.749
H  56.895  52.660  27.355
H  58.118  52.544  28.340
H  45.475  32.689  63.756
H  62.528  48.602  72.222
H  47.412  56.901  67.127
H  59.238  68.418  31.629
H  68.757  39.574  60.237
H  46.127  24.626  53.437
H  54.323  41.707  43.113
H  55.943  57.232  68.596
H  56.583  56.891  69.957
H  53.054  72.517  65.010
H  52.864  73.778  64.168
H  43.334  41.163  39.937
H  37.504  45.821  67.203
H  38.996  46.330  67.189
H  44.276  40.616  41.023
H  50.479  36.544  47.490
H  50.843  35.044  47.466
H  39.898  47.648  64.406
H  34.000  56.019  69.550
H  26.052  43.875  61.813
H  29.053  49.036  37.030
H  42.607  60.369  27.026
H  33.871  56.959  60.972
H  32.996  55.686  60.913
H  42.851  59.835  25.572
H  61.913  67.528  51.131
H  61.594  66.036  51.323
H  73.590  51.730  42.189
H  73.076  50.516  41.418
H  29.339  45.245  46.258
H  27.679  49.397  37.589
H  36.041  37.213  52.173
H  40.820  46.446  64.706
H  61.973  40.677  42.184
H  62.210  40.398  43.656
H  64.902  46.096  29.554
H  41.537  35.578  29.470
H  43.011  35.544  29.892
H  38.628  26.109  60.001
H  38.868  24.615  60.355
H  44.143  56.382  69.136
H  42.591  65.414  68.013
H  49.270  56.486  76.166
H  37.540  36.963  52.116
H  56.748  64.371  39.009
H  60.466  68.610  55.655
H  43.354  76.130  54.193
H  44.568  45.500  23.281
H  58.895  41.715  52.709
H  59.057  41.622  51.164
H  45.027  45.512  24.754
H  63.747  70.349  60.615
H  64.886  69.642  61.378
H  55.082  40.437  32.484
H  54.338  39.078  32.302
H  59.218  68.939  54.802
H  66.274  46.564  29.041
H  63.439  50.460  54.817
H  48.658  66.505  54.907
H  72.947  45.103  51.689
H  51.506  63.394  35.927
H  37.168  62.534  34.785
H  32.760  61.620  33.548
H  32.773  62.666  32.428
H  52.552  64.462  35.512
H  50.091  42.636  58.578
H  50.931  43.919  58.342
H  53.703  47.763  71.640
H  55.013  47.229  70.991
H  52.892  58.193  53.301
H  67.091  51.173  64.423
H  66.253  36.497  42.528
H  67.980  51.021  63.207
H  29.755  63.767  45.021
H  50.927  56.519  74.641
H  50.231  57.910  74.863
H  46.785  29.444  54.121
H  60.320  27.992  60.528
H  63.816  35.795  31.813
H  46.424  58.721  30.727
H  45.314  58.666  29.683
H  64.908  36.784  43.195
H  64.955  50.160  54.848
H  51.648  59.114  53.378
H  58.789  54.529  50.059
H  64.105  66.742  66.832
H  47.286  65.896  55.236
H  29.336  44.165  31.451
H  30.100  45.506  31.412
H  66.357  53.076  37.869
H  50.141  37.584  67.551
H  50.360  39.075  67.724
H  67.323  54.194  38.158
H  55.333  73.016  64.956
H  56.543  72.361  65.728
H  27.962  40.073  49.468
H  38.663  31.050  44.790
H  65.324  67.061  65.885
H  37.511  63.976  34.348
H  31.924  40.135  53.901
H  72.971  46.583  52.184
H  62.079  68.829  35.537
H  62.856  67.916  34.572
H  29.711  30.638  42.052
H  28.821  30.779  43.305
H  28.273  40.109  50.998
H  59.511  55.582  50.931
H  39.718  31.594  43.802
H  35.114  41.920  36.342
H  42.912  75.058  53.196
H  35.627  42.211  34.915
H  69.691  49.165  30.605
H  68.533  48.267  30.112
H  71.994  66.162  53.034
H  47.277  75.776  43.876
H  54.154  64.718  55.300
H  43.548  56.343  70.559
H  34.910  57.187  69.858
H  31.939  49.421  50.071
H  43.218  38.106  59.095
H  66.906  60.581  54.560
H  70.607  65.902  52.458
H  65.980  61.427  53.610
H  36.029  43.538  74.405
H  29.359  60.235  60.339
H  61.058  57.916  54.629
H  61.301  57.202  53.279
H  28.097  60.834  61.005
H  75.540  43.921  40.206
H  75.817  45.407  40.528
H  31.115  50.218  49.066
H  49.495  65.501  51.640
H  64.707  64.452  41.311
H  34.787  44.436  74.319
H  64.884  33.965  60.535
H  43.380  64.148  38.897
H  55.929  70.265  45.667
H  37.030  56.617  71.387
H  36.304  55.352  70.940
H  28.104  44.945  47.030
H  58.728  46.000  58.327
H  66.863  64.326  61.695
H  66.790  65.845  61.588
H  48.773  75.719  43.400
H  36.475  54.944  35.723
H  35.761  53.827  36.509
H  46.062  23.129  53.733
H  42.787  65.456  39.495
H  65.744  62.038  58.257
H  43.555  51.250  66.142
H  35.892  56.547  64.021
H  37.056  57.473  64.352
H  47.199  62.235  47.552
H  46.177  61.103  47.618
H  52.357  47.289  32.328
H  61.477  38.996  38.822
H  62.723  38.320  38.168
H  50.902  46.927  32.370
H  54.422  70.613  45.655
H  66.052  60.728  59.020
H  64.220  32.578  60.349
H  64.485  65.689  42.203
H  66.752  36.807  46.746
H  47.106  75.663  41.566
H  54.305  46.331  59.508
H  53.762  44.908  59.406
H  46.566  75.288  40.155
H  37.060  61.003  46.254
H  36.419  59.691  45.772
H  70.426  47.072  44.570
H  61.809  67.792  47.864
H  59.879  35.406  50.080
H  59.855  33.902  50.088
H  25.121  41.176  48.956
H  34.101  34.935  46.580
H  57.226  62.942  38.687
H  37.876  42.068  67.527
H  37.614  43.533  67.834
H  40.904  40.241  69.402
H  42.412  40.444  69.300
H  28.262  57.083  56.808
H  36.403  40.504  59.697
H  37.916  40.430  59.948
H  28.893  56.523  55.499
H  34.307  35.904  47.775
H  47.933  56.317  75.466
H  26.108  41.025  50.110
H  51.136  63.017  53.293
H  49.748  62.381  53.021
H  66.669  35.397  46.161
H  39.001  28.200  60.871
H  37.944  28.753  59.909
H  61.813  66.859  49.073
H  49.946  37.264  54.955
H  49.014  38.411  54.468
H  51.016  65.309  51.606
H  42.580  38.924  60.205
H  43.949  66.451  67.726
H  36.251  51.984  64.787
H  54.677  50.256  63.855
H  58.895  59.099  67.767
H  63.039  59.339  64.377
H  64.299  58.966  65.169
H  57.783  58.044  67.967
H  44.297  45.908  76.118
H  44.833  45.023  74.961
H  49.263  65.934  45.510
H  48.575  66.784  44.469
H  48.711  56.651  61.448
H  36.890  51.912  63.388
H  47.880  55.373  61.736
H  70.358  45.524  44.500
H  53.024  42.463  43.281
H  47.595  54.305  30.124
H  39.066  40.139  43.737
H  74.208  38.707  52.582
H  26.318  61.943  60.895
H  43.838  39.180  53.308
H  60.159  36.026  67.753
H  26.947  62.123  62.327
H  23.584  54.799  44.386
H  23.715  53.392  45.013
H  57.919  70.603  67.400
H  57.329  71.859  68.067
H  47.062  35.854  59.221
H  72.088  48.807  65.633
H  61.593  33.146  59.755
H  70.571  48.785  65.853
H  42.334  39.501  53.028
H  36.957  38.520  69.276
H  38.382  35.291  49.866
H  37.542  37.294  68.547
H  59.069  38.305  71.543
H  60.618  66.986  65.742
H  61.719  66.915  66.819
H  59.124  39.316  72.706
H  51.252  46.253  62.867
H  51.474  46.099  64.393
H  47.557  37.441  58.787
H  46.167  64.664  49.947
H  59.038  58.969  27.671
H  41.431  55.497  48.183
H  50.485  21.909  53.109
H  50.662  22.177  54.641
H  51.487  72.529  57.622
H  51.580  59.563  40.955
H  50.980  60.884  41.440
H  52.233  71.193  57.562
H  51.548  53.946  25.763
H  51.040  53.079  24.584
H  54.222  66.153  35.358
H  54.691  64.763  35.802
H  40.212  55.825  47.297
H  72.972  60.877  61.216
H  57.592  59.160  28.100
H  72.895  59.548  62.066
H  46.162  72.229  57.148
H  47.427  71.367  57.074
H  42.288  48.208  65.256
H  43.726  48.795  65.295
H  25.169  59.824  41.866
H  51.583  21.523  50.773
H  51.527  20.216  51.571
H  26.191  59.934  40.723
H  37.387  48.355  29.904
H  36.840  48.761  31.291
H  45.670  63.231  50.242
H  36.958  34.886  50.312
H  69.200  43.345  69.645
H  58.180  59.246  70.278
H  44.669  61.029  58.859
H  35.853  48.681  41.816
H  65.083  35.584  37.190
H  65.152  36.058  38.656
H  54.261  64.195  50.425
H  44.679  78.636  50.879
H  36.438  43.765  27.311
H  35.449  44.359  26.326
H  55.558  57.178  28.878
H  49.962  37.536  31.167
H  45.627  39.734  33.078
H  58.210  66.251  54.232
H  58.876  65.602  53.038
H  46.360  40.901  33.813
H  47.692  60.640  39.210
H  48.972  61.309  38.640
H  34.023  59.558  32.830
H  32.756  59.017  33.495
H  71.652  57.612  44.553
H  59.294  49.338  54.420
H  50.506  36.582  32.250
H  61.734  32.240  60.998
H  55.599  58.438  28.025
H  57.194  68.869  60.579
H  29.402  42.665  53.114
H  29.864  42.682  54.599
H  43.758  79.737  50.334
H  60.595  65.651  30.359
H  44.904  60.102  60.060
H  32.627  52.364  53.223
H  33.219  53.739  52.909
H  41.481  42.756  39.107
H  69.711  33.503  53.448
H  68.260  33.624  53.852
H  69.582  42.777  71.030
H  41.350  42.705  40.626
H  65.916  60.259  41.913
H  57.228  64.589  55.809
H  56.054  65.507  55.361
H  39.786  32.970  48.354
H  54.102  65.662  50.015
H  39.367  33.031  49.831
H  60.873  64.552  31.398
H  46.798  62.012  43.754
H  47.471  61.263  44.911
H  56.742  67.926  61.712
H  66.492  61.575  41.374
H  70.048  38.299  62.836
H  32.534  49.999  62.455
H  52.880  35.474  65.059
H  38.701  58.932  57.063
H  38.906  59.155  55.566
H  61.203  56.935  43.497
H  43.782  31.058  38.335
H  44.704  32.297  38.201
H  56.308  51.234  73.637
H  55.581  50.906  72.318
H  42.066  35.927  49.277
H  52.675  35.291  62.402
H  42.882  35.415  50.510
H  61.136  57.821  44.744
H  51.836  25.957  52.302
H  49.255  61.626  71.932
H  39.988  36.824  64.451
H  38.536  37.360  64.313
H  55.243  25.307  45.418
H  56.437  53.375  68.681
H  56.113  54.897  68.725
H  55.684  24.060  44.625
H  52.659  34.412  61.133
H  36.522  42.331  56.357
H  37.392  43.128  57.359
H  50.389  61.145  71.036
H  47.238  45.983  29.864
H  35.023  31.951  58.703
H  35.499  56.513  47.154
H  39.402  70.926  60.786
H  29.002  33.251  55.307
H  39.611  50.530  72.068
H  39.500  49.143  72.671
H  28.689  31.764  55.622
H  37.644  69.179  46.286
H  62.202  26.430  46.434
H  70.179  54.267  60.187
H  69.372  54.353  58.912
H  73.066  53.904  55.840
H  33.848  31.080  59.183
H  64.651  54.976  32.983
H  72.321  52.716  55.167
H  46.403  65.689  33.502
H  47.768  65.058  33.875
H  61.493  61.479  40.267
H  62.276  60.695  41.374
H  47.744  45.701  28.445
H  47.760  31.714  52.997
H  63.258  26.485  47.560
H  40.358  64.879  31.154
H  53.229  26.509  51.995
H  63.700  53.757  33.204
H  47.450  26.632  51.951
H  44.884  30.216  31.395
H  50.891  59.513  35.309
H  72.172  57.219  42.158
H  72.108  56.966  40.626
H  69.480  60.154  48.288
H  26.322  67.171  45.806
H  26.476  65.769  46.443
H  69.790  61.572  48.788
H  48.500  37.658  72.978
H  49.174  37.113  71.734
H  48.410  65.562  42.680
H  47.235  66.335  42.037
H  72.968  44.643  58.070
H  32.041  60.435  37.403
H  30.171  47.146  46.398
H  32.001  61.958  37.437
H  59.257  48.535  40.877
H  60.377  47.501  40.944
H  54.892  65.162  63.594
H  53.504  65.585  64.146
H  38.750  37.999  26.926
H  51.489  75.948  44.219
H  50.799  75.285  43.026
H  38.983  39.333  27.644
H  29.472  47.998  45.331
H  66.041  59.320  52.715
H  65.880  59.083  51.238
H  60.162  68.662  39.535
H  52.096  58.916  36.047
H  45.286  29.592  30.044
H  70.393  46.608  49.840
H  69.293  45.506  49.761
H  63.427  51.669  41.801
H  61.909  52.054  41.924
H  47.995  26.124  53.268
H  67.447  53.249  40.857
H  67.556  52.703  42.283
H  38.652  49.054  44.061
H  73.912  45.263  57.037
H  39.188  49.852  42.865
H  34.864  40.930  41.145
H  35.720  39.651  40.897
H  35.323  31.735  49.781
H  49.666  70.852  50.195
H  49.835  72.249  49.608
H  36.100  30.428  50.104
H  60.161  67.470  37.831
H  60.926  67.301  36.475
H  55.814  63.128  67.936
H  56.319  63.976  69.123
H  59.020  68.299  40.451
H  58.054  49.369  55.319
H  47.734  53.011  30.899
H  70.995  58.832  43.897
H  57.361  71.156  55.597
H  35.587  40.250  50.811
H  35.754  41.329  49.725
H  64.939  38.859  57.194
H  68.800  45.343  56.640
H  69.707  45.679  57.819
H  46.708  64.486  31.324
H  46.664  66.000  31.276
H  69.176  63.876  39.841
H  44.380  58.601  49.519
H  43.602  59.436  48.515
H  52.996  68.457  42.521
H  68.329  62.699  39.319
H  54.456  68.801  42.917
H  42.751  66.298  61.249
H  46.023  51.773  36.972
H  57.301  67.669  45.801
H  31.118  55.151  48.113
H  30.671  55.124  46.664
H  57.732  68.966  45.039
H  69.943  42.128  60.358
H  69.011  42.846  59.366
H  32.784  60.268  30.872
H  58.049  34.605  53.636
H  31.620  61.297  30.882
H  64.042  39.251  56.014
H  30.580  43.937  27.929
H  42.640  56.488  52.705
H  42.340  57.606  51.703
H  50.456  51.553  61.022
H  31.686  64.720  42.181
H  32.313  65.735  43.199
H  65.422  44.967  53.754
H  66.865  44.443  53.702
H  59.937  44.207  72.846
H  46.385  30.038  38.469
H  59.252  58.151  70.092
H  42.443  59.246  67.424
H  57.379  62.877  72.251
H  41.409  59.945  66.478
H  43.580  74.655  50.482
H  42.490  73.900  51.244
H  42.590  37.888  26.712
H  41.055  38.155  26.589
H  57.234  54.602  43.954
H  51.405  37.727  28.328
H  52.615  37.342  29.207
H  55.728  54.411  43.638
H  31.858  44.427  28.629
H  61.285  67.468  61.818
H  49.640  50.318  60.646
H  45.602  51.260  35.577
H  35.608  42.333  58.801
H  50.458  58.868  24.036
H  51.915  58.455  24.329
H  40.439  74.921  51.935
H  55.842  40.330  44.931
H  61.292  52.373  54.125
H  44.919  62.927  31.537
H  46.276  62.366  32.045
H  62.272  52.052  55.244
H  37.658  39.671  44.210
H  64.773  36.986  31.856
H  47.987  53.809  36.718
H  34.950  54.495  66.152
H  45.221  28.270  46.502
H  41.487  32.125  54.428
H  42.493  31.326  55.301
H  69.945  47.240  63.560
H  71.292  46.504  63.256
H  61.578  55.508  48.102
H  45.970  75.682  57.645
H  74.431  39.465  53.920
H  57.616  73.077  63.653
H  58.493  74.177  63.030
H  35.343  53.916  64.819
H  35.057  43.031  60.061
H  44.632  49.177  63.271
H  47.989  54.670  38.007
H  44.263  55.272  57.180
H  56.926  34.739  52.603
H  43.342  55.498  58.371
H  70.163  59.756  53.348
H  71.404  59.000  53.893
H  59.704  64.026  67.961
H  56.365  68.711  41.508
H  57.061  69.080  42.847
H  60.112  64.457  69.374
H  37.608  66.831  47.956
H  46.147  49.093  63.354
H  37.405  68.324  48.293
H  29.041  42.541  40.755
H  71.412  52.740  63.239
H  72.876  53.175  63.215
H  56.311  41.715  45.397
H  41.028  75.832  53.014
H  60.864  56.436  47.066
H  64.819  32.643  38.196
H  63.809  33.406  37.308
H  66.979  69.801  34.746
H  65.914  69.947  35.848
H  30.460  41.922  40.730
H  68.301  40.706  34.626
H  68.771  39.237  34.451
H  63.837  53.939  53.064
H  52.740  67.527  34.883
H  54.966  33.330  60.226
H  62.289  62.607  57.971
H  62.157  62.205  59.411
H  48.402  35.739  55.349
H  40.335  42.026  55.105
H  40.634  28.239  48.775
H  59.731  71.617  38.709
H  55.865  39.973  37.006
H  35.020  48.410  29.575
H  51.810  68.645  35.333
H  42.177  50.129  30.588
H  64.496  32.558  41.658
H  65.842  31.831  41.722
H  26.304  37.566  45.472
H  58.897  32.137  47.667
H  60.028  31.281  47.110
H  26.075  38.679  44.409
H  62.565  60.054  29.972
H  62.190  59.464  31.356
H  56.122  41.111  35.946
H  32.187  57.140  42.723
H  41.524  51.504  30.800
H  63.855  63.918  70.769
H  54.982  32.093  61.081
H  34.900  33.782  34.746
H  28.581  50.240  67.074
H  29.371  49.705  68.302
H  36.308  48.322  43.249
H  60.038  36.251  69.242
H  59.403  70.145  38.450
H  58.248  61.608  72.134
H  67.843  44.704  58.660
H  41.770  41.515  55.053
H  59.612  31.142  42.815
H  59.260  50.372  33.623
H  33.442  34.241  35.074
H  58.559  51.248  32.571
H  73.207  43.291  49.464
H  73.006  41.784  49.590
H  30.571  55.865  43.061
H  30.099  54.851  41.979
H  41.743  29.601  54.306
H  67.360  44.326  60.095
H  41.844  28.431  55.311
H  40.059  27.415  49.922
H  48.034  60.044  46.328
H  49.315  59.872  45.462
H  59.888  30.541  41.414
H  51.790  50.493  23.228
H  50.431  51.143  23.321
H  64.284  62.910  69.678
H  39.787  73.026  54.224
H  41.163  72.331  54.276
H  65.183  68.417  57.774
H  33.442  46.989  43.831
H  33.263  46.913  42.348
H  64.402  69.719  57.438
H  59.991  51.102  58.782
H  58.838  51.604  59.642
H  41.848  25.584  54.249
H  41.117  26.888  53.925
H  60.004  60.050  31.669
H  59.888  45.395  73.815
H  39.440  60.014  72.999
H  50.447  59.461  32.857
H  49.711  60.530  33.724
H  63.405  49.906  70.553
H  62.593  48.987  69.589
H  41.220  68.818  38.242
H  29.761  42.867  29.852
H  28.843  41.642  30.049
H  41.108  70.354  38.042
H  64.539  55.280  53.231
H  45.067  29.310  38.068
H  59.536  60.622  30.285
H  64.240  42.487  36.264
H  50.616  39.962  37.368
H  70.957  44.035  55.584
H  72.370  44.692  55.514
H  25.410  54.134  62.577
H  23.919  53.797  62.774
H  31.863  57.686  44.137
H  32.290  49.189  34.421
H  32.867  48.120  33.505
H  48.730  34.811  56.530
H  38.363  60.259  71.907
H  51.867  39.408  38.027
H  34.989  45.648  45.023
H  27.470  39.231  60.865
H  26.783  38.656  59.600
H  50.055  40.806  62.364
H  29.483  49.941  34.949
H  29.355  50.827  33.668
H  48.865  40.002  61.851
H  52.942  61.267  29.512
H  53.989  60.224  29.966
H  27.720  45.403  40.018
H  26.882  44.835  38.874
H  64.127  43.465  35.120
H  36.427  46.112  44.873
H  57.500  72.671  55.584
H  62.001  59.569  68.325
H  36.186  53.590  72.459
H  31.617  46.111  55.875
H  42.680  63.831  45.920
H  44.080  63.489  45.436
H  43.337  65.467  28.801
H  69.109  31.538  54.784
H  70.442  30.967  55.227
H  41.879  65.965  28.822
H  56.404  59.167  52.392
H  55.071  59.195  51.611
H  33.742  47.044  56.615
H  68.858  61.348  42.433
H  38.544  31.133  54.441
H  50.332  32.082  28.788
H  61.990  46.264  33.202
H  67.686  60.447  42.886
H  49.916  36.692  64.145
H  50.994  37.622  63.515
H  67.315  61.572  62.308
H  68.271  60.598  63.006
H  65.657  51.424  42.296
H  53.112  56.673  24.108
H  52.960  55.407  25.003
H  65.352  50.530  43.517
H  62.073  46.677  34.680
H  40.407  45.874  47.285
H  37.234  30.798  55.127
H  49.573  34.235  70.851
H  56.720  68.879  64.261
H  24.491  42.513  41.595
H  25.991  42.264  41.579
H  55.247  34.255  49.172
H  44.668  62.200  38.681
H  45.635  61.052  39.061
H  55.410  34.563  50.652
H  60.854  62.810  32.609
H  47.357  62.286  51.972
H  47.884  54.725  33.404
H  32.592  47.093  57.645
H  48.359  55.691  32.301
H  43.726  53.574  59.277
H  44.140  53.040  60.661
H  47.397  50.887  39.096
H  49.992  60.446  53.960
H  50.181  59.409  55.060
H  46.717  24.428  51.272
H  46.865  23.002  50.666
H  32.090  31.989  45.140
H  60.625  23.860  48.664
H  49.465  35.077  72.138
H  47.274  52.329  38.557
H  58.208  69.184  64.322
H  36.756  26.824  42.758
H  39.390  44.798  47.656
H  73.588  39.734  47.342
H  68.672  49.395  64.665
H  28.104  58.209  50.440
H  59.118  64.502  48.589
H  58.784  63.148  47.866
H  34.172  36.783  67.041
H  35.619  37.293  67.289
H  34.796  41.253  64.298
H  31.852  50.840  65.425
H  30.766  51.106  66.512
H  51.775  34.132  71.697
H  35.193  41.168  65.801
H  64.068  48.857  59.943
H  27.873  59.101  51.669
H  65.612  48.730  59.825
H  64.086  62.437  56.425
H  45.859  40.772  66.265
H  47.299  40.345  66.541
H  63.451  61.079  56.595
H  58.973  57.651  54.662
H  58.287  56.717  53.606
H  39.784  46.438  70.542
H  73.785  38.443  46.599
H  36.092  27.316  44.083
H  62.703  51.392  33.817
H  59.079  27.487  55.681
H  51.168  41.384  68.075
H  52.472  40.608  67.772
H  51.009  30.922  28.033
H  62.944  41.031  60.917
H  62.911  42.336  60.081
H  65.234  65.526  48.345
H  63.930  66.141  48.887
H  37.835  72.647  49.395
H  43.195  39.127  75.228
H  42.077  38.154  75.681
H  61.922  34.976  58.000
H  38.607  73.048  48.157
H  44.558  59.884  69.013
H  54.341  63.849  65.575
H  54.101  64.294  67.021
H  52.856  33.495  63.763
H  29.006  43.440  51.289
H  29.424  42.086  50.731
H  53.697  32.766  62.710
H  27.052  41.334  59.442
H  27.056  42.193  58.157
H  58.327  27.758  54.382
H  43.885  58.503  68.863
H  68.662  57.816  54.729
H  58.991  49.624  45.473
H  57.746  49.247  46.302
H  57.326  52.064  30.785
H  37.496  39.399  71.180
H  38.008  40.786  70.699
H  29.645  38.702  56.782
H  50.786  52.293  71.496
H  29.927  61.812  36.573
H  40.173  72.276  39.616
H  40.785  72.975  38.391
H  29.227  62.528  35.417
H  59.325  36.049  57.608
H  66.839  58.965  65.295
H  59.223  36.037  56.044
H  48.742  33.747  54.197
H  35.752  51.855  35.742
H  42.975  52.060  54.750
H  41.729  51.699  53.938
H  70.456  34.843  42.491
H  71.057  34.786  41.042
H  49.430  45.335  32.443
H  50.938  41.458  73.687
H  64.276  40.067  31.036
H  68.835  67.482  48.851
H  49.974  33.000  53.697
H  67.984  68.124  47.709
H  66.386  60.077  64.391
H  35.901  54.554  47.847
H  47.240  35.901  45.163
H  49.173  28.266  62.717
H  36.909  33.027  33.849
H  50.591  27.804  62.444
H  34.162  39.387  49.521
H  32.857  39.871  50.120
H  61.437  50.898  51.364
H  71.923  36.227  38.995
H  73.021  35.194  39.323
H  61.932  49.974  50.249
H  57.000  50.571  30.907
H  65.913  72.046  52.878
H  69.989  54.339  62.076
H  69.116  55.537  61.634
H  28.101  59.089  55.853
H  28.260  60.243  54.836
H  50.215  50.871  71.534
H  30.752  37.686  56.427
H  49.948  43.934  32.704
H  47.296  33.721  69.879
H  46.375  33.981  71.092
H  37.367  54.523  48.362
H  67.442  72.123  52.981
H  64.042  39.894  32.547
H  46.986  69.626  66.596
H  48.391  69.046  66.239
H  72.116  39.250  57.019
H  65.578  48.154  53.038
H  66.940  48.114  53.739
H  53.921  67.811  57.167
H  52.398  67.546  57.109
H  64.186  37.083  40.579
H  32.260  31.314  46.492
H  63.158  36.001  40.199
H  72.058  64.965  41.791
H  51.494  58.052  68.282
H  60.047  45.932  56.556
H  53.024  57.776  68.101
H  56.665  43.233  60.452
H  39.215  46.541  29.063
H  31.426  50.032  28.754
H  32.214  50.786  27.678
H  39.232  45.872  30.459
H  61.047  24.722  47.447
H  41.349  44.806  49.531
H  48.379  61.485  51.106
H  70.501  54.670  55.381
H  59.699  62.037  31.943
H  57.337  41.859  60.468
H  60.993  45.268  55.507
H  70.730  39.886  57.194
H  36.099  47.748  39.611
H  46.290  32.084  33.673
H  46.747  31.417  34.980
H  72.032  52.398  48.875
H  61.417  42.831  28.642
H  60.089  42.163  28.988
H  73.222  52.220  49.830
H  49.621  58.296  28.135
H  50.990  57.681  28.296
H  63.612  36.273  54.699
H  62.818  35.023  55.129
H  58.973  31.824  51.400
H  72.195  49.858  54.547
H  73.117  50.879  55.233
H  58.538  33.187  51.955
H  29.727  55.562  50.325
H  30.586  56.747  49.795
H  51.419  40.592  74.874
H  66.357  55.294  60.715
H  70.404  53.753  56.600
H  68.217  58.541  53.430
H  70.927  65.172  40.737
H  41.952  45.496  50.792
H  37.289  47.196  38.896
H  38.489  45.788  71.049
H  46.690  37.205  44.502
H  41.185  33.422  39.729
H  68.193  48.055  65.278
H  48.713  35.576  66.064
H  38.110  48.663  54.353
H  36.847  49.073  53.625
H  49.306  34.584  65.089
H  43.928  60.578  66.772
H  42.919  61.364  65.906
H  56.793  47.398  68.765
H  35.235  47.700  47.299
H  49.502  41.272  33.258
H  48.144  40.933  32.634
H  74.464  42.094  46.720
H  41.286  31.587  67.513
H  60.507  38.525  46.669
H  38.354  72.123  45.374
H  38.904  73.404  45.986
H  66.966  42.056  50.177
H  66.506  42.467  51.600
H  40.935  46.422  37.381
H  68.181  40.235  66.786
H  68.336  39.262  65.591
H  41.528  47.567  36.568
H  40.227  31.750  66.382
H  50.454  53.104  33.395
H  30.828  32.831  38.968
H  74.976  41.680  48.128
H  59.005  68.549  68.466
H  29.808  58.379  42.961
H  28.481  58.741  43.687
H  34.022  48.026  46.442
H  75.673  50.983  42.529
H  76.759  49.969  42.897
H  59.477  35.848  47.057
H  35.531  28.736  54.586
H  42.658  44.058  75.120
H  36.974  38.571  53.500
H  52.962  33.780  70.754
H  59.719  68.647  67.130
H  64.540  42.159  53.693
H  67.358  57.930  42.839
H  63.341  42.728  52.884
H  63.729  61.917  53.177
H  64.718  62.542  52.130
H  40.008  61.563  31.444
H  40.592  62.749  30.703
H  75.303  51.501  56.403
H  36.506  38.369  54.964
H  75.504  52.114  55.007
H  55.301  47.713  69.018
H  66.338  58.280  41.745
H  52.840  74.773  48.378
H  35.312  44.198  62.595
H  41.735  75.398  57.321
H  59.097  44.335  42.073
H  59.176  44.085  43.543
H  54.425  36.984  72.189
H  53.211  36.035  71.989
H  34.123  45.113  28.211
H  34.645  62.601  45.625
H  34.171  62.220  47.025
H  33.772  46.528  28.716
H  32.898  48.186  54.793
H  31.503  48.906  54.783
H  57.467  38.055  31.585
H  32.429  63.321  47.111
H  32.550  67.236  44.690
H  45.249  46.341  41.207
H  38.007  52.624  57.999
H  39.080  58.440  29.479
H  39.546  59.716  30.242
H  38.204  54.082  57.449
H  42.843  45.053  65.377
H  43.424  46.475  65.577
H  37.250  48.112  64.445
H  38.001  48.595  63.190
H  36.839  62.767  51.353
H  32.088  33.254  38.189
H  56.826  62.927  64.647
H  56.532  39.233  31.773
H  50.607  24.711  41.178
H  51.371  26.019  40.895
H  41.725  75.619  55.785
H  36.057  45.193  40.583
H  35.525  46.203  41.622
H  43.965  42.285  56.209
H  44.103  42.938  57.609
H  64.281  40.626  35.000
H  42.439  42.585  74.706
H  50.965  54.175  32.388
H  56.839  61.724  63.625
H  61.799  39.251  46.322
H  43.550  37.032  37.703
H  35.664  42.822  63.161
H  73.761  36.867  44.575
H  45.407  57.150  22.027
H  45.815  57.097  23.523
H  72.823  36.692  43.369
H  68.565  65.339  41.357
H  68.640  66.543  40.376
H  60.799  37.842  59.250
H  59.810  37.721  60.436
H  44.196  38.242  37.059
H  52.671  73.372  47.696
H  56.102  40.548  50.123
H  42.543  50.520  68.999
H  42.246  51.902  62.532
H  40.096  43.672  24.989
H  42.443  32.781  39.061
H  34.852  30.304  47.041
H  54.779  71.771  39.343
H  53.056  37.573  63.053
H  53.559  38.388  64.251
H  52.552  48.680  35.495
H  62.071  47.419  60.618
H  61.593  47.562  59.168
H  43.287  50.790  62.447
H  37.835  50.491  73.687
H  28.741  35.836  45.932
H  43.036  63.873  49.800
H  43.277  65.029  48.824
H  29.230  35.635  47.382
H  56.292  71.796  39.520
H  35.266  31.404  46.052
H  45.868  56.313  61.376
H  44.679  56.876  62.156
H  67.207  59.130  62.181
H  36.606  64.994  38.740
H  38.090  51.635  74.676
H  37.197  63.655  39.105
H  51.898  71.584  46.636
H  46.939  57.081  73.004
H  40.909  65.667  49.701
H  43.325  42.802  35.168
H  69.417  34.946  36.101
H  39.626  75.064  55.522
H  39.186  75.135  54.058
H  70.310  41.916  50.086
H  64.725  71.078  46.599
H  65.166  69.786  47.292
H  69.302  43.061  49.849
H  43.549  34.339  45.346
H  48.079  57.761  73.797
H  42.354  35.259  45.575
H  32.318  41.695  45.497
H  32.265  38.534  48.027
H  68.861  36.374  36.312
H  39.671  65.908  48.839
H  32.348  38.406  46.495
H  38.904  31.541  61.617
H  37.356  31.813  61.622
H  68.161  30.188  50.767
H  68.026  28.799  50.097
H  50.952  71.196  47.734
H  31.115  42.181  44.688
H  66.343  57.911  61.795
H  67.405  45.872  40.781
H  66.363  46.989  40.963
H  68.507  33.385  49.689
H  47.137  37.398  33.205
H  27.479  55.042  52.155
H  43.837  41.626  35.998
H  65.527  41.109  34.214
H  31.006  63.969  47.164
H  57.148  36.697  33.228
H  36.290  28.845  55.919
H  22.398  43.280  50.513
H  23.514  42.372  49.907
H  68.001  34.051  48.421
H  67.944  49.724  61.664
H  60.667  60.523  44.650
H  71.617  63.454  49.114
H  70.388  63.609  48.138
H  61.260  59.824  45.879
H  57.618  42.254  34.203
H  56.335  41.918  33.465
H  58.407  36.105  32.555
H  60.721  36.694  46.790
H  57.037  40.960  51.273
H  43.830  50.937  69.724
H  68.082  50.620  60.452
H  47.292  37.508  31.711
H  45.213  48.918  57.343
H  46.181  48.532  56.196
H  43.560  65.352  36.107
H  42.397  66.125  35.430
H  37.350  62.871  49.910
H  51.032  48.814  35.584
H  46.863  70.181  61.557
H  47.781  70.709  60.440
H  27.977  56.241  51.353
H  43.668  42.682  37.927
H  44.809  43.763  37.843
H  73.200  57.073  54.235
H  46.986  59.666  60.833
H  46.759  58.169  61.148
H  72.774  57.549  52.853
H  40.166  75.090  44.743
H  40.064  75.280  46.300
H  45.090  36.958  31.284
H  43.647  37.495  31.118
H  44.874  35.623  47.047
H  63.065  55.016  30.173
H  62.978  53.806  31.150
H  45.586  36.887  46.632
H  37.098  63.263  44.353
H  35.641  62.950  43.869
H  40.905  43.403  26.260
H  63.524  59.804  68.436
H  40.852  40.856  34.070
H  53.331  41.404  24.451
H  60.858  37.518  48.864
H  63.658  44.299  31.022
H  63.378  45.812  31.193
H  49.245  62.719  58.203
H  46.566  69.024  38.295
H  45.304  68.755  37.460
H  48.212  63.826  58.415
H  50.315  39.381  27.132
H  49.214  39.445  28.205
H  63.197  45.083  54.202
H  60.913  62.028  54.233
H  63.425  43.996  55.252
H  23.349  51.578  50.998
H  21.901  51.055  50.843
H  30.880  45.039  36.251
H  63.419  37.783  50.137
H  64.768  37.218  50.677
H  50.427  55.676  31.012
H  49.699  56.833  30.316
H  39.649  53.122  73.813
H  53.657  71.953  41.207
H  52.915  72.855  40.181
H  30.021  43.940  36.951
H  40.434  52.132  74.733
H  60.510  63.243  55.129
H  44.932  56.669  52.332
H  48.513  57.166  38.558
H  65.200  67.883  49.123
H  43.119  48.934  60.861
H  43.407  47.993  62.020
H  34.891  40.657  25.736
H  35.212  41.823  26.699
H  46.672  58.203  38.809
H  56.353  37.962  35.541
H  55.959  38.455  34.113
H  67.158  50.465  58.347
H  46.157  57.170  51.564
H  61.394  38.745  49.682
H  66.511  29.855  45.499
H  67.853  30.135  46.212
H  37.784  30.771  59.619
H  37.786  38.247  41.575
H  38.198  39.407  40.639
H  37.172  31.161  58.259
H  63.423  33.458  45.999
H  63.483  33.281  44.474
H  45.235  39.616  70.973
H  45.025  39.080  72.390
H  67.872  49.179  58.792
H  47.712  56.458  39.689
H  45.995  28.846  47.724
H  35.834  52.585  34.389
H  48.731  59.342  69.012
H  46.806  52.638  27.930
H  31.247  60.015  59.018
H  35.004  71.066  53.025
H  47.441  51.526  27.103
H  54.923  34.221  30.625
H  53.579  34.567  29.928
H  29.222  61.166  58.351
H  28.345  62.151  57.554
H  63.274  37.428  65.842
H  53.114  28.401  30.376
H  51.427  39.083  41.555
H  62.839  38.794  66.348
H  31.585  61.521  59.077
H  55.999  51.204  47.510
H  37.009  56.262  53.580
H  56.699  50.581  48.751
H  63.303  55.160  49.653
H  65.393  36.650  57.360
H  65.539  36.427  55.839
H  64.656  55.830  49.930
H  41.863  70.544  61.609
H  50.034  39.275  42.216
H  55.700  42.891  40.283
H  34.907  47.604  61.936
H  42.430  52.538  26.749
H  39.240  34.171  66.746
H  44.051  37.913  48.421
H  43.028  37.815  49.558
H  57.081  72.026  35.946
H  41.744  69.532  64.741
H  41.983  70.865  65.479
H  56.266  72.492  37.169
H  52.041  27.843  58.153
H  53.506  27.589  57.778
H  47.858  73.432  60.296
H  36.370  48.094  61.797
H  46.718  73.944  61.183
H  39.297  35.652  66.345
H  54.397  29.252  30.528
H  56.101  26.847  49.376
H  57.400  43.214  28.031
H  58.368  42.152  27.514
H  36.695  47.320  36.838
H  36.193  45.904  37.212
H  41.100  53.180  26.268
H  33.770  45.170  36.821
H  34.840  44.072  36.918
H  56.790  27.679  50.476
H  66.446  68.737  49.101
H  45.510  59.190  38.505
H  26.668  58.430  57.975
H  45.848  45.315  31.393
H  41.350  72.003  44.331
H  54.850  45.826  63.707
H  53.573  46.620  63.366
H  52.510  32.392  53.474
H  51.873  31.669  54.685
H  35.657  58.473  32.125
H  29.793  37.313  60.219
H  30.165  38.647  60.959
H  36.680  58.164  33.237
H  46.591  43.960  31.176
H  34.407  63.632  41.216
H  30.988  44.291  66.058
H  30.495  43.311  64.962
H  26.990  58.179  64.940
H  55.506  37.264  37.380
H  56.807  37.820  37.984
H  56.967  32.133  41.013
H  31.569  41.589  54.254
H  70.264  51.779  61.300
H  71.182  50.888  66.255
H  58.704  71.091  65.532
H  34.005  63.919  39.781
H  59.034  71.641  64.136
H  42.412  71.189  43.622
H  44.354  48.578  76.626
H  30.493  46.546  54.898
H  28.387  52.224  51.498
H  45.788  28.288  54.273
H  29.852  51.870  51.310
H  30.751  63.758  43.857
H  57.496  32.202  34.880
H  56.336  31.400  34.279
H  35.185  62.110  49.323
H  34.703  60.788  48.763
H  64.182  34.358  35.265
H  44.689  49.897  75.846
H  37.418  53.452  71.580
H  63.134  35.387  35.661
H  31.837  53.221  44.758
H  32.392  54.231  45.755
H  27.010  43.472  60.691
H  61.384  27.747  59.445
H  27.791  50.373  57.579
H  27.998  49.867  59.032
H  27.959  58.528  66.111
H  30.062  55.770  57.420
H  31.226  54.801  57.250
H  40.460  69.899  60.293
H  48.224  26.329  44.234
H  62.354  59.878  73.337
H  61.190  59.037  73.947
H  60.604  49.989  32.018
H  61.274  50.128  30.642
H  42.545  34.906  61.061
H  70.230  62.164  41.086
H  71.662  61.905  41.554
H  65.814  38.865  30.193
H  65.028  37.584  29.845
H  74.365  38.865  56.309
H  59.274  36.751  39.270
H  74.156  40.379  56.162
H  41.263  35.477  60.421
H  48.378  65.833  59.425
H  59.195  49.668  70.577
H  71.347  48.699  31.971
H  71.625  50.222  31.921
H  25.899  57.906  35.317
H  62.907  45.364  46.051
H  63.048  43.887  46.439
H  26.498  57.966  36.742
H  57.976  37.270  39.893
H  70.057  61.156  51.408
H  71.248  61.251  50.464
H  60.651  50.094  70.275
H  50.565  78.498  48.135
H  49.245  77.962  48.689
H  69.450  51.924  62.601
H  57.163  37.436  72.484
H  56.498  36.166  73.030
H  63.012  60.668  61.072
H  44.097  70.000  44.880
H  44.131  69.540  43.412
H  63.979  61.018  59.895
H  71.357  52.208  65.454
H  48.720  41.646  56.556
H  34.299  56.563  67.466
H  34.934  56.740  66.041
H  27.755  63.779  60.331
H  60.388  60.070  38.235
H  61.215  58.867  37.730
H  27.840  65.281  60.045
H  51.580  34.751  28.922
H  51.366  35.384  30.327
H  61.339  52.717  69.783
H  62.231  51.487  69.633
H  27.840  59.449  57.861
H  48.710  25.746  45.583
H  49.949  40.775  56.818
H  56.792  33.265  42.049
H  48.010  66.552  58.090
H  43.278  70.236  61.094
H  53.464  41.542  25.951
H  54.196  62.343  55.924
H  49.878  60.213  68.512
H  56.812  27.803  34.668
H  32.118  56.416  36.534
H  30.635  56.544  36.247
H  49.608  76.598  60.979
H  31.156  66.834  47.595
H  30.295  67.982  48.110
H  48.849  75.265  60.810
H  30.329  32.939  62.089
H  30.656  34.042  63.102
H  69.337  53.785  40.070
H  55.287  27.698  34.445
H  68.663  55.155  39.818
H  62.360  44.099  33.885
H  46.332  51.447  20.702
H  62.078  34.972  49.893
H  62.865  35.794  50.887
H  24.639  55.899  50.913
H  25.302  57.065  50.135
H  73.549  65.263  43.622
H  64.562  33.850  53.414
H  63.390  33.887  52.387
H  72.577  64.280  44.301
H  38.712  56.403  39.661
H  55.094  60.031  59.287
H  46.431  30.615  67.597
H  38.493  35.243  52.176
H  61.837  65.260  67.952
H  63.268  64.992  68.382
H  66.969  55.043  53.061
H  66.840  56.551  53.365
H  26.378  67.005  52.677
H  33.998  40.567  52.126
H  34.277  39.553  53.249
H  34.258  51.307  31.779
H  46.803  52.126  22.001
H  63.998  40.009  59.198
H  63.901  41.326  58.379
H  37.989  35.180  53.632
H  36.108  52.272  61.157
H  33.417  51.416  56.836
H  27.996  52.652  60.041
H  26.681  53.476  60.122
H  34.107  52.645  57.401
H  33.564  39.655  65.192
H  33.779  38.194  65.635
H  73.368  56.927  46.103
H  72.828  58.359  46.313
H  46.437  31.588  66.406
H  37.229  53.335  61.094
H  50.567  65.669  37.578
H  56.223  60.496  60.244
H  71.095  55.415  34.388
H  56.295  43.586  68.728
H  31.815  64.769  36.771
H  31.959  65.066  35.294
H  60.056  44.609  39.882
H  48.380  34.747  68.429
H  49.870  34.869  68.733
H  28.816  43.514  61.785
H  30.320  43.798  61.531
H  36.848  43.903  47.006
H  34.742  49.832  51.077
H  61.398  44.673  40.606
H  33.460  49.124  51.635
H  36.947  34.267  32.904
H  56.527  43.833  70.222
H  67.538  55.748  59.824
H  39.903  42.052  33.913
H  45.934  29.519  65.358
H  68.785  49.133  49.622
H  69.619  48.396  48.551
H  45.046  29.203  64.097
H  42.034  32.818  44.200
H  41.705  31.358  44.607
H  37.746  44.699  46.053
H  71.093  55.343  35.928
H  52.837  57.537  44.424
H  37.175  57.377  29.318
H  63.522  51.938  53.035
H  29.359  47.204  52.998
H  28.390  48.035  53.866
H  65.066  51.846  53.130
H  50.452  74.526  39.169
H  49.295  73.640  39.654
H  42.382  58.593  71.620
H  43.150  59.898  71.360
H  38.879  55.082  38.870
H  61.959  42.721  34.442
H  37.565  55.965  29.002
H  58.066  63.989  66.182
H  63.035  33.894  58.074
H  53.850  58.725  44.262
H  29.295  36.739  57.949
H  27.992  36.449  58.719
H  30.379  47.738  57.881
H  30.948  48.079  59.244
H  51.677  25.711  34.918
H  47.252  47.412  54.364
H  47.738  45.965  54.614
H  52.446  26.925  34.349
H  43.722  46.304  30.523
H  35.886  57.546  58.807
H  35.044  56.436  59.424
H  50.664  66.482  36.262
H  34.347  49.504  59.683
H  40.096  51.401  61.266
H  57.300  65.337  66.141
H  50.968  57.916  39.563
H  42.215  53.982  53.654
H  40.588  61.576  38.110
H  40.935  60.063  38.428
H  49.683  49.945  64.609
H  29.959  61.369  54.196
H  70.995  53.041  67.743
H  34.998  48.403  58.827
H  71.209  54.497  68.217
H  71.753  66.216  59.513
H  26.784  52.014  56.651
H  53.051  42.521  50.549
H  52.135  41.648  51.352
H  28.018  52.625  55.958
H  59.892  64.320  60.902
H  60.895  64.277  59.747
H  63.489  59.097  37.992
H  63.714  57.732  37.333
H  40.644  56.850  55.709
H  71.016  65.368  60.549
H  55.570  32.540  65.341
H  40.017  51.577  62.813
H  46.140  61.863  70.762
H  36.243  57.329  54.335
H  23.721  56.713  42.539
H  24.722  55.612  42.156
H  31.326  61.820  53.642
H  56.076  61.932  45.378
H  52.292  57.407  40.222
H  65.326  27.132  54.482
H  65.467  28.219  53.411
H  30.200  40.313  35.080
H  77.488  41.954  49.509
H  44.669  61.468  70.529
H  76.612  42.943  48.720
H  62.401  51.868  57.762
H  62.264  53.286  57.184
H  62.918  56.987  64.313
H  62.023  55.819  63.856
H  44.476  34.760  52.027
H  48.371  50.691  64.956
H  45.186  34.232  50.768
H  57.175  61.310  46.259
H  58.545  62.574  55.649
H  58.156  62.336  57.131
H  30.948  41.631  34.798
H  54.334  31.737  65.813
H  41.150  56.099  56.934
H  34.985  55.209  62.445
H  41.474  30.457  37.469
H  53.942  30.058  60.574
H  42.908  64.560  72.979
H  43.736  65.720  72.367
H  34.450  49.770  31.651
H  52.944  45.284  26.265
H  40.237  73.079  57.990
H  37.990  28.936  50.219
H  44.523  50.765  22.430
H  63.494  50.065  33.614
H  40.470  30.941  38.533
H  69.217  42.069  36.927
H  57.846  40.649  46.819
H  59.329  40.262  47.093
H  61.048  72.320  40.315
H  33.870  46.122  50.167
H  34.246  47.308  49.264
H  60.145  72.937  41.369
H  52.368  38.382  45.162
H  52.210  38.467  43.624
H  43.346  49.840  22.909
H  26.702  68.404  53.233
H  68.662  43.475  37.228
H  55.373  29.641  60.156
H  57.019  36.841  44.796
H  55.816  36.225  44.059
H  35.894  53.993  62.649
H  51.355  57.760  77.107
H  50.869  57.807  78.582
H  41.551  55.241  54.257
H  35.472  72.302  52.245
H  38.189  29.389  48.773
H  43.764  46.331  32.068
H  33.252  54.074  50.880
H  54.449  45.092  26.501
H  47.179  40.346  27.550
H  56.190  69.800  39.215
H  57.311  68.746  39.397
H  46.980  40.594  29.044
H  70.164  56.934  39.442
H  71.044  57.571  38.332
H  50.746  52.997  65.001
H  50.384  54.136  64.092
H  57.135  44.764  57.190
H  32.192  55.190  50.898
H  57.146  44.151  58.618
H  39.854  74.512  57.659
H  71.338  53.080  41.714
H  69.904  52.728  42.082
H  55.126  63.102  56.939
H  61.671  41.005  55.920
H  42.179  37.544  57.079
H  46.348  31.147  52.746
H  71.996  49.661  44.922
H  73.251  49.436  45.792
H  63.551  67.444  41.383
H  44.093  37.444  28.906
H  40.768  47.504  68.436
H  37.255  48.015  51.473
H  62.063  51.843  62.639
H  60.830  42.113  63.236
H  58.673  47.776  67.366
H  63.350  35.337  60.477
H  62.653  68.105  42.441
H  62.106  36.095  59.982
H  58.714  53.732  61.359
H  45.043  26.760  42.495
H  40.534  66.895  39.808
H  40.997  66.552  38.395
H  45.543  25.312  42.404
H  56.036  27.592  36.991
H  55.236  27.670  38.312
H  60.922  43.489  62.629
H  44.246  28.408  44.185
H  41.553  63.161  67.116
H  58.065  54.889  62.113
H  70.772  50.613  59.082
H  43.988  41.683  24.184
H  63.555  47.954  55.655
H  65.770  42.324  66.316
H  66.270  41.415  67.490
H  56.524  60.074  62.134
H  42.159  39.596  29.836
H  27.828  43.840  42.651
H  27.346  43.821  41.203
H  44.838  37.659  27.584
H  38.765  52.420  32.365
H  39.325  52.312  30.935
H  56.128  68.589  57.180
H  44.361  43.138  24.537
H  66.203  38.837  41.614
H  55.558  69.524  56.123
H  31.875  58.474  57.444
H  31.524  57.288  58.330
H  63.792  72.175  54.581
H  63.660  71.791  53.091
H  57.791  45.895  43.236
H  62.009  49.848  46.821
H  63.416  49.414  47.192
H  58.254  47.215  42.644
H  64.329  47.265  54.546
H  67.421  38.536  42.507
H  61.437  43.572  44.784
H  71.143  49.338  59.891
H  44.769  55.190  36.809
H  48.741  59.075  25.562
H  45.788  37.764  41.985
H  44.398  57.954  46.172
H  44.822  59.367  46.672
H  45.587  38.984  42.903
H  64.983  32.802  49.507
H  64.405  33.970  50.299
H  40.574  32.514  32.322
H  34.482  37.283  56.227
H  25.880  51.432  65.075
H  49.774  59.805  26.448
H  25.959  52.685  64.182
H  33.303  45.349  34.827
H  38.761  46.875  53.011
H  39.773  66.954  44.175
H  39.478  67.500  42.806
H  40.830  45.054  67.963
H  40.007  43.729  67.970
H  45.174  34.004  65.335
H  37.901  53.538  27.429
H  39.046  53.422  26.391
H  45.023  33.039  66.540
H  65.774  56.157  28.559
H  42.772  63.316  68.044
H  56.118  46.988  74.510
H  40.542  33.211  33.677
H  45.567  53.876  36.945
H  64.857  65.049  34.984
H  64.390  64.183  36.165
H  35.775  36.664  56.760
H  48.685  31.593  67.132
H  49.386  32.800  67.804
H  44.496  26.987  44.667
H  57.465  47.327  66.542
H  30.434  60.851  51.998
H  67.212  61.313  33.863
H  55.833  47.302  73.056
H  51.401  35.286  64.680
H  38.201  53.261  36.988
H  39.374  54.228  37.037
H  25.232  65.365  50.905
H  57.128  65.129  44.113
H  57.827  64.703  42.775
H  60.838  47.955  65.061
H  61.794  48.292  66.213
H  70.941  51.678  33.797
H  67.113  59.775  33.786
H  72.234  50.840  33.958
H  26.433  66.201  50.428
H  64.774  57.008  27.757
H  61.075  45.047  45.170
H  51.143  40.373  24.534
H  42.977  59.357  37.914
H  61.959  62.260  43.485
H  35.186  65.864  52.224
H  40.000  48.879  30.892
H  39.154  50.179  30.784
H  43.308  64.980  63.415
H  44.082  66.159  62.905
H  58.627  49.163  48.886
H  55.967  49.538  34.748
H  57.036  50.361  33.978
H  38.982  63.504  68.517
H  58.093  49.525  50.274
H  40.865  25.904  51.881
H  35.025  66.715  53.527
H  41.836  25.643  50.719
H  48.939  51.861  74.975
H  42.230  56.176  40.974
H  43.060  57.233  41.702
H  49.278  51.294  73.594
H  53.415  69.732  37.601
H  54.691  70.559  37.427
H  29.545  41.270  60.974
H  43.541  60.783  37.680
H  31.020  41.159  61.376
H  36.647  59.447  56.014
H  49.522  67.713  38.775
H  54.957  56.393  39.409
H  54.125  56.038  40.636
H  52.228  58.895  31.194
H  62.044  45.380  59.060
H  61.209  44.270  59.729
H  67.381  35.594  57.626
H  68.823  35.903  57.345
H  37.735  44.191  43.886
H  67.571  44.950  32.694
H  69.003  44.368  32.733
H  48.403  49.542  23.636
H  38.216  45.588  43.399
H  47.732  49.299  32.484
H  34.197  52.690  67.023
H  32.795  52.075  67.146
H  34.366  45.808  47.498
H  25.052  60.472  45.294
H  24.941  61.055  46.715
H  33.408  44.613  47.733
H  66.334  61.439  50.359
H  67.499  60.621  49.762
H  50.566  68.817  38.507
H  48.798  48.895  33.533
H  58.661  48.731  76.078
H  57.614  55.137  52.209
H  60.661  62.890  44.056
H  47.695  52.938  62.899
H  37.266  64.883  59.221
H  56.488  55.433  53.254
H  49.057  46.572  30.337
H  65.770  47.425  71.880
H  74.457  39.871  36.021
H  73.663  40.809  35.092
H  43.050  39.407  28.622
H  30.982  47.599  51.371
H  31.749  48.194  52.544
H  48.534  52.591  61.664
H  63.246  72.683  40.379
H  32.506  35.994  65.646
H  68.447  52.614  34.349
H  68.948  51.474  35.199
H  31.797  35.778  64.289
H  66.490  47.886  73.168
H  50.493  46.039  30.462
H  56.382  65.575  46.351
H  57.753  65.043  46.788
H  58.065  48.315  74.716
H  51.585  39.099  25.298
H  63.795  71.258  40.392
H  38.535  65.498  59.877
H  46.197  40.948  61.061
H  57.896  53.733  36.518
H  65.262  50.499  67.860
H  41.533  47.380  67.095
H  48.372  71.227  65.881
H  25.940  47.677  60.809
H  24.878  48.630  61.360
H  58.944  51.966  49.251
H  57.685  36.048  61.383
H  57.545  37.126  60.275
H  59.129  53.021  48.132
H  48.843  56.122  65.162
H  57.503  52.758  37.635
H  48.540  55.882  63.654
H  29.586  35.080  61.708
H  48.249  43.660  27.762
H  48.361  72.756  65.667
H  66.790  50.391  67.820
H  48.282  44.291  26.364
H  61.378  44.597  53.351
H  59.995  43.968  53.159
H  63.507  57.498  54.207
H  64.892  57.746  53.567
H  46.072  40.638  62.571
H  29.229  35.040  60.193
H  55.469  39.508  67.556
H  41.372  68.600  43.379
H  55.656  40.561  68.679
H  32.694  35.017  43.944
H  42.854  36.475  47.219
H  27.804  64.618  41.308
H  27.860  64.099  39.866
H  34.783  69.074  54.314
H  34.869  68.318  55.611
H  47.630  69.955  49.669
H  35.930  68.992  44.859
H  34.608  69.128  45.548
H  47.924  68.821  50.666
H  32.837  34.523  42.500
H  43.733  57.481  31.472
H  64.139  70.713  37.171
H  65.192  70.634  38.319
H  51.857  40.791  70.848
H  46.114  42.893  67.160
H  45.566  43.330  68.538
H  44.664  52.954  62.520
H  44.666  35.259  71.833
H  33.625  61.446  64.272
H  51.458  41.167  55.702
H  39.464  63.362  43.389
H  43.038  56.870  32.713
H  39.203  64.782  43.906
H  41.446  37.038  46.893
H  27.261  60.989  46.071
H  44.491  38.202  34.190
H  44.475  44.289  59.556
H  47.764  42.571  62.604
H  44.896  44.984  58.272
H  46.899  24.491  44.052
H  71.986  56.345  58.786
H  70.821  55.717  57.986
H  30.441  40.630  63.966
H  30.002  42.022  63.450
H  63.305  59.241  43.053
H  28.405  61.398  47.022
H  67.754  48.089  46.836
H  61.828  59.461  43.412
H  64.211  65.443  54.838
H  64.609  64.345  53.806
H  58.696  64.351  34.796
H  69.720  32.586  41.848
H  41.764  40.206  64.928
H  40.483  40.384  65.745
H  51.780  40.022  72.185
H  31.185  45.664  60.549
H  31.938  44.557  59.746
H  68.761  47.777  45.711
H  43.500  37.404  33.300
H  36.039  40.235  62.580
H  35.091  56.771  39.367
H  35.148  57.339  29.450
H  57.272  29.463  66.953
H  57.777  30.414  65.857
H  34.735  58.100  28.181
H  41.773  71.886  50.048
H  41.862  71.004  48.765
H  60.989  50.741  24.976
H  61.809  51.691  24.073
H  50.357  67.634  64.877
H  30.351  53.228  65.216
H  35.731  43.740  68.475
H  49.510  68.205  63.733
H  55.908  38.036  65.765
H  55.357  39.306  65.091
H  48.094  37.874  66.067
H  46.560  37.764  65.818
H  52.476  66.875  37.221
H  49.500  50.364  28.787
H  49.771  50.843  27.353
H  53.109  65.681  37.983
H  30.485  54.740  64.903
H  42.903  49.011  38.247
H  50.940  61.474  57.248
H  34.237  58.074  39.223
H  35.399  45.231  68.347
H  50.899  61.221  58.771
H  67.581  42.607  35.099
H  66.578  43.177  34.071
H  63.841  53.380  69.201
H  65.162  43.065  69.927
H  65.239  43.091  68.425
H  64.494  54.689  68.710
H  52.352  40.371  54.714
H  38.745  42.347  60.616
H  36.374  46.551  29.471
H  36.860  45.309  28.657
H  32.999  60.050  64.328
H  43.908  33.043  31.837
H  44.380  73.545  35.559
H  44.672  34.100  30.999
H  55.471  49.387  25.325
H  55.997  50.798  25.647
H  55.752  48.616  27.264
H  54.394  48.339  27.924
H  26.698  54.246  50.150
H  35.382  41.231  61.556
H  40.221  42.295  60.265
H  45.508  54.219  62.801
H  43.500  73.965  36.750
H  61.028  63.930  57.352
H  59.799  64.752  56.973
H  27.703  34.271  40.929
H  65.630  29.752  52.065
H  44.745  74.633  38.511
H  43.518  75.145  39.278
H  53.413  59.946  67.351
H  53.163  60.973  66.259
H  41.980  29.032  33.111
H  61.854  75.260  48.136
H  60.693  74.640  47.347
H  42.064  29.228  31.576
H  50.694  33.772  36.941
H  63.120  58.052  44.785
H  49.663  34.397  37.931
H  57.973  60.130  61.597
H  58.861  63.877  33.330
H  45.449  64.151  35.477
H  52.603  51.132  77.882
H  59.789  42.700  34.229
H  59.390  42.312  32.778
H  52.586  50.230  79.139
H  48.229  54.864  58.960
H  49.701  54.784  59.420
H  46.235  61.122  68.377
H  61.960  52.957  61.574
H  45.851  61.230  66.888
H  64.032  58.554  45.916
H  66.772  35.797  54.388
H  56.109  46.580  58.331
H  33.871  73.977  48.877
H  34.332  73.630  50.307
H  56.292  48.063  58.038
H  58.784  63.431  36.807
H  59.194  64.778  37.397
H  35.807  49.295  66.181
H  35.495  49.837  67.600
H  36.174  47.524  50.479
H  31.615  61.147  51.095
H  65.674  29.243  50.622
H  32.242  46.430  34.944
H  40.780  43.326  51.334
H  40.122  42.987  52.694
H  42.465  67.523  43.720
H  51.768  69.315  59.255
H  36.351  36.310  32.094
H  35.166  36.883  32.968
H  50.728  68.608  58.411
H  65.062  50.929  61.238
H  65.201  51.363  62.717
H  68.139  35.695  55.079
H  40.152  45.916  53.325
H  45.288  63.348  34.171
H  20.677  43.547  52.642
H  21.680  44.680  52.316
H  49.511  38.482  70.120
H  54.565  36.326  57.400
H  49.281  35.855  30.196
H  31.606  40.847  56.312
H  32.020  40.124  57.582
H  55.027  37.290  56.292
H  62.146  23.689  52.671
H  60.739  24.356  52.638
H  39.567  69.541  41.498
H  40.288  70.200  42.707
H  67.707  54.394  54.843
H  48.968  75.809  45.840
H  48.840  73.355  47.572
H  47.767  76.762  45.670
H  46.059  23.236  44.271
H  54.511  32.271  49.106
H  53.508  31.109  49.133
H  48.314  43.800  61.901
H  68.620  32.128  42.804
H  26.814  33.544  39.889
H  63.998  41.770  42.378
H  64.747  40.432  42.406
H  48.700  74.296  48.774
H  67.552  54.066  56.334
H  53.886  35.560  53.712
H  57.672  27.052  39.023
H  48.309  33.436  34.066
H  66.344  49.022  51.019
H  48.853  33.457  35.528
H  31.452  31.782  40.968
H  30.150  32.624  41.234
H  57.462  41.893  37.286
H  40.729  27.719  39.756
H  39.947  28.980  40.170
H  58.471  42.422  38.337
H  59.991  55.445  38.053
H  60.832  55.780  39.307
H  39.941  73.089  50.512
H  40.461  72.708  51.943
H  67.739  48.933  51.625
H  48.924  35.667  28.710
H  43.417  36.166  71.637
H  50.969  38.423  70.552
H  29.720  51.736  59.760
H  30.072  51.412  58.289
H  34.959  74.169  52.973
H  35.883  74.663  51.813
H  54.258  36.356  52.484
H  58.311  27.150  40.450
H  72.174  60.447  45.754
H  47.207  23.289  47.035
H  45.879  23.924  46.633
H  73.455  61.035  46.382
H  55.530  51.765  28.826
H  61.947  51.678  39.656
H  75.124  41.793  40.650
H  74.413  41.690  42.007
H  32.287  43.495  35.676
H  68.091  28.410  58.150
H  44.376  27.694  52.351
H  40.733  33.468  46.194
H  31.871  55.658  30.264
H  36.061  60.832  56.257
H  55.035  50.592  29.707
H  47.278  64.214  29.156
H  48.373  30.135  48.235
H  47.636  29.349  49.351
H  49.297  62.626  68.808
H  60.881  35.737  54.407
H  59.788  35.949  53.325
H  47.873  62.441  68.227
H  36.029  64.500  41.891
H  37.519  64.443  42.269
H  33.217  55.945  30.957
H  60.751  62.892  36.301
H  47.531  62.806  28.494
H  74.975  52.769  40.089
H  60.525  51.992  39.198
H  48.241  22.018  53.622
H  42.800  26.792  56.550
H  41.427  27.177  57.166
H  71.906  63.048  46.621
H  68.590  56.772  41.374
H  41.324  34.448  47.218
H  55.623  52.992  39.754
H  33.000  51.645  49.905
H  67.904  28.553  59.700
H  71.398  55.742  53.489
H  62.366  32.924  56.343
H  47.546  21.644  52.319
H  62.781  32.371  54.974
H  62.306  49.164  35.375
H  61.504  48.420  36.488
H  64.039  46.864  47.847
H  63.776  45.642  48.748
H  70.789  44.074  59.029
H  34.476  51.966  50.171
H  71.205  45.542  59.349
H  43.382  28.081  53.492
H  39.395  68.009  32.863
H  40.715  67.555  33.469
H  71.483  54.206  53.275
H  58.794  52.006  74.163
H  25.111  52.693  51.370
H  75.319  53.863  41.153
H  31.825  36.295  68.243
H  68.293  57.560  36.694
H  69.005  56.588  35.687
H  48.509  38.121  62.982
H  45.661  35.829  33.620
H  44.673  34.712  33.310
H  46.931  38.831  63.209
H  34.782  43.643  70.582
H  34.806  44.353  71.950
H  57.843  46.981  25.001
H  31.791  37.567  67.369
H  57.346  48.415  24.712
H  63.653  58.239  57.763
H  49.631  34.525  42.672
H  56.557  53.629  29.824
H  56.910  54.372  31.151
H  63.941  48.112  42.643
H  62.815  49.049  43.139
H  63.059  64.350  30.758
H  54.141  53.567  33.228
H  54.908  54.166  32.038
H  63.489  63.069  30.037
H  49.171  66.631  61.554
H  25.763  51.902  52.477
H  64.292  46.376  63.626
H  54.223  48.516  37.841
H  59.306  61.161  28.215
H  59.238  62.509  28.970
H  69.106  43.022  55.660
H  68.796  43.925  54.430
H  60.760  61.466  35.728
H  67.022  45.185  44.017
H  68.144  46.060  44.606
H  32.268  42.547  36.923
H  49.357  32.993  42.469
H  35.341  36.804  64.715
H  34.210  36.388  63.853
H  53.071  49.234  38.565
H  60.600  39.911  52.320
H  41.140  76.847  50.802
H  40.481  63.515  62.995
H  41.523  62.564  62.424
H  42.267  77.674  50.084
H  61.168  65.452  38.327
H  61.240  65.325  39.845
H  62.376  57.445  29.807
H  62.629  56.616  28.519
H  63.905  46.995  64.983
H  59.590  39.173  51.446
H  58.290  50.637  74.680
H  41.506  69.633  51.319
H  35.267  56.122  44.287
H  55.049  59.906  49.558
H  41.182  44.502  41.368
H  61.362  70.943  36.731
H  67.637  57.185  40.218
H  39.852  44.912  41.977
H  54.906  58.261  62.324
H  54.060  59.499  62.055
H  47.353  60.273  29.094
H  48.340  60.485  27.963
H  63.205  61.562  63.002
H  66.740  44.881  46.106
H  42.464  73.352  45.655
H  61.840  60.968  63.378
H  62.043  69.937  37.657
H  67.868  46.973  58.633
H  59.826  56.121  25.079
H  66.496  46.907  59.310
H  75.022  53.849  61.870
H  41.851  56.975  59.284
H  41.294  55.570  59.517
H  73.700  54.630  61.705
H  47.893  54.233  65.724
H  41.440  73.621  46.779
H  47.191  53.128  66.559
H  49.414  72.910  41.521
H  65.704  62.447  35.425
H  46.071  46.229  39.945
H  62.052  62.761  48.809
H  60.641  63.173  49.075
H  59.595  28.448  46.182
H  63.751  28.475  55.234
H  62.459  27.653  55.423
H  59.054  29.373  47.285
H  51.176  42.788  53.506
H  50.294  41.600  53.060
H  37.826  46.822  31.699
H  48.803  71.505  41.550
H  38.423  46.827  33.098
H  44.238  24.776  44.207
H  65.268  44.541  46.392
H  45.632  53.231  74.400
H  28.239  62.175  49.401
H  29.375  61.174  49.530
H  39.584  50.664  54.737
H  39.901  50.638  53.226
H  67.033  63.216  35.471
H  41.476  59.954  46.728
H  41.861  59.732  45.278
H  46.626  54.191  73.739
H  45.016  25.901  38.629
H  44.617  25.731  40.111
H  56.071  58.932  48.903
H  30.998  36.554  53.129
H  36.421  51.458  71.059
H  71.788  51.908  57.557
H  71.673  62.345  45.267
H  60.510  58.025  63.014
H  61.808  58.737  62.602
H  43.744  29.611  61.771
H  28.162  63.776  51.444
H  59.225  50.586  52.860
H  59.688  52.043  52.793
H  44.375  32.464  52.051
H  54.713  70.624  62.389
H  53.229  59.943  51.594
H  62.944  49.928  62.337
H  62.806  48.917  63.504
H  53.183  61.141  50.638
H  34.420  42.097  46.942
H  34.976  43.094  45.921
H  43.696  42.736  53.440
H  43.462  41.349  54.062
H  41.698  69.325  52.824
H  34.536  57.295  43.555
H  55.199  70.609  60.918
H  43.601  31.490  52.957
H  31.739  35.609  54.089
H  63.131  57.716  50.721
H  60.347  54.796  25.645
H  45.459  48.011  31.598
H  45.619  49.484  31.173
H  27.689  64.308  50.103
H  25.608  63.343  50.556
H  70.455  52.461  58.114
H  59.353  53.872  71.399
H  59.726  52.388  71.356
H  59.378  46.274  54.124
H  60.664  64.766  45.362
H  59.109  64.791  45.346
H  58.659  47.570  53.750
H  41.646  34.127  58.062
H  42.447  32.840  58.340
H  43.707  63.008  29.497
H  42.681  63.165  30.629
H  40.198  39.404  55.379
H  44.371  30.766  62.598
H  38.875  38.694  55.030
H  24.162  62.832  50.883
H  38.062  69.402  34.065
H  37.003  69.161  32.980
H  62.512  58.308  52.021
H  37.707  26.672  46.884
H  42.981  49.732  39.593
H  38.806  26.896  47.962
H  49.466  73.534  45.425
H  60.821  30.759  38.906
H  38.379  71.360  35.919
H  39.688  71.111  35.129
H  52.182  41.453  22.411
H  51.557  42.719  23.019
H  56.658  66.634  37.740
H  61.543  41.584  53.664
H  55.367  65.833  37.631
H  59.117  42.623  59.717
H  58.289  71.822  32.540
H  73.962  38.825  38.062
H  57.845  70.864  33.667
H  42.705  35.272  32.356
H  53.983  73.270  35.129
H  43.420  62.137  60.728
H  42.437  63.325  60.559
H  53.208  72.173  34.397
H  67.750  50.459  48.457
H  30.459  62.953  50.532
H  24.889  52.813  58.111
H  46.279  45.388  37.669
H  53.121  46.532  30.274
H  41.443  35.571  33.230
H  34.539  50.987  26.786
H  73.073  38.014  37.146
H  39.553  65.627  29.129
H  43.711  50.332  48.493
H  74.379  44.867  42.398
H  56.472  33.105  32.778
H  56.480  34.537  32.221
H  73.880  46.070  43.231
H  35.020  36.642  54.224
H  33.811  36.336  53.324
H  61.760  61.777  28.771
H  63.100  61.624  28.018
H  66.849  51.051  32.193
H  59.313  30.770  39.148
H  39.977  36.329  74.107
H  67.577  49.754  31.794
H  49.631  71.527  63.698
H  50.015  70.432  62.663
H  67.949  44.178  42.161
H  43.751  66.760  69.985
H  47.424  44.664  36.924
H  26.543  61.002  58.860
H  60.181  42.580  60.827
H  30.910  63.842  49.369
H  39.756  64.533  28.073
H  40.671  36.637  72.772
H  43.347  51.728  48.006
H  34.320  50.413  28.185
H  55.078  29.734  35.018
H  55.234  43.566  23.278
H  55.297  42.271  24.097
H  59.258  51.908  42.994
H  34.745  53.657  32.520
H  33.471  53.356  33.322
H  59.677  52.600  41.696
H  63.468  41.723  45.196
H  62.184  41.878  45.992
H  72.960  47.869  48.889
H  68.558  68.819  58.306
H  47.532  70.962  69.891
H  50.899  58.635  30.451
H  55.251  55.576  74.083
H  69.415  70.075  58.590
H  23.660  60.715  51.984
H  22.202  61.218  51.930
H  58.697  22.851  50.229
H  58.425  23.680  48.948
H  55.490  55.576  57.943
H  70.771  66.136  48.808
H  70.811  66.221  50.370
H  55.036  56.406  59.167
H  55.278  56.784  73.148
H  25.362  60.007  59.086
H  47.685  69.892  68.782
H  71.462  40.215  50.045
H  53.962  30.467  34.252
H  42.596  39.863  47.868
H  41.399  40.837  47.920
H  41.862  24.813  47.306
H  47.004  27.750  64.079
H  47.285  26.449  63.301
H  42.233  25.486  45.974
H  52.831  48.017  30.404
H  24.510  52.428  56.652
H  54.309  53.198  37.958
H  72.437  46.920  49.937
H  53.680  51.824  38.300
H  32.425  67.418  35.158
H  33.153  66.304  34.317
H  46.759  50.538  61.086
H  52.663  28.577  44.302
H  54.071  28.665  43.721
H  42.246  68.338  59.530
H  41.173  68.768  58.549
H  61.302  42.454  52.440
H  67.192  51.802  47.923
H  71.966  39.929  48.606
H  46.100  51.952  61.174
H  32.479  39.839  32.335
H  31.312  39.573  33.257
H  43.554  32.507  68.663
H  67.735  70.813  59.698
H  50.546  31.480  39.107
H  50.528  32.426  40.322
H  57.829  37.107  54.491
H  65.368  49.220  32.536
H  64.565  48.133  33.267
H  47.139  70.123  42.104
H  45.693  69.581  42.013
H  56.916  50.254  43.260
H  40.133  38.623  60.875
H  56.595  36.475  55.179
H  40.409  40.105  60.614
H  50.607  63.312  29.100
H  66.300  71.231  60.123
H  44.975  67.157  70.851
H  67.119  33.291  44.977
H  71.844  58.986  49.297
H  57.263  28.123  58.560
H  55.997  27.763  59.354
H  72.265  60.036  48.266
H  55.213  29.145  51.184
H  53.679  29.283  50.892
H  58.407  50.225  43.637
H  60.182  51.738  29.635
H  63.527  60.693  39.448
H  35.943  48.150  56.724
H  64.705  54.402  38.123
H  67.601  52.159  66.873
H  69.078  51.662  66.899
H  63.315  54.481  37.467
H  42.575  31.101  29.836
H  41.169  31.337  30.355
H  53.893  44.495  67.289
H  53.376  44.108  68.673
H  48.682  65.201  61.989
H  63.500  57.520  59.102
H  36.659  47.345  57.800
H  37.321  50.242  71.309
H  47.929  50.625  22.638
H  64.979  60.687  39.769
H  57.550  67.660  67.140
H  56.033  67.493  66.913
H  41.899  45.773  55.783
H  42.668  45.590  54.442
H  48.396  63.378  49.567
H  55.030  71.668  43.589
H  55.756  71.867  42.231
H  49.673  64.136  49.880
H  55.487  53.738  41.089
H  60.993  51.976  28.367
H  66.688  32.847  43.562
H  43.194  55.356  49.322
H  71.978  46.329  41.031
H  71.374  45.858  42.352
H  54.160  27.403  32.210
H  51.542  26.921  45.098
H  27.321  66.274  48.319
H  26.321  46.495  64.887
H  27.377  47.502  64.447
H  28.721  66.328  48.915
H  62.208  30.258  53.504
H  62.682  31.598  52.932
H  39.376  49.689  57.005
H  60.557  44.811  67.031
H  44.593  76.964  58.885
H  41.815  48.085  72.823
H  40.768  47.319  73.646
H  42.732  46.144  68.524
H  44.034  46.926  68.715
H  53.987  67.425  59.181
H  69.471  44.358  42.186
H  45.019  32.945  69.003
H  58.017  72.307  57.882
H  57.885  73.505  58.837
H  60.081  46.044  66.230
H  73.237  54.597  38.952
H  73.472  55.395  40.255
H  38.131  48.957  56.568
H  43.437  56.805  48.812
H  63.250  26.376  50.155
H  49.422  64.106  28.503
H  62.860  25.246  49.162
H  70.162  37.936  46.395
H  71.420  38.821  46.393
H  68.245  60.119  56.859
H  58.913  58.304  56.716
H  60.428  58.491  56.890
H  67.150  59.152  56.446
H  50.061  33.671  57.977
H  49.832  34.747  59.095
H  44.503  62.950  63.221
H  44.008  62.597  64.644
H  33.621  48.200  40.425
H  33.872  49.228  41.527
H  50.406  27.866  44.718
H  53.447  28.419  33.088
H  55.043  68.353  59.824
H  68.132  29.608  56.003
H  66.868  28.716  55.755
H  32.884  30.303  53.309
H  32.811  29.821  54.764
H  48.203  74.078  44.771
H  25.448  54.192  49.253
H  45.295  36.673  73.373
H  42.000  71.015  58.066
H  51.050  39.144  57.940
H  46.002  64.716  70.921
H  52.853  53.652  64.025
H  52.194  23.013  56.154
H  40.571  49.979  67.349
H  70.103  45.839  36.202
H  68.643  45.996  35.725
H  77.124  51.688  50.039
H  62.111  59.820  53.881
H  62.635  60.986  54.772
H  51.054  38.174  56.711
H  58.494  45.451  38.667
H  55.438  39.460  55.076
H  36.551  38.044  63.427
H  37.730  38.335  62.476
H  54.012  38.962  54.723
H  42.018  49.696  66.889
H  52.470  21.550  56.545
H  39.314  38.023  37.147
H  37.804  37.849  36.762
H  67.634  49.308  56.257
H  29.530  49.463  54.637
H  59.294  45.154  37.345
H  29.071  50.736  55.385
H  48.940  76.056  47.957
H  46.184  54.161  60.437
H  35.176  26.976  49.277
H  29.786  39.784  43.366
H  34.074  68.073  60.388
H  38.427  70.860  47.372
H  37.522  70.520  48.557
H  58.512  75.244  52.956
H  39.074  61.936  33.775
H  40.569  61.762  33.552
H  58.638  74.091  51.929
H  45.701  43.530  77.603
H  45.727  54.704  59.063
H  45.930  43.742  79.113
H  35.021  48.736  54.933
H  61.664  32.174  46.232
H  32.940  67.131  60.045
H  34.332  28.004  48.508
H  60.748  31.833  45.052
H  52.924  38.957  30.606
H  52.383  37.668  31.266
H  37.225  59.434  58.769
H  36.777  60.317  59.908
H  47.459  76.465  47.914
H  34.800  47.270  54.508
H  64.168  67.651  38.607
H  66.195  49.524  56.752
H  66.178  47.216  43.255
H  40.869  38.193  68.846
H  41.828  37.108  68.324
H  30.915  69.325  53.925
H  39.819  45.597  62.433
H  31.139  40.289  43.839
H  68.615  62.397  46.567
H  41.289  48.416  23.566
H  37.765  34.391  44.666
H  47.390  43.424  69.856
H  51.943  35.839  56.006
H  31.249  67.850  54.227
H  52.288  36.628  54.742
H  53.206  24.336  42.049
H  54.163  72.882  37.635
H  56.280  60.182  40.230
H  57.735  60.668  40.377
H  52.682  73.020  37.133
H  69.841  46.368  46.902
H  68.730  46.527  47.983
H  37.832  32.951  44.111
H  62.386  42.626  57.481
H  46.956  48.993  71.587
H  53.721  24.721  43.452
H  66.461  48.623  42.745
H  43.602  61.357  31.888
H  47.633  54.877  71.531
H  37.660  73.032  60.683
H  38.479  72.755  59.421
H  42.223  65.669  45.249
H  77.448  51.243  48.597
H  49.051  52.061  77.353
H  48.501  51.675  78.739
H  40.453  46.900  61.925
H  57.471  34.714  56.531
H  57.763  33.413  55.794
H  55.884  71.381  32.171
H  43.132  61.651  33.303
H  35.980  68.014  43.113
H  54.588  72.056  32.678
H  70.664  55.826  63.793
H  71.707  54.902  64.378
H  35.609  35.533  59.016
H  36.062  34.524  57.898
H  37.779  59.969  51.243
H  66.966  67.123  57.495
H  67.473  67.583  56.115
H  38.154  61.228  52.039
H  46.740  55.984  70.924
H  36.462  66.616  42.625
H  46.612  64.969  69.532
H  53.954  54.701  63.743
H  47.376  50.407  67.010
H  34.175  31.498  51.854
H  32.979  32.436  51.790
H  37.360  56.832  47.903
H  32.954  54.133  59.418
H  34.283  54.638  58.835
H  38.347  57.716  47.158
H  51.330  48.169  22.739
H  52.668  48.398  22.007
H  68.323  57.329  64.414
H  69.063  58.681  64.261
H  39.436  64.504  34.238
H  58.657  67.089  30.023
H  58.889  66.684  28.554
H  38.684  59.799  33.961
H  28.060  66.672  54.573
H  29.454  67.068  55.050
H  68.736  38.078  40.955
H  69.148  36.846  40.115
H  32.935  66.097  53.324
H  62.339  62.864  68.908
H  61.879  62.617  67.452
H  31.870  65.686  54.345
H  52.637  40.645  36.039
H  61.110  39.138  27.438
H  38.141  59.198  35.280
H  50.570  70.138  32.005
H  32.670  37.004  57.596
H  32.222  36.114  56.394
H  34.375  41.827  53.871
H  33.903  43.099  54.558
H  61.575  47.360  51.196
H  41.212  63.176  58.950
H  40.151  64.192  59.433
H  62.868  47.196  50.376
H  47.382  28.474  59.452
H  51.346  37.758  50.687
H  47.044  56.826  42.609
H  51.551  29.405  56.368
H  42.663  71.762  39.215
H  42.044  71.144  34.310
H  42.088  72.387  35.211
H  43.636  70.564  39.297
H  64.835  68.301  36.237
H  64.293  66.873  36.438
H  46.019  52.429  64.461
H  46.280  50.955  64.194
H  51.712  36.832  49.492
H  50.930  70.712  33.412
H  52.770  29.655  55.423
H  40.472  65.057  33.222
H  50.722  35.658  66.915
H  58.665  70.670  36.339
H  48.217  51.067  71.047
H  64.923  66.768  39.547
H  42.085  27.320  47.476
H  39.455  29.405  43.391
H  39.791  28.453  42.215
H  42.923  67.996  39.133
H  44.093  68.385  40.035
H  47.111  52.275  32.971
H  59.021  41.231  72.005
H  60.296  41.938  72.482
H  64.454  56.373  67.016
H  45.847  52.206  32.075
H  63.878  30.090  59.235
H  43.233  28.303  47.781
H  65.178  30.919  59.081
H  31.157  45.859  38.221
H  63.178  64.062  39.438
H  63.513  62.781  40.155
H  31.890  45.648  39.549
H  44.846  64.825  59.311
H  46.361  64.923  59.500
H  48.434  51.541  67.085
H  47.001  51.875  70.579
H  24.550  40.662  51.714
H  32.804  59.783  42.358
H  52.155  35.878  67.457
H  57.856  69.512  35.761
H  54.108  40.849  35.713
H  46.378  56.274  41.304
H  40.294  28.828  57.709
H  39.628  30.124  58.158
H  45.389  51.189  74.108
H  46.760  51.161  74.813
H  25.090  40.759  43.081
H  55.798  49.294  41.078
H  55.166  49.080  39.691
H  24.404  40.667  44.446
H  56.242  55.150  46.307
H  56.453  56.402  45.462
H  73.608  44.532  39.410
H  73.882  46.015  39.723
H  50.584  27.858  35.939
H  65.858  58.463  58.804
H  66.935  58.672  59.891
H  49.703  27.943  37.200
H  45.457  46.335  61.824
H  46.813  45.910  61.161
H  51.793  65.284  68.460
H  50.999  63.974  68.668
H  45.009  62.858  53.603
H  50.013  36.989  43.591
H  45.189  61.735  52.604
H  58.721  75.749  50.400
H  36.917  69.298  61.105
H  47.602  63.988  38.181
H  49.690  42.413  67.171
H  26.181  53.753  53.332
H  26.485  54.457  54.663
H  46.620  63.420  39.207
H  42.523  62.817  41.663
H  41.354  63.818  41.864
H  62.110  27.581  41.686
H  63.068  28.741  41.445
H  48.475  73.120  56.637
H  28.332  38.179  39.182
H  34.023  26.461  53.642
H  27.223  38.673  38.274
H  54.703  25.119  63.284
H  37.861  54.686  44.726
H  36.870  55.076  45.795
H  57.435  67.369  35.410
H  55.491  69.401  53.986
H  26.874  37.516  40.754
H  26.134  53.769  46.240
H  26.998  52.492  46.450
H  33.867  27.985  53.571
H  26.214  36.178  40.387
H  49.107  74.311  55.900
H  40.040  58.066  52.305
H  64.491  51.507  57.414
H  55.840  46.255  30.685
H  68.406  44.407  39.678
H  67.942  45.454  38.655
H  63.170  35.114  43.509
H  27.299  60.556  64.561
H  28.347  61.608  64.147
H  64.254  35.286  44.579
H  38.476  57.849  72.754
H  39.187  56.666  72.054
H  53.088  52.076  28.708
H  34.971  46.789  35.255
H  65.063  50.537  58.455
H  50.506  43.717  67.258
H  69.876  47.115  39.990
H  37.240  70.818  61.161
H  59.744  47.563  23.672
H  60.765  46.437  23.868
H  25.606  42.072  46.610
H  24.363  41.207  46.555
H  51.564  51.935  28.462
H  38.851  57.750  53.290
H  33.947  47.924  35.333
H  55.866  46.735  29.214
H  72.155  41.977  36.219
H  45.151  45.125  69.513
H  63.749  52.273  66.330
H  35.198  43.935  56.281
H  39.680  52.864  55.979
H  40.617  54.106  56.040
H  47.595  42.145  30.158
H  46.651  41.499  31.256
H  67.715  40.572  48.080
H  56.948  72.767  52.960
H  56.173  71.920  53.970
H  68.325  40.093  49.398
H  63.250  51.909  67.758
H  41.668  36.427  58.034
H  47.816  32.900  56.465
H  58.645  46.726  63.938
H  45.665  65.200  73.048
H  46.733  66.071  72.312
H  41.813  65.078  30.755
H  69.818  45.642  40.387
H  35.654  57.649  46.129
H  38.530  68.358  45.399
H  64.916  44.487  42.996
H  63.757  44.895  43.907
H  48.277  31.443  56.272
H  71.912  43.233  37.123
H  34.163  45.098  56.223
H  62.908  53.996  41.909
H  46.096  45.249  70.699
H  61.676  37.663  52.219
H  58.512  67.281  36.526
H  62.458  36.670  53.140
H  54.520  26.594  63.681
H  54.061  62.255  47.105
H  54.408  61.170  48.155
H  54.666  46.840  32.064
H  54.863  46.589  33.558
H  31.428  47.696  30.462
H  62.467  54.691  43.192
H  47.471  56.283  25.302
H  31.851  46.361  29.825
H  36.279  53.714  52.042
H  36.940  53.511  50.646
H  30.838  52.256  48.063
H  56.984  69.724  53.869
H  45.195  58.459  54.501
H  43.813  58.120  53.891
H  60.138  46.462  63.784
H  51.184  54.320  41.163
H  51.601  53.677  39.824
H  46.403  55.228  24.997
H  67.567  66.348  64.810
H  66.488  66.030  63.803
H  68.656  39.611  46.150
H  27.098  63.091  46.125
H  37.800  33.992  47.968
H  46.330  46.519  57.349
H  47.418  45.467  57.013
H  36.760  35.139  48.103
H  36.717  51.687  38.177
H  35.466  52.444  38.564
H  64.525  40.842  70.369
H  48.222  38.017  24.073
H  41.366  65.375  55.739
H  25.778  63.553  46.751
H  41.928  65.390  57.158
H  50.615  44.530  26.194
H  70.471  70.403  41.985
H  49.087  27.915  46.538
H  49.405  29.415  46.520
H  66.973  42.694  43.192
H  66.011  43.299  44.161
H  66.268  56.405  32.314
H  26.618  36.939  56.894
H  27.912  37.309  56.132
H  65.334  57.440  31.645
H  32.995  58.558  37.594
H  32.098  58.382  38.839
H  39.096  61.227  54.045
H  66.047  40.970  70.073
H  57.923  76.784  49.530
H  61.599  49.288  57.619
H  61.290  48.679  56.223
H  49.330  38.569  24.995
H  35.629  66.599  36.529
H  36.238  66.689  35.109
H  63.044  43.909  58.018
H  48.694  42.893  69.204
H  72.281  37.484  53.620
H  55.286  26.540  43.293
H  39.849  59.861  53.883
H  63.646  57.365  67.906
H  73.835  62.763  49.545
H  73.507  61.310  49.131
H  42.430  34.920  43.126
H  39.860  71.165  57.696
H  39.132  69.815  57.800
H  34.403  68.648  39.214
H  34.859  70.106  39.057
H  45.107  55.339  75.433
H  56.134  27.550  42.501
H  44.337  56.677  75.478
H  43.041  34.361  41.849
H  34.346  61.216  67.709
H  52.951  54.600  37.498
H  33.267  60.946  66.617
H  36.920  40.721  34.671
H  38.384  40.636  35.096
H  71.463  41.494  39.699
H  72.805  42.241  39.795
H  48.112  48.406  25.603
H  33.623  58.104  35.316
H  34.536  57.404  36.342
H  47.197  47.435  24.923
H  54.738  29.869  54.389
H  54.211  28.957  53.286
H  27.079  46.469  47.976
H  42.362  47.473  24.105
H  30.050  52.840  49.272
H  67.109  39.434  46.025
H  29.202  56.334  40.123
H  70.775  65.282  44.217
H  69.245  65.073  44.074
H  28.742  57.583  40.943
H  44.660  31.649  55.936
H  45.017  31.971  54.458
H  48.201  25.418  61.558
H  48.486  26.728  60.844
H  42.430  65.802  46.768
H  63.067  55.990  39.388
H  62.823  56.019  40.891
H  25.645  46.243  47.389
H  56.125  40.619  48.044
H  50.057  25.560  59.603
H  50.522  26.317  58.332
H  55.011  39.592  48.332
H  39.453  35.035  59.318
H  39.779  35.423  57.868
H  45.012  69.764  49.522
H  43.532  69.869  49.735
H  67.488  61.726  45.789
H  72.424  38.179  54.985
H  51.531  43.584  26.967
H  69.714  69.294  42.750
H  62.105  48.022  48.793
H  60.574  48.163  48.667
H  53.924  54.955  36.372
H  38.124  46.967  41.256
H  69.755  53.662  30.995
H  69.590  54.797  29.977
H  39.061  47.414  42.385
H  39.435  40.574  49.336
H  40.100  41.813  49.976
H  51.971  43.486  70.387
H  50.934  42.737  69.566
H  45.776  48.780  70.623
H  62.301  42.241  55.282
H  66.419  45.463  62.043
H  47.371  29.050  60.906
H  45.346  52.261  39.927
H  71.390  38.441  60.425
H  65.719  53.960  48.168
H  57.815  32.880  65.227
H  32.328  54.456  35.617
H  29.069  49.446  48.851
H  28.555  50.777  49.399
H  63.991  24.634  51.243
H  39.489  45.135  73.451
H  29.662  37.590  43.614
H  44.755  53.616  40.391
H  28.208  37.150  43.875
H  50.940  48.726  60.247
H  47.546  73.356  51.054
H  26.733  32.023  44.188
H  28.024  32.303  44.980
H  46.515  74.420  50.630
H  51.669  32.052  35.746
H  52.909  32.960  35.916
H  72.376  36.948  41.090
H  71.231  37.818  41.479
H  65.874  54.056  65.997
H  50.239  47.451  60.760
H  63.218  36.897  46.889
H  72.706  39.165  60.094
H  58.141  59.374  53.507
H  50.549  24.249  53.760
H  39.859  62.402  41.559
H  40.342  61.213  40.742
H  40.785  44.771  74.232
H  46.637  66.401  67.567
H  58.707  32.080  64.262
H  38.298  44.127  36.273
H  37.147  43.157  36.571
H  53.344  49.028  76.855
H  25.726  46.776  39.322
H  58.398  60.622  52.645
H  25.438  48.030  38.454
H  28.055  58.324  47.451
H  29.018  58.348  48.654
H  58.466  43.343  54.674
H  59.786  42.525  54.826
H  42.079  53.987  60.737
H  64.251  24.577  52.795
H  40.801  53.700  61.479
H  46.082  66.995  66.236
H  49.133  52.145  37.248
H  49.830  51.335  36.127
H  53.012  49.104  75.373
H  44.478  44.865  52.829
H  62.817  36.832  45.423
H  50.715  72.684  55.287
H  35.992  41.104  67.923
H  36.458  39.697  67.550
H  48.035  62.186  55.063
H  26.654  55.888  63.665
H  26.443  57.162  62.799
H  67.634  37.373  44.647
H  39.567  52.815  52.984
H  70.321  61.427  56.717
H  66.315  42.985  61.613
H  27.480  45.874  43.362
H  47.012  62.678  54.020
H  24.852  39.779  52.964
H  66.066  59.799  35.841
H  33.705  41.203  38.117
H  33.921  39.822  37.476
H  57.998  53.036  40.085
H  45.273  69.186  54.581
H  45.882  70.086  55.713
H  59.277  53.729  39.588
H  37.999  58.486  40.607
H  36.819  57.975  39.757
H  28.552  45.903  44.465
H  66.995  60.014  37.037
H  65.612  53.302  67.294
H  49.699  41.543  23.488
H  66.173  40.312  38.992
H  51.406  71.580  54.451
H  47.832  59.970  56.665
H  48.325  61.388  57.033
H  33.797  54.004  35.476
H  37.821  38.621  73.132
H  66.745  41.562  61.165
H  66.151  41.294  45.857
H  47.540  67.807  64.577
H  40.229  54.178  52.778
H  34.980  50.214  61.862
H  48.360  41.418  22.738
H  63.130  55.919  46.429
H  35.623  50.224  63.253
H  35.501  58.680  51.177
H  36.584  58.199  52.147
H  39.938  33.725  43.362
H  39.713  34.562  44.649
H  62.991  59.486  47.644
H  46.333  67.235  63.804
H  62.623  60.980  47.408
H  71.004  62.164  55.532
H  67.171  39.566  39.868
H  64.509  56.140  45.729
H  65.280  36.939  34.082
H  66.703  37.354  34.446
H  37.735  29.805  38.064
H  42.271  61.101  39.999
H  40.932  33.693  30.168
H  63.334  39.890  36.692
H  63.596  40.978  37.733
H  24.829  48.516  44.751
H  44.367  73.535  58.646
H  45.809  73.382  59.188
H  23.760  48.478  43.645
H  32.153  67.630  41.866
H  32.488  68.274  40.504
H  43.368  60.336  40.779
H  39.891  49.046  70.540
H  49.077  60.674  41.783
H  49.561  60.235  49.353
H  48.114  60.476  49.006
H  48.145  61.825  42.004
H  34.945  50.146  69.760
H  33.951  50.721  68.698
H  42.242  46.734  34.798
H  42.190  46.970  33.273
H  38.176  54.150  67.329
H  33.348  56.743  54.224
H  41.256  49.348  69.883
H  32.741  56.057  52.957
H  66.835  63.545  50.590
H  51.039  29.620  39.844
H  61.643  43.421  48.143
H  61.959  41.931  48.326
H  42.240  72.018  56.879
H  73.297  53.046  60.065
H  71.951  53.175  59.331
H  23.805  48.085  34.022
H  25.191  48.730  34.285
H  44.252  37.572  74.136
H  44.635  31.113  44.335
H  46.047  31.112  43.785
H  65.483  64.092  50.097
H  59.027  60.178  64.501
H  58.479  59.145  65.522
H  39.940  45.654  35.556
H  38.627  46.124  34.977
H  62.393  47.793  40.908
H  42.717  28.540  37.567
H  43.591  29.412  36.665
H  62.534  46.633  39.931
H  43.235  69.302  32.776
H  44.024  70.568  33.111
H  51.309  28.666  41.039
H  39.417  33.422  30.260
H  37.205  53.491  66.317
H  43.224  76.278  59.069
H  39.225  63.935  67.054
H  45.307  45.908  53.639
H  59.356  53.933  69.101
H  61.471  72.413  52.575
H  38.349  37.265  72.633
H  59.582  53.498  67.658
H  50.040  71.717  36.905
H  50.423  72.975  37.672
H  52.768  62.582  61.624
H  53.015  63.496  62.870
H  57.745  47.990  72.310
H  32.222  52.091  36.463
H  47.864  61.669  36.681
H  57.626  48.030  70.793
H  60.438  73.538  52.892
H  62.293  32.011  51.003
H  50.247  25.739  54.099
H  61.093  32.834  51.515
H  68.332  53.980  47.816
H  37.957  38.502  50.559
H  37.552  39.617  49.661
H  67.414  53.930  46.598
H  38.915  30.185  37.166
H  47.130  60.582  35.905
H  54.875  46.700  65.878
H  53.954  46.777  67.087
H  48.967  46.358  75.631
H  33.114  50.672  61.166
H  44.361  35.815  69.466
H  35.176  41.645  32.725
H  36.412  40.815  32.547
H  58.199  43.590  30.009
H  48.880  66.174  49.709
H  47.419  66.542  49.326
H  57.407  44.810  30.468
H  44.190  40.704  73.538
H  42.706  40.714  73.787
H  22.495  46.898  53.588
H  22.999  46.688  52.160
H  35.187  34.040  48.835
H  43.842  36.023  68.018
H  30.965  52.818  36.940
H  34.965  33.176  47.566
H  38.507  56.432  68.039
H  37.635  55.872  69.203
H  50.000  42.838  74.873
H  49.286  43.409  76.107
H  49.683  47.737  75.593
H  53.115  69.318  49.350
H  53.123  70.563  50.286
H  39.983  46.631  49.140
H  67.645  44.934  62.790
H  45.287  55.366  39.140
H  31.995  52.003  38.998
H  25.168  58.637  53.031
H  25.659  59.882  52.287
H  67.075  35.946  51.509
H  44.981  38.883  64.626
H  48.417  26.018  56.124
H  51.502  69.002  51.202
H  49.961  68.961  51.116
H  45.116  40.354  64.272
H  69.984  46.552  52.158
H  69.447  47.531  53.239
H  25.780  58.292  39.364
H  59.156  41.890  48.774
H  47.611  24.255  48.980
H  51.457  33.517  27.104
H  52.694  34.425  26.795
H  48.403  22.973  49.176
H  63.196  73.286  47.505
H  56.521  59.329  74.856
H  56.800  58.366  73.690
H  64.272  72.448  48.272
H  40.703  66.844  51.736
H  40.230  67.303  53.103
H  60.409  41.880  49.641
H  48.400  24.744  57.004
H  47.123  35.642  72.718
H  27.039  57.492  39.069
H  55.838  78.104  48.572
H  64.753  45.567  51.942
H  29.439  58.240  38.723
H  45.592  41.982  53.678
H  46.620  42.182  52.566
H  56.916  43.695  44.125
H  40.422  69.072  62.650
H  41.284  67.874  63.115
H  55.397  43.304  44.182
H  73.818  49.070  42.717
H  46.600  34.441  73.530
H  73.042  47.749  42.582
H  26.986  45.863  52.967
H  70.782  38.274  37.663
H  56.081  25.865  47.527
H  49.830  35.980  61.810
H  48.892  35.911  60.596
H  65.833  35.113  51.117
H  57.253  45.026  47.810
H  57.239  44.476  46.372
H  43.119  46.661  52.365
H  41.856  47.515  52.607
H  26.554  46.375  54.352
H  30.584  44.136  47.605
H  59.817  49.129  38.625
H  29.921  53.716  55.216
H  56.761  35.269  65.293
H  54.827  68.544  68.899
H  54.828  69.248  70.283
H  60.140  27.593  38.837
H  61.480  28.135  39.366
H  27.255  61.041  39.019
H  52.002  22.483  48.626
H  49.290  40.081  66.440
H  27.480  61.999  40.229
H  66.946  53.948  35.679
H  56.903  38.543  46.909
H  66.225  53.900  34.314
H  39.011  51.377  36.763
H  46.303  35.676  67.691
H  42.872  73.602  54.822
H  43.493  72.272  54.372
H  46.654  34.601  66.666
H  42.893  75.199  48.427
H  44.076  76.159  48.191
H  49.718  40.927  65.248
H  44.280  35.155  54.238
H  61.241  40.663  27.665
H  37.624  50.816  36.329
H  60.972  48.144  38.610
H  58.178  37.679  46.599
H  32.208  42.724  67.297
H  29.147  54.736  54.385
H  34.119  49.217  44.247
H  71.602  31.380  49.057
H  70.655  31.377  50.271
H  32.842  49.325  45.088
H  64.529  49.846  40.846
H  63.686  48.942  39.892
H  38.552  57.575  32.699
H  38.447  56.757  31.372
H  59.694  30.580  49.562
H  56.221  34.286  66.279
H  63.855  48.770  51.576
H  60.846  30.213  50.512
H  39.610  69.412  49.154
H  40.135  68.094  49.795
H  55.679  34.183  54.267
H  55.053  34.867  55.480
H  61.060  29.624  45.019
H  24.241  48.311  40.790
H  50.538  36.408  42.306
H  53.082  23.173  49.483
H  33.007  41.726  66.413
H  64.371  50.187  51.945
H  31.782  43.173  47.739
H  56.562  79.031  49.569
H  47.490  50.671  29.242
H  75.623  41.706  44.703
H  75.838  40.970  43.369
H  65.733  62.563  65.812
H  65.383  61.105  66.021
H  63.341  44.492  65.724
H  65.371  51.891  45.133
H  64.294  52.869  45.599
H  62.849  44.212  64.298
H  35.766  64.378  60.517
H  35.673  64.983  61.920
H  33.912  51.593  44.513
H  52.031  27.310  42.555
H  33.873  52.465  40.247
H  53.843  40.613  53.237
H  57.056  30.469  59.370
H  51.867  59.240  57.408
H  50.389  58.889  57.280
H  53.654  43.543  64.096
H  52.598  43.382  62.977
H  46.024  41.606  56.657
H  64.203  53.009  55.935
H  65.400  53.936  56.100
H  53.453  27.310  41.990
H  46.791  41.455  55.343
H  66.418  53.228  30.709
H  32.940  51.813  43.337
H  43.982  55.660  39.861
H  52.890  35.843  59.570
H  52.777  35.423  58.084
H  51.515  51.667  38.119
H  51.876  50.398  37.311
H  38.941  47.444  49.945
H  26.354  56.603  53.972
H  26.951  57.999  54.367
H  69.005  37.236  44.009
H  56.695  31.967  59.118
H  44.287  71.357  64.693
H  65.851  53.200  32.147
H  68.490  47.942  68.947
H  67.044  48.344  68.660
H  33.709  31.593  56.031
H  41.415  71.179  46.608
H  42.338  69.963  46.846
H  34.465  30.252  56.105
H  62.918  63.664  46.746
H  64.044  62.894  47.481
H  26.338  48.876  35.971
H  24.989  49.222  36.584
H  43.500  71.512  63.371
H  60.789  45.635  49.677
H  61.408  45.613  48.258
H  27.361  51.115  53.621
H  70.745  36.916  36.928
H  68.775  59.138  51.161
H  34.117  27.606  40.336
H  32.831  45.520  62.686
H  32.176  44.564  63.734
H  48.115  28.364  44.345
H  46.683  28.038  43.886
H  54.153  57.668  30.351
H  56.909  47.681  52.078
H  57.664  48.895  52.634
H  67.984  60.204  51.960
H  54.379  58.157  31.780
H  37.974  61.887  63.799
H  30.111  59.615  38.571
H  23.896  49.609  41.555
H  63.475  46.329  52.263
H  40.113  62.104  66.249
H  40.802  62.025  64.866
H  60.334  29.210  43.765
H  67.240  71.580  57.761
H  66.564  70.566  56.860
H  47.506  50.724  30.775
H  55.467  27.097  46.848
H  48.448  63.290  35.547
H  48.086  64.625  36.238
H  33.141  60.723  57.628
H  28.014  52.529  53.783
H  57.155  65.198  63.966
H  63.553  28.030  51.637
H  62.059  28.025  52.067
H  56.934  66.606  63.405
H  68.506  50.291  46.102
H  69.483  51.352  46.654
H  72.407  38.924  43.247
H  73.429  39.108  44.395
H  34.807  53.089  41.304
H  55.040  41.257  52.492
H  64.496  54.647  47.545
H  65.274  41.527  44.604
H  31.644  60.356  43.226
H  35.362  27.746  41.201
H  37.586  60.586  64.585
H  49.651  26.376  39.267
H  48.557  27.445  39.403
H  35.164  68.502  47.906
H  43.368  62.319  51.152
H  44.288  61.312  50.504
H  33.979  69.449  48.277
H  34.466  59.976  57.442
H  31.807  50.753  39.832
H  35.142  45.747  61.109
H  50.579  45.584  22.440
H  45.229  41.642  42.757
H  38.676  27.261  57.280
H  47.001  28.655  56.584
H  60.334  35.218  31.812
H  58.062  56.782  66.408
H  58.397  55.321  66.781
H  72.529  34.866  45.582
H  71.056  38.942  65.215
H  54.611  56.213  33.156
H  54.324  57.318  34.197
H  67.390  35.548  38.691
H  39.471  26.245  58.085
H  51.533  71.222  35.619
H  71.980  39.035  51.976
H  52.236  65.658  39.849
H  52.483  64.586  40.942
H  40.528  66.905  60.643
H  71.795  37.958  66.139
H  40.494  53.916  44.755
H  71.643  40.360  52.706
H  39.477  67.422  59.707
H  69.488  40.012  36.763
H  68.857  40.013  38.179
H  52.817  70.414  35.556
H  60.342  45.492  35.111
H  57.017  56.646  42.759
H  50.193  38.226  45.709
H  71.630  47.642  53.504
H  33.856  50.964  46.668
H  42.068  42.352  70.478
H  41.731  43.618  69.696
H  61.904  55.920  50.993
H  61.992  55.370  52.392
H  66.214  27.771  48.511
H  45.548  69.104  35.248
H  46.337  59.695  33.695
H  37.005  66.732  45.288
H  48.781  37.605  46.013
H  36.741  65.427  44.462
H  45.236  60.730  33.883
H  61.787  55.829  74.907
H  60.507  56.378  74.247
H  64.922  50.125  65.136
H  36.879  31.850  51.497
H  37.751  33.111  51.465
H  69.100  31.799  46.671
H  69.224  31.490  48.148
H  47.526  27.476  57.400
H  56.250  57.825  43.447
H  65.340  51.619  65.303
H  41.615  31.311  69.875
H  58.884  45.632  34.707
H  39.268  53.673  43.900
H  66.028  38.541  67.163
H  40.623  36.083  37.413
H  31.919  38.872  42.070
H  51.447  56.734  64.691
H  67.722  40.527  42.868
H  67.856  40.742  44.385
H  57.305  45.297  67.194
H  55.870  44.978  66.793
H  46.990  42.964  34.964
H  47.483  42.216  36.211
H  67.055  38.026  68.187
H  70.199  44.850  38.066
H  71.661  45.135  38.415
H  36.453  58.941  65.624
H  39.139  66.497  31.397
H  37.917  66.356  30.457
H  50.214  65.587  30.140
H  37.072  58.077  61.563
H  36.838  56.595  61.218
H  64.619  61.022  48.937
H  30.280  64.071  52.914
H  29.205  64.992  53.571
H  33.234  39.056  41.235
H  71.561  33.663  45.837
H  42.142  55.371  31.216
H  43.084  58.696  73.966
H  73.269  36.369  51.845
H  60.577  36.736  32.049
H  51.031  58.209  64.603
H  41.090  34.630  37.584
H  38.781  68.507  39.934
H  54.546  79.183  46.773
H  53.531  78.057  46.990
H  77.499  47.185  59.971
H  42.262  55.342  68.417
H  41.330  54.849  67.278
H  42.918  55.901  29.996
H  77.678  46.261  61.192
H  72.764  34.463  50.601
H  56.847  62.571  49.743
H  38.776  69.198  38.591
H  37.637  59.121  66.562
H  61.977  50.261  64.832
H  46.360  55.678  31.178
H  45.323  56.239  30.144
H  57.698  61.656  50.663
H  63.089  51.269  64.515
H  44.548  58.471  74.380
H  74.005  33.856  51.292
H  65.665  60.363  47.997
H  41.487  32.838  69.906
H  28.611  58.029  35.282
H  38.603  52.409  46.069
H  38.380  51.614  47.403
H  45.753  27.200  60.383
H  37.389  62.907  56.657
H  35.931  63.366  56.350
H  45.009  26.176  59.502
H  54.358  64.340  39.504
H  53.818  63.109  38.728
H  45.101  41.106  58.584
H  52.039  76.922  46.062
H  60.209  51.142  35.910
H  61.918  30.201  55.874
H  58.463  38.533  57.940
H  65.942  41.608  30.037
H  31.669  52.573  56.403
H  32.257  53.396  55.238
H  54.078  53.562  75.118
H  47.719  33.957  58.558
H  46.538  33.004  58.881
H  47.395  26.396  37.756
H  49.564  36.154  40.207
H  49.203  37.630  40.404
H  60.934  30.785  56.916
H  35.411  51.232  59.558
H  66.367  44.030  38.693
H  65.192  43.699  37.749
H  50.420  40.691  35.038
H  49.258  53.314  57.652
H  67.493  27.630  45.581
H  61.466  33.962  48.136
H  62.753  33.127  47.896
H  63.373  71.760  50.779
H  59.340  72.266  61.744
H  59.206  72.044  60.225
H  62.783  70.501  51.377
H  57.238  46.413  32.972
H  61.144  51.590  37.054
H  58.284  45.479  32.372
H  39.196  39.563  67.451
H  54.252  52.427  74.082
H  52.050  43.211  37.460
H  47.356  60.122  31.983
H  45.056  63.188  67.316
H  44.984  63.436  68.827
H  53.873  75.446  51.509
H  35.463  39.927  42.986
H  34.947  39.711  44.408
H  54.573  76.805  51.331
H  47.173  48.136  61.934
H  33.377  50.306  47.986
H  65.325  40.865  28.847
H  34.276  52.198  59.853
H  34.564  46.530  52.080
H  69.554  56.878  43.510
H  68.385  55.884  43.828
H  59.569  38.581  53.813
H  33.226  54.381  47.602
H  50.924  42.585  36.601
H  45.692  61.131  42.404
H  70.119  50.719  55.713
H  47.630  28.182  41.692
H  38.364  27.606  52.695
H  58.176  45.549  70.674
H  44.868  39.883  59.466
H  70.060  59.573  46.108
H  70.728  58.338  46.708
H  30.323  47.912  33.219
H  68.812  54.910  27.358
H  67.771  54.663  28.483
H  43.571  71.110  52.339
H  39.090  28.898  52.270
H  44.032  72.554  52.064
H  72.276  48.717  52.657
H  29.739  58.366  36.231
H  51.149  62.877  50.070
H  65.528  37.926  59.456
H  57.942  44.988  72.069
H  68.935  51.260  56.534
H  40.649  34.739  71.805
H  42.066  34.557  71.222
H  33.922  53.429  48.586
H  47.829  61.009  30.807
H  57.840  63.497  52.787
H  59.334  63.378  52.966
H  59.294  38.607  56.644
H  64.171  37.264  59.196
H  50.604  77.430  46.209
H  52.627  63.329  49.965
H  33.774  45.644  53.044
H  46.655  28.759  40.658
H  45.938  61.806  41.032
H  61.170  45.532  30.896
H  56.791  57.866  57.800
H  36.367  53.979  28.852
H  35.548  54.531  27.688
H  56.897  59.382  58.047
H  48.509  41.285  76.478
H  46.961  41.178  76.573
H  60.019  44.486  30.784
H  41.041  55.548  39.399
H  41.993  55.043  38.330
H  67.827  35.131  40.124
H  46.754  69.599  34.413
H  71.258  44.558  65.110
H  42.302  55.105  43.219
H  30.637  59.342  50.133
H  68.915  58.129  60.695
H  56.478  36.427  50.765
H  55.221  34.406  46.852
H  54.861  35.872  47.136
H  65.643  26.815  44.683
H  30.045  49.909  43.723
H  29.329  50.350  45.017
H  64.209  27.004  45.184
H  46.438  57.011  49.187
H  70.120  57.587  59.855
H  41.294  23.399  48.729
H  58.485  35.451  28.435
H  65.074  43.849  48.184
H  37.662  32.542  65.809
H  74.676  48.192  47.282
H  74.023  47.247  46.254
H  39.923  58.300  67.127
H  61.796  55.836  61.146
H  60.685  54.820  61.372
H  60.797  49.750  43.864
H  62.882  61.683  50.375
H  34.865  52.925  46.357
H  45.466  55.985  48.583
H  27.619  48.899  44.683
H  70.571  31.844  44.496
H  69.321  32.711  44.748
H  48.330  54.471  27.684
H  45.856  25.478  61.719
H  45.953  24.204  62.585
H  49.339  39.795  73.739
H  47.177  55.452  27.603
H  53.805  63.099  44.991
H  54.628  64.054  45.880
H  47.950  40.261  73.252
H  42.506  55.138  44.719
H  51.429  38.087  35.185
H  58.988  34.854  27.099
H  42.756  23.803  49.106
H  54.293  65.252  47.787
H  54.185  66.564  47.036
H  48.944  66.007  30.859
H  31.190  59.047  48.756
H  43.061  45.780  25.336
H  41.634  45.538  25.841
H  56.429  36.662  52.295
H  26.643  47.910  44.023
H  51.923  39.412  34.609
H  27.807  50.351  65.078
H  36.180  52.184  46.003
H  38.738  33.074  64.840
H  37.828  73.474  55.915
H  43.185  74.353  44.062
H  35.144  32.996  62.450
H  35.358  32.476  61.016
H  44.354  73.513  43.571
H  47.645  39.677  40.143
H  48.192  38.952  38.917
H  66.312  46.616  69.893
H  71.975  42.139  54.823
H  37.333  33.142  38.832
H  60.315  28.467  53.663
H  72.132  44.421  63.893
H  48.670  30.559  54.303
H  50.070  29.955  54.472
H  46.343  48.843  65.630
H  66.258  46.093  35.953
H  66.193  44.584  36.092
H  46.773  47.681  66.554
H  59.291  58.267  39.155
H  58.021  58.678  39.882
H  51.425  28.169  52.604
H  44.795  64.482  52.329
H  72.618  40.741  54.838
H  60.974  62.384  64.733
H  52.627  56.799  60.608
H  75.452  39.057  44.920
H  53.923  56.604  61.381
H  59.948  62.246  63.556
H  45.219  77.200  43.474
H  45.532  77.123  41.956
H  59.975  48.691  43.063
H  23.965  47.928  55.994
H  23.592  48.381  54.569
H  63.649  45.033  41.146
H  66.330  34.031  65.597
H  66.911  34.223  64.188
H  60.018  29.766  52.949
H  39.028  57.733  66.041
H  64.585  42.643  48.993
H  75.877  37.606  45.132
H  36.437  59.788  28.435
H  27.940  43.305  47.986
H  27.681  42.204  49.060
H  56.196  56.875  77.089
H  37.921  60.124  28.635
H  59.920  33.671  64.959
H  61.060  34.420  64.200
H  57.132  57.288  75.947
H  65.541  45.290  70.039
H  26.848  49.217  65.525
H  63.364  60.299  50.879
H  67.008  67.340  53.361
H  53.620  58.826  27.012
H  62.017  53.253  35.868
H  59.674  71.865  46.247
H  58.820  73.117  46.022
H  61.609  54.730  35.893
H  62.972  40.839  63.902
H  62.449  42.041  64.702
H  30.293  39.462  46.889
H  28.841  39.922  47.123
H  57.955  38.375  49.687
H  58.411  39.726  49.116
H  57.049  39.252  53.103
H  56.029  62.798  54.696
H  56.873  61.838  53.809
H  43.442  43.658  51.120
H  56.629  50.295  38.488
H  54.961  44.800  61.190
H  55.964  51.411  37.748
H  43.686  68.808  52.583
H  56.134  38.754  51.961
H  58.099  75.470  46.366
H  37.735  42.955  40.321
H  44.368  42.411  51.212
H  37.567  41.489  39.891
H  33.608  60.329  39.423
H  65.556  44.320  65.536
H  40.607  34.225  41.520
H  33.465  61.847  39.550
H  44.237  67.372  52.627
H  51.561  61.481  68.363
H  51.735  62.144  69.720
H  55.594  44.208  62.502
H  49.016  33.236  31.257
H  50.272  33.308  30.403
H  46.062  41.460  25.531
H  31.923  38.456  37.108
H  66.945  44.229  64.874
H  32.972  37.483  37.750
H  47.545  41.241  25.132
H  55.653  48.083  46.070
H  56.486  46.875  46.539
H  30.349  36.890  63.113
H  48.893  54.013  76.711
H  48.816  53.819  75.193
H  58.719  75.285  47.744
H  59.537  54.134  64.203
H  29.268  36.093  63.861
H  60.605  54.934  64.959
H  49.676  72.747  53.020
H  70.399  45.627  67.150
H  32.066  54.298  62.224
H  72.628  37.427  50.987
H  40.325  30.423  46.363
H  56.049  36.520  24.646
H  55.348  36.063  25.945
H  43.416  28.580  40.620
H  43.800  74.539  41.403
H  45.441  47.158  37.242
H  73.391  54.538  49.500
H  74.582  55.026  48.729
H  43.765  76.080  41.626
H  43.764  56.798  35.664
H  42.312  36.133  35.900
H  43.813  55.434  34.963
H  36.730  50.110  57.955
H  38.916  64.962  50.832
H  44.840  47.748  38.531
H  39.605  61.665  46.541
H  50.995  61.230  36.887
H  64.057  44.621  39.703
H  35.811  33.190  39.063
H  68.030  68.341  53.954
H  24.533  50.132  56.688
H  24.121  50.880  55.399
H  35.875  51.339  57.606
H  43.606  36.106  35.026
H  41.536  29.534  46.692
H  52.326  45.356  66.230
H  65.313  70.807  49.667
H  65.739  71.932  50.638
H  42.452  62.395  71.545
H  58.873  65.067  40.010
H  58.845  66.455  39.312
H  42.149  61.529  70.321
H  71.065  46.826  66.430
H  32.342  54.737  63.675
H  45.917  54.773  33.726
H  66.833  57.787  34.903
H  65.716  57.775  33.834
H  56.341  61.232  66.128
H  41.968  37.615  70.960
H  41.949  38.460  72.251
H  56.971  60.119  67.043
H  42.759  31.561  32.873
H  39.276  34.428  40.746
H  44.256  31.418  33.311
H  45.371  53.652  34.668
H  38.525  64.647  52.287
H  29.805  47.378  31.897
H  43.219  27.191  40.002
H  51.844  44.234  65.310
H  67.190  43.786  30.963
H  49.786  53.430  67.367
H  50.456  52.025  67.307
H  65.701  43.929  30.588
H  75.388  47.808  49.671
H  59.484  70.037  43.231
H  58.639  70.794  44.258
H  40.293  33.886  52.498
H  40.892  34.624  51.251
H  51.759  42.711  31.832
H  50.343  42.160  31.616
H  67.434  38.368  37.733
H  50.778  23.082  46.298
H  49.958  23.156  47.618
H  57.799  39.005  29.415
H  41.839  74.969  42.484
H  66.149  52.024  54.828
H  27.252  49.652  61.240
H  45.832  46.242  34.976
H  33.877  68.415  57.987
H  44.420  46.829  34.904
H  42.592  30.597  59.760
H  47.714  34.135  52.359
H  46.410  34.922  52.645
H  41.813  31.723  60.487
H  46.352  62.309  57.691
H  67.395  51.103  54.824
H  45.063  62.535  56.856
H  57.347  39.123  27.934
H  24.923  46.381  50.713
H  31.091  55.077  59.627
H  35.857  34.087  54.825
H  37.201  33.357  54.820
H  55.625  58.286  71.596
H  58.099  25.731  47.057
H  58.372  26.023  48.552
H  50.729  26.846  64.389
H  57.166  58.050  71.530
H  41.671  55.317  64.349
H  27.154  48.559  48.205
H  74.751  49.213  49.606
H  65.023  62.194  44.799
H  54.551  58.851  23.525
H  39.866  36.969  33.840
H  41.637  31.009  40.825
H  42.316  31.559  42.082
H  39.374  38.159  34.644
H  60.538  38.610  63.363
H  60.723  39.971  64.013
H  24.523  44.241  49.756
H  53.268  52.003  58.310
H  25.436  47.017  52.013
H  42.155  55.152  62.907
H  49.113  58.907  40.196
H  57.517  57.251  37.231
H  53.748  66.719  67.647
H  47.291  52.704  35.112
H  62.631  68.590  39.538
H  62.198  70.051  39.812
H  28.481  50.239  61.954
H  58.750  58.192  37.090
H  69.229  37.059  59.134
H  70.120  38.269  58.843
H  47.657  35.259  32.297
H  63.039  43.552  62.014
H  62.149  59.721  58.764
H  48.734  52.577  34.532
H  26.059  48.736  57.720
H  31.542  41.008  47.272
H  48.474  39.210  36.369
H  48.507  40.437  37.343
H  32.784  40.731  48.116
H  49.002  35.023  32.960
H  73.018  38.919  40.358
H  44.983  26.274  36.061
H  61.452  43.071  66.322
H  59.919  42.975  66.294
H  69.712  43.289  65.520
H  25.001  48.158  58.627
H  54.371  65.785  68.687
H  65.589  49.158  45.657
H  65.162  68.097  34.050
H  61.090  71.402  42.936
H  33.560  63.249  49.863
H  34.141  64.590  50.356
H  61.957  70.791  41.857
H  39.902  24.746  49.796
H  39.081  24.744  48.486
H  50.904  57.211  62.233
H  67.708  39.210  54.502
H  66.789  39.278  55.744
H  41.793  66.187  54.008
H  64.838  66.691  33.415
H  44.443  55.066  72.916
H  55.065  65.856  60.526
H  55.938  65.198  61.609
H  57.605  54.938  24.191
H  65.745  66.718  43.979
H  64.264  66.906  43.932
H  34.923  51.014  55.094
H  42.743  65.281  53.248
H  66.220  50.372  46.329
H  50.730  56.103  61.162
H  34.914  50.298  53.486
H  58.255  53.632  24.690
H  48.338  58.205  41.344
H  52.332  27.481  47.072
H  52.052  61.434  26.422
H  47.073  59.339  74.811
H  59.463  52.081  25.751
H  59.808  52.956  26.931
H  52.880  68.959  31.184
H  69.943  30.130  51.802
H  69.917  31.481  52.544
H  54.132  69.815  31.589
H  46.211  58.867  76.002
H  32.004  56.909  46.349
H  33.321  57.664  46.168
H  51.447  32.060  66.651
H  23.408  53.597  54.655
H  28.671  44.730  64.571
H  41.028  57.069  34.504
H  55.034  48.815  43.692
H  29.268  47.139  35.350
H  25.122  55.422  45.578
H  26.442  55.839  44.925
H  48.018  46.346  50.862
H  47.878  71.933  45.784
H  46.527  71.319  46.084
H  73.100  51.990  51.891
H  67.934  49.405  44.110
H  51.011  43.112  55.776
H  62.657  29.884  49.453
H  42.903  25.518  43.882
H  47.900  71.033  39.841
H  45.400  42.787  64.635
H  48.394  69.747  39.117
H  50.673  54.272  74.690
H  33.651  39.815  61.810
H  32.675  39.937  60.636
H  24.428  56.172  48.059
H  71.872  61.321  53.914
H  71.654  62.285  52.782
H  56.423  37.018  70.378
H  52.424  32.247  65.460
H  55.344  75.176  49.373
H  49.203  46.793  65.560
H  22.778  43.705  47.892
H  42.461  61.790  44.364
H  45.668  52.199  76.680
H  68.211  50.696  43.309
H  41.806  58.290  49.819
H  40.881  59.293  50.443
H  50.935  44.445  21.482
H  34.045  45.897  69.801
H  34.738  47.107  69.165
H  49.210  48.241  66.072
H  43.680  55.775  27.254
H  42.303  55.238  27.723
H  72.358  51.950  53.238
H  64.995  61.414  68.222
H  47.072  46.799  42.826
H  29.536  46.882  60.674
H  34.962  45.051  66.302
H  34.813  44.796  64.789
H  64.435  37.831  36.068
H  46.374  31.523  31.469
H  46.590  33.010  31.100
H  52.906  36.153  36.405
H  40.177  39.406  51.163
H  65.748  60.751  69.388
H  54.019  58.937  24.966
H  26.512  48.922  46.846
H  40.080  45.593  58.301
H  49.287  27.094  64.799
H  40.000  44.539  59.361
H  53.246  26.267  47.021
H  49.218  32.431  63.843
H  48.820  32.614  65.299
H  51.291  61.044  27.710
H  43.914  27.805  32.658
H  45.339  28.164  32.253
H  39.894  58.068  34.863
H  29.520  48.379  61.023
H  67.274  67.677  41.938
H  67.891  67.676  43.343
H  32.419  29.967  44.212
H  31.271  29.584  43.265
H  52.440  43.568  55.361
H  40.857  39.124  46.629
H  39.711  38.832  45.649
H  52.789  52.531  47.954
H  46.400  37.931  56.281
H  72.667  41.420  43.467
H  72.490  42.266  42.185
H  44.885  38.114  56.073
H  40.709  40.706  51.795
H  51.405  35.805  36.554
H  62.950  37.625  35.880
H  25.981  44.177  49.274
H  30.562  47.983  35.236
H  63.315  36.063  29.480
H  61.846  40.993  50.843
H  62.875  40.707  49.728
H  62.523  37.183  28.769
H  40.975  31.567  62.725
H  51.127  44.785  61.176
H  49.693  45.223  60.783
H  30.976  54.544  39.705
H  74.063  40.062  40.307
H  43.785  65.139  51.384
H  47.677  29.888  30.790
H  68.824  42.135  66.036
H  51.172  75.959  50.089
H  58.380  37.741  69.493
H  55.143  57.180  53.128
H  54.784  57.081  54.614
H  46.003  55.271  67.391
H  44.862  56.299  67.232
H  65.746  30.313  48.622
H  46.121  44.324  33.499
H  38.562  48.297  35.523
H  47.576  44.801  33.715
H  77.309  44.710  46.862
H  67.248  30.221  48.447
H  62.097  48.328  28.547
H  63.986  33.386  66.795
H  31.308  43.755  33.156
H  30.119  44.294  33.986
H  38.884  49.462  24.826
H  45.199  75.240  55.279
H  52.661  76.227  49.829
H  57.223  30.158  39.883
H  56.417  29.391  47.429
H  38.766  39.632  68.948
H  62.094  49.843  28.641
H  57.388  58.204  34.929
H  76.003  43.937  46.564
H  44.477  74.093  56.003
H  53.981  60.546  38.504
H  37.519  45.386  58.501
H  36.045  45.322  59.020
H  52.915  60.978  39.543
H  46.356  73.083  38.385
H  47.519  74.020  38.765
H  55.380  59.227  68.215
H  69.907  45.502  61.554
H  36.090  28.677  46.044
H  67.255  29.609  40.449
H  59.378  38.825  69.032
H  41.698  59.747  62.840
H  67.770  30.762  41.329
H  50.481  31.525  56.403
H  50.220  31.463  57.888
H  55.068  58.584  66.841
H  48.371  55.387  35.562
H  49.808  55.195  34.626
H  71.044  48.160  42.927
H  46.298  27.431  37.650
H  49.123  69.694  43.180
H  48.465  48.864  61.597
H  40.521  60.660  63.062
H  70.215  50.790  51.390
H  56.421  58.143  33.724
H  42.282  73.602  58.522
H  52.854  68.865  39.548
H  52.445  70.348  39.567
H  52.403  50.513  60.304
H  29.264  48.853  63.768
H  53.299  49.276  60.203
H  56.796  34.454  63.371
H  38.115  46.041  63.869
H  42.595  26.500  36.649
H  37.467  44.650  63.615
H  42.660  26.280  38.140
H  34.056  30.128  49.191
H  54.320  32.301  39.264
H  36.853  50.645  49.382
H  30.032  47.557  64.133
H  62.234  46.551  62.985
H  39.208  48.006  24.567
H  49.214  41.696  35.198
H  28.835  35.648  53.844
H  27.976  35.518  55.089
H  33.584  64.658  55.929
H  34.706  65.092  54.971
H  66.990  26.573  46.574
H  55.001  32.917  40.484
H  58.527  39.177  54.753
H  28.595  33.535  42.871
H  52.313  29.015  59.895
H  42.565  74.255  59.878
H  55.728  30.395  48.375
H  56.709  39.810  61.727
H  55.217  39.659  61.284
H  71.146  35.970  44.319
H  57.295  29.335  41.178
H  37.543  54.403  74.728
H  69.928  35.824  45.251
H  37.526  55.433  73.571
H  32.456  39.004  44.439
H  29.087  35.003  42.731
H  33.666  38.050  44.306
H  72.068  64.664  58.079
H  71.601  63.708  56.941
H  48.966  58.697  51.041
H  64.568  32.806  65.488
H  76.494  52.625  43.951
H  75.929  54.042  43.725
H  56.306  34.057  61.959
H  51.325  29.297  61.051
H  58.553  55.648  40.526
H  57.245  54.927  40.929
H  49.379  58.487  52.524
H  37.316  63.996  62.937
H  69.860  43.978  61.384
H  69.694  52.214  51.217
H  43.717  56.410  72.932
H  49.359  54.149  73.110
H  69.933  49.123  43.423
H  48.277  53.181  72.525
H  46.551  72.790  54.856
H  55.399  61.962  72.561
H  69.597  57.535  49.412
H  68.140  57.084  49.794
H  61.112  56.892  41.263
H  31.380  35.886  49.219
H  41.584  45.501  39.480
H  31.083  36.667  47.955
H  59.656  57.347  41.227
H  48.159  40.797  53.665
H  49.249  40.757  54.742
H  57.225  25.902  44.774
H  40.662  56.840  27.594
H  39.758  56.163  28.624
H  33.820  51.238  63.889
H  33.695  52.713  63.429
H  38.679  64.414  63.519
H  55.487  25.426  53.166
H  57.479  27.300  45.332
H  50.593  64.655  41.922
H  44.422  26.588  34.640
H  57.301  41.737  70.235
H  54.295  33.505  68.752
H  53.083  32.741  68.159
H  62.439  44.889  61.624
H  37.856  48.670  34.179
H  38.690  63.070  70.625
H  45.209  67.494  41.499
H  71.998  44.274  43.340
H  70.968  43.195  43.695
H  38.292  64.506  71.008
H  57.893  51.757  65.174
H  58.404  40.825  69.660
H  49.344  46.872  35.409
H  50.228  47.443  34.284
H  61.188  58.128  65.266
H  61.824  58.368  66.647
H  54.638  25.987  60.887
H  42.842  44.606  39.332
H  54.099  26.537  59.535
H  44.135  67.255  42.553
H  41.594  68.049  48.420
H  43.107  68.112  48.344
H  61.358  58.423  58.712
H  59.313  52.244  65.277
H  49.705  63.431  42.278
H  55.474  26.333  51.909
H  45.803  72.736  53.510
H  61.560  42.800  70.837
H  65.447  48.045  35.260
H  61.768  44.226  71.358
H  63.988  47.556  35.413
H  29.655  53.524  44.487
H  29.636  52.484  43.337
H  71.279  53.524  51.147
H  30.152  58.039  67.572
H  29.049  57.003  67.868
H  40.656  56.198  61.692
H  70.339  54.712  51.417
H  34.573  36.077  49.816
H  34.634  69.681  57.592
H  21.987  41.368  45.014
H  22.791  42.383  45.846
H  40.930  60.376  68.468
H  75.173  46.220  60.540
H  74.151  45.524  59.632
H  41.264  73.688  43.131
H  40.973  61.904  68.699
H  35.693  27.395  46.769
H  35.970  36.633  50.000
H  41.245  57.596  61.475
H  45.123  40.820  38.387
H  70.312  52.239  69.722
H  68.970  51.741  70.296
H  54.173  62.050  71.615
H  45.275  58.922  35.267
H  35.603  52.093  30.503
H  49.621  69.064  41.893
H  52.012  77.364  53.783
H  52.813  76.115  53.312
H  69.163  54.070  53.276
H  38.230  35.496  55.776
H  39.269  36.669  55.842
H  68.447  52.830  52.722
H  37.755  72.203  56.812
H  37.028  52.599  30.724
H  58.358  56.602  46.222
H  44.525  58.757  36.579
H  59.413  56.248  45.195
H  58.564  56.108  60.223
H  44.528  51.549  30.519
H  45.451  51.290  29.314
H  43.791  59.170  52.187
H  57.512  56.596  59.217
H  57.170  44.039  36.640
H  56.934  45.576  36.633
H  43.486  60.644  52.499
H  48.859  30.907  30.716
H  50.886  66.207  49.212
H  31.430  57.428  32.101
H  31.180  58.942  32.017
H  51.388  72.911  42.247
H  61.584  42.149  68.503
H  35.411  48.398  32.778
H  52.327  45.750  54.110
H  63.503  63.467  63.886
H  32.727  71.705  60.552
H  34.583  62.871  54.768
H  34.852  61.347  54.733
H  47.378  64.602  51.814
H  34.479  47.577  37.768
H  69.316  62.633  54.519
H  33.475  47.007  38.765
H  37.537  50.528  32.477
H  36.470  50.486  33.572
H  47.624  45.028  59.190
H  58.280  69.241  47.391
H  48.145  43.675  59.675
H  61.155  52.549  73.368
H  51.502  40.014  29.256
H  51.852  41.175  30.221
H  64.952  63.292  63.405
H  60.505  53.843  73.919
H  47.879  64.471  53.264
H  29.035  38.066  53.002
H  68.175  62.130  53.603
H  38.946  34.645  34.430
H  33.265  50.305  36.792
H  61.233  53.393  33.136
H  61.561  52.225  32.192
H  48.731  45.085  63.608
H  53.589  44.893  54.225
H  27.342  54.911  56.615
H  35.044  36.212  42.498
H  42.370  30.425  57.365
H  34.760  47.118  32.170
H  54.492  32.317  46.788
H  51.581  74.069  41.203
H  53.891  32.539  45.377
H  53.834  45.123  24.045
H  33.751  37.331  42.278
H  69.000  62.411  37.000
H  69.732  61.290  36.199
H  54.868  53.391  26.068
H  43.843  30.709  57.762
H  56.087  53.130  25.144
H  54.280  59.269  55.761
H  40.139  39.300  39.482
H  39.780  40.705  39.070
H  62.540  41.015  68.890
H  45.564  39.529  36.303
H  28.795  37.116  51.807
H  32.790  32.987  63.347
H  66.168  33.752  55.032
H  30.286  53.311  29.325
H  30.253  51.835  28.923
H  35.174  34.755  61.179
H  44.458  78.222  48.346
H  44.385  78.641  46.871
H  64.772  33.097  55.361
H  66.499  51.798  39.767
H  65.589  50.763  39.107
H  35.033  36.125  61.829
H  56.825  24.919  57.085
H  33.914  53.499  69.169
H  34.830  53.786  70.403
H  23.954  51.572  43.356
H  23.930  50.623  44.571
H  57.169  42.639  47.307
H  72.620  50.170  50.875
H  40.145  65.192  65.032
H  71.725  49.020  50.409
H  55.803  43.253  47.663
H  35.677  54.022  43.684
H  56.984  25.054  55.548
H  34.209  53.601  43.775
H  58.219  68.985  48.907
H  32.757  30.378  48.407
H  42.945  67.320  30.674
H  52.196  31.697  60.395
H  58.751  42.159  45.391
H  55.225  48.100  60.212
H  63.085  66.131  61.596
H  40.201  66.142  66.228
H  52.629  56.562  38.517
H  51.417  55.775  37.976
H  63.960  64.871  61.727
H  48.105  45.924  72.264
H  49.200  46.178  73.319
H  49.777  55.400  25.675
H  44.993  30.219  41.786
H  45.829  77.495  52.569
H  49.864  56.928  25.445
H  31.773  41.773  59.031
H  33.289  41.508  59.311
H  47.011  78.320  52.010
H  54.839  47.903  35.792
H  56.180  48.102  36.565
H  54.796  47.834  61.691
H  38.268  36.647  60.719
H  37.965  38.151  60.389
H  44.689  30.417  40.279
H  46.389  38.563  35.433
H  32.795  49.679  38.131
H  51.898  61.333  48.243
H  34.596  56.717  33.367
H  59.850  50.778  47.147
H  72.154  48.528  34.161
H  67.726  38.000  49.065
H  72.917  48.584  35.475
H  60.787  50.337  48.276
H  68.523  49.118  41.372
H  68.094  48.094  40.322
H  51.769  32.042  45.038
H  60.576  48.443  34.168
H  34.434  55.670  34.479
H  59.429  47.843  33.296
H  38.044  51.259  56.005
H  42.937  69.172  41.513
H  42.092  41.642  63.114
H  41.908  42.871  62.173
H  48.728  46.123  47.114
H  37.703  51.288  42.371
H  66.062  45.703  55.763
H  66.227  47.019  56.543
H  61.345  55.042  69.461
H  36.683  52.328  56.095
H  51.011  50.768  34.624
H  62.722  55.730  69.231
H  52.682  30.938  44.360
H  45.488  66.475  37.247
H  52.675  49.754  27.109
H  49.224  56.936  58.559
H  48.325  58.077  58.071
H  28.130  53.930  63.892
H  70.225  54.622  46.234
H  71.325  54.033  45.352
H  38.178  54.515  59.504
H  49.172  49.855  58.357
H  37.361  68.183  65.561
H  38.418  68.134  66.659
H  45.769  65.054  37.728
H  28.453  64.809  56.330
H  33.552  58.522  62.470
H  34.345  58.075  63.720
H  49.763  50.770  33.738
H  55.316  67.214  33.751
H  54.119  67.848  33.047
H  50.326  63.226  38.795
H  46.863  63.920  55.997
H  46.893  64.835  57.233
H  50.236  52.827  47.931
H  49.198  63.040  39.801
H  42.092  70.435  41.834
H  58.705  28.595  42.352
H  31.555  45.030  53.703
H  38.595  52.517  42.082
H  59.836  40.217  45.072
H  60.181  40.537  43.648
H  48.013  46.371  63.251
H  38.458  70.706  43.337
H  37.048  71.331  43.261
H  51.620  29.314  49.806
H  67.179  50.007  35.831
H  66.797  49.764  34.343
H  54.647  51.208  34.151
H  33.518  34.051  64.130
H  33.746  70.640  61.014
H  28.735  33.565  46.897
H  66.574  61.906  56.352
H  58.563  47.623  37.428
H  26.191  54.348  57.494
H  49.265  60.052  74.984
H  49.269  59.924  73.460
H  57.377  47.059  38.214
H  53.478  51.672  33.273
H  50.464  61.868  48.497
H  68.479  59.799  38.711
H  67.480  58.638  38.695
H  66.487  63.453  56.142
H  62.273  65.653  42.599
H  62.112  64.858  43.889
H  55.852  33.499  57.644
H  32.394  43.839  53.210
H  48.948  53.050  49.101
H  59.910  37.154  51.026
H  58.554  37.307  51.773
H  58.178  27.375  43.130
H  61.296  34.739  45.975
H  61.434  34.768  44.448
H  41.960  51.905  34.047
H  52.342  53.948  52.023
H  35.199  66.434  63.895
H  52.419  53.579  76.938
H  27.969  41.424  42.603
H  27.154  40.360  43.336
H  51.570  30.683  50.431
H  58.908  58.493  60.131
H  60.202  59.114  60.615
H  52.427  51.278  25.107
H  53.745  51.693  25.828
H  47.730  34.592  63.632
H  47.377  36.075  64.003
H  54.336  33.462  57.894
H  74.643  55.523  55.620
H  74.693  55.581  54.052
H  42.035  67.772  31.819
H  52.677  49.916  71.086
H  29.715  32.787  46.023
H  56.650  30.046  64.247
H  45.027  59.436  44.418
H  62.790  49.306  24.770
H  62.327  47.946  24.250
H  60.997  41.301  58.908
H  36.530  60.398  34.553
H  43.962  60.244  43.662
H  35.018  60.551  34.360
H  60.708  39.977  58.162
H  30.378  70.490  47.513
H  31.364  70.110  48.642
H  56.610  54.015  55.328
H  38.196  66.130  40.031
H  44.268  72.424  40.896
H  35.564  51.467  43.150
H  68.115  39.810  68.734
H  68.171  41.273  69.222
H  66.454  36.077  60.649
H  28.913  37.747  41.690
H  54.740  57.242  64.044
H  28.404  39.175  41.560
H  44.553  58.050  64.458
H  36.298  50.298  43.886
H  65.277  70.022  44.306
H  60.248  60.608  69.528
H  46.575  65.307  62.840
H  68.880  45.062  52.639
H  66.869  64.544  42.705
H  68.173  64.524  57.115
H  35.322  44.322  31.015
H  34.560  45.507  30.480
H  69.231  63.431  57.369
H  48.542  63.256  63.546
H  47.152  63.263  62.902
H  55.537  58.583  56.372
H  26.171  36.629  59.707
H  47.506  45.042  47.390
H  42.521  45.992  62.175
H  25.071  36.757  58.644
H  50.422  26.158  47.329
H  44.306  60.913  62.253
H  43.856  59.527  62.822
H  45.806  65.628  61.566
H  68.813  43.720  51.876
H  57.498  64.383  58.281
H  58.820  64.922  58.903
H  43.538  45.896  63.320
H  34.934  43.551  41.537
H  35.529  42.561  42.516
H  42.500  52.988  33.163
H  56.207  41.011  63.651
H  49.852  70.914  57.436
H  59.978  61.076  68.102
H  57.117  23.526  53.387
H  56.043  23.380  54.513
H  46.181  25.478  57.496
H  32.511  63.654  52.054
H  66.953  37.484  36.553
H  46.256  44.030  60.728
H  53.464  25.566  55.915
H  53.523  59.409  71.893
H  36.735  32.304  56.574
H  53.000  67.552  65.555
H  32.189  51.587  34.428
H  38.926  31.668  34.187
H  35.324  32.876  56.563
H  36.112  71.043  40.633
H  37.958  67.069  41.223
H  38.891  48.585  28.724
H  38.023  31.015  35.291
H  53.952  60.190  70.644
H  37.229  70.450  39.718
H  57.848  66.764  57.723
H  52.347  24.947  55.038
H  45.614  42.904  61.526
H  52.482  67.670  64.099
H  32.964  63.094  53.397
H  36.418  45.358  54.881
H  33.677  51.284  34.768
H  45.835  38.430  53.858
H  46.131  39.783  53.185
H  58.341  68.021  56.957
H  56.363  37.543  58.052
H  55.855  38.409  59.200
H  38.131  48.802  27.416
H  67.042  35.142  59.601
H  49.042  71.052  58.719
H  44.725  25.470  56.973
H  40.012  48.764  51.005
H  37.033  45.292  56.295
H  62.536  39.140  54.675
H  65.885  63.946  46.295
H  51.412  67.089  41.354
H  51.463  68.510  40.777
H  65.644  65.427  45.973
H  51.441  55.759  43.311
H  51.759  55.412  44.771
H  40.234  48.966  52.497
H  53.327  56.859  63.625
H  29.620  41.115  37.051
H  29.546  42.060  38.268
H  61.149  38.868  55.293
H  54.712  40.915  63.284
H  67.843  63.370  42.963
H  38.758  44.355  28.618
H  44.958  26.403  47.402
H  44.340  25.402  46.393
H  63.596  57.175  25.868
H  29.785  60.177  45.243
H  30.409  61.503  44.790
H  62.357  56.359  26.242
H  55.014  40.402  39.873
H  47.750  70.825  36.964
H  43.498  57.120  63.771
H  60.801  37.502  65.957
H  71.773  31.368  53.547
H  60.129  36.166  65.611
H  39.809  64.104  56.775
H  38.779  63.832  57.869
H  69.173  64.680  50.217
H  48.924  69.812  37.099
H  45.300  63.951  27.889
H  51.036  52.941  76.792
H  52.883  44.817  22.863
H  40.205  35.076  35.154
H  37.648  44.299  38.614
H  53.272  45.728  70.747
H  69.393  63.232  50.748
H  52.761  62.117  41.354
H  71.944  32.771  54.158
H  55.008  39.047  39.132
H  57.545  66.074  33.565
H  57.552  67.421  32.776
H  55.587  30.825  63.460
H  31.300  35.641  35.372
H  32.529  36.160  34.568
H  41.710  37.921  38.185
H  66.819  38.783  61.394
H  67.670  37.906  60.476
H  67.880  46.007  64.933
H  28.448  64.602  46.550
H  55.009  62.241  41.638
H  69.304  45.484  64.946
H  55.644  44.644  28.494
H  70.472  46.981  33.989
H  71.283  46.498  32.772
H  58.525  32.974  43.930
H  59.783  33.673  44.396
H  51.090  32.745  60.412
H  59.322  43.535  45.628
H  29.593  65.569  46.970
H  43.954  63.839  27.089
H  56.327  62.433  40.890
H  40.765  37.433  39.299
H  53.000  63.008  42.559
H  52.047  45.815  69.807
H  48.679  68.972  61.497
H  44.572  72.727  45.800
H  45.284  73.121  47.062
H  36.585  40.712  54.529
H  33.581  54.143  26.100
H  36.691  42.005  53.706
H  76.104  44.574  44.116
H  76.574  44.768  42.666
H  60.655  46.915  46.733
H  49.574  64.558  55.902
H  50.342  63.359  55.326
H  74.086  44.254  45.546
H  62.007  47.510  46.321
H  62.613  50.379  44.951
H  43.720  69.929  35.437
H  52.716  38.859  49.038
H  45.264  72.017  41.950
H  52.978  40.360  49.108
H  54.917  51.481  54.884
H  49.959  65.520  32.713
H  50.479  64.856  34.042
H  49.161  25.399  47.869
H  38.931  43.912  27.178
H  63.336  50.934  43.707
H  38.425  45.304  39.446
H  53.323  38.576  66.315
H  52.678  38.150  67.635
H  50.041  68.643  60.934
H  68.767  49.594  54.279
H  48.105  48.117  74.007
H  47.868  49.583  73.713
H  49.265  77.159  51.525
H  53.394  38.079  47.200
H  52.616  36.769  47.061
H  49.238  78.443  50.689
H  46.519  58.912  65.984
H  68.863  49.966  52.814
H  45.214  58.600  66.725
H  31.464  46.100  47.973
H  32.276  47.386  47.721
H  43.145  69.733  36.852
H  46.445  71.884  49.576
H  45.814  71.458  48.252
H  62.147  34.255  30.511
H  63.546  33.625  30.498
H  33.820  53.141  27.252
H  74.061  43.171  44.479
H  58.086  36.948  66.344
H  57.013  36.867  67.463
H  65.953  69.069  43.281
H  55.276  43.180  28.115
H  52.066  54.088  74.104
H  27.451  53.561  62.532
H  51.890  49.199  28.329
H  55.852  77.085  46.218
H  50.761  55.279  47.780
H  26.095  57.868  60.211
H  27.304  58.555  60.891
H  47.000  48.980  27.618
H  26.781  59.093  45.686
H  27.084  57.602  45.548
H  48.057  48.023  28.095
H  50.543  68.385  47.991
H  61.293  72.480  47.577
H  66.104  57.015  55.674
H  49.550  69.375  48.587
H  33.245  41.154  35.167
H  33.658  40.743  33.740
H  45.039  58.692  40.507
H  73.639  45.884  62.357
H  73.318  46.836  63.533
H  44.612  58.957  41.979
H  65.805  55.844  37.153
H  55.000  59.469  64.752
H  56.469  58.959  64.766
H  65.602  57.107  36.274
H  47.991  53.181  56.431
H  38.284  42.575  51.795
H  30.862  66.459  52.035
H  74.280  55.248  57.773
H  55.766  65.170  41.763
H  69.791  61.083  44.892
H  55.738  65.596  40.267
H  55.614  50.661  66.464
H  33.598  36.544  59.954
H  36.172  40.546  38.181
H  32.812  37.846  60.075
H  57.251  52.165  56.824
H  55.004  46.040  53.116
H  56.012  45.411  52.143
H  73.770  57.599  58.709
H  53.329  75.021  46.138
H  70.586  50.545  48.229
H  53.949  75.226  44.760
H  54.088  43.521  57.137
H  21.952  55.988  58.350
H  23.153  56.385  57.462
H  52.934  43.237  58.132
H  41.910  62.181  47.217
H  41.368  61.564  48.561
H  73.691  56.602  59.889
H  73.884  53.790  57.873
H  71.606  50.813  47.083
H  57.542  35.364  38.732
H  62.119  71.217  47.291
H  65.557  57.361  57.080
H  36.582  65.167  50.632
H  40.191  65.816  35.888
H  39.531  66.812  36.850
H  36.164  66.376  49.795
H  56.556  47.625  64.286
H  30.006  51.171  41.745
H  29.271  51.929  40.621
H  65.675  57.365  38.946
H  24.387  62.944  48.529
H  23.333  62.915  47.414
H  28.417  55.358  62.241
H  62.394  65.874  46.627
H  34.944  58.188  55.755
H  56.399  48.815  65.316
H  63.367  65.733  45.447
H  51.648  59.831  61.653
H  51.905  59.089  62.992
H  49.385  53.958  51.277
H  51.351  63.346  43.830
H  51.720  62.067  44.625
H  69.227  42.059  62.756
H  28.215  56.619  61.379
H  34.904  56.918  56.600
H  72.043  59.501  58.118
H  56.954  51.053  67.108
H  49.622  71.867  61.193
H  73.002  59.567  59.333
H  70.654  61.103  43.603
H  42.464  57.453  45.948
H  43.111  56.303  46.777
H  50.024  49.737  56.136
H  55.528  67.650  50.457
H  38.999  37.411  48.974
H  54.163  67.745  49.748
H  70.567  49.535  40.711
H  52.894  38.123  53.232
H  49.895  72.653  59.896
H  51.698  38.974  52.829
H  55.331  40.056  26.097
H  55.839  38.608  26.236
H  64.822  24.752  55.292
H  40.063  36.510  48.274
H  70.381  48.416  37.487
H  69.949  48.897  38.888
H  46.356  34.360  36.659
H  37.592  68.030  36.576
H  38.601  69.170  36.322
H  45.929  33.030  36.028
H  71.062  50.956  41.007
H  44.068  25.977  50.298
H  44.512  24.528  50.412
H  30.271  65.658  50.863
H  39.643  47.359  38.632
H  72.132  57.635  64.087
H  51.665  59.486  59.619
H  66.256  55.053  57.932
H  65.048  54.618  58.792
H  35.276  65.074  48.305
H  72.982  63.322  40.586
H  72.889  61.962  39.852
H  61.086  53.339  49.324
H  74.491  42.955  57.040
H  73.108  58.765  64.457
H  49.080  55.946  41.905
H  46.599  69.675  63.749
H  75.789  42.137  56.922
H  73.325  46.900  54.719
H  74.190  45.601  54.818
H  46.430  41.415  37.779
H  62.294  52.684  49.970
H  56.477  46.207  62.336
H  52.056  29.720  32.127
H  70.660  48.921  68.184
H  70.151  49.727  69.425
H  47.315  71.014  64.010
H  57.916  46.445  61.979
H  39.733  46.738  40.047
H  59.655  56.139  68.573
H  50.468  66.035  47.738
H  62.371  65.361  56.510
H  45.647  49.534  33.560
H  62.908  66.755  56.176
H  69.309  53.457  44.092
H  68.540  68.916  40.663
H  67.107  68.990  40.088
H  52.090  29.111  53.576
H  56.612  61.083  69.238
H  55.925  60.034  70.154
H  60.322  57.360  67.900
H  43.569  53.673  31.215
H  28.190  40.584  54.308
H  29.504  40.262  53.617
H  45.416  48.830  34.889
H  35.352  41.850  29.775
H  35.638  43.144  29.022
H  62.685  43.173  40.879
H  51.886  61.933  37.878
H  44.374  53.550  32.524
H  61.541  42.759  41.773
H  50.214  59.009  59.581
H  38.889  62.456  45.411
H  24.507  49.182  48.461
H  23.300  49.807  49.201
H  60.462  29.078  36.988
H  65.349  26.479  48.722
H  61.228  47.652  62.515
H  35.418  50.471  48.827
H  52.701  53.447  54.348
H  57.000  34.087  39.425
H  49.118  33.556  60.897
H  55.145  28.794  45.395
H  39.532  62.384  28.752
H  56.529  29.319  45.129
H  49.570  32.242  61.555
H  51.004  70.685  43.628
H  60.909  74.095  43.535
H  38.325  62.056  27.889
H  50.700  31.292  43.221
H  50.069  30.534  42.033
H  31.912  47.512  61.537
H  50.566  51.640  51.526
H  66.746  67.002  59.782
H  67.964  67.915  60.042
H  33.274  47.801  60.907
H  63.723  31.160  48.602
H  64.391  31.253  47.206
H  59.967  72.999  44.071
H  47.385  36.447  51.370
H  56.761  34.357  44.019
H  55.984  33.202  44.657
H  57.020  55.284  38.284
H  60.473  30.386  36.142
H  57.345  56.567  39.133
H  51.860  30.468  33.451
H  50.453  56.454  41.431
H  35.594  65.125  46.772
H  37.234  34.105  60.916
H  68.685  52.179  44.533
H  33.737  61.641  62.032
H  33.207  60.527  61.110
H  57.895  31.771  37.111
H  57.706  33.294  37.234
H  37.376  34.966  59.672
H  38.942  61.102  69.856
H  37.436  61.338  69.571
H  61.857  38.020  57.377
H  45.026  69.122  47.173
H  52.389  70.518  43.004
H  44.470  70.512  46.810
H  62.104  36.711  56.635
H  50.822  49.822  30.501
H  50.612  48.287  30.442
H  46.927  37.868  51.784
H  54.327  54.900  55.384
H  51.383  49.093  71.009
H  56.000  55.529  63.511
H  55.162  53.996  70.610
H  42.062  26.762  41.893
H  26.280  37.880  54.419
H  26.944  38.982  53.600
H  66.913  62.474  60.251
H  25.848  46.623  56.709
H  25.452  45.363  55.930
H  68.427  62.605  60.534
H  42.463  46.127  27.918
H  54.883  43.942  37.114
H  54.538  42.510  37.436
H  35.877  62.464  58.492
H  41.495  45.912  29.103
H  58.147  44.794  75.104
H  53.554  69.130  67.176
H  37.083  54.769  54.867
H  56.177  69.941  58.653
H  66.388  61.766  38.054
H  35.234  36.796  37.852
H  35.527  37.414  36.486
H  57.001  71.020  59.362
H  72.597  65.666  46.910
H  74.265  56.032  42.089
H  56.925  45.312  75.948
H  75.534  55.973  42.978
H  34.849  61.501  59.068
H  40.994  26.896  42.978
H  55.640  49.508  32.105
H  24.790  51.875  41.174
H  61.275  67.970  33.167
H  75.930  53.088  47.844
H  75.847  53.632  46.383
H  61.173  67.079  31.893
H  67.409  52.025  69.049
H  66.289  52.846  69.700
H  53.789  49.850  47.052
H  55.377  61.988  28.616
H  49.443  55.647  48.886
H  47.999  34.031  44.072
H  51.978  51.645  31.329
H  49.935  44.063  72.870
H  48.419  44.480  49.569
H  45.670  59.220  50.961
H  31.831  43.879  30.591
H  60.223  66.755  60.163
H  54.616  69.008  66.088
H  45.399  69.037  65.418
H  40.236  58.922  27.523
H  40.482  59.232  26.022
H  56.700  62.815  28.819
H  54.869  48.708  31.009
H  71.154  65.712  46.356
H  72.323  42.698  52.868
H  28.874  51.246  47.136
H  62.947  26.586  43.625
H  29.476  52.220  46.111
H  31.028  60.901  40.615
H  26.142  51.466  43.974
H  27.590  51.511  44.505
H  29.644  61.141  39.956
H  73.787  56.933  50.574
H  73.975  58.466  50.675
H  61.585  27.311  43.769
H  50.343  54.153  55.925
H  28.283  64.244  57.771
H  50.953  30.459  47.549
H  28.736  51.209  38.482
H  37.047  55.539  59.574
H  47.656  49.450  57.561
H  56.019  75.609  45.795
H  64.712  53.443  61.030
H  63.630  54.539  60.863
H  63.592  25.562  54.820
H  64.721  66.243  59.421
H  64.547  66.244  57.895
H  65.381  29.547  42.092
H  73.486  42.937  51.905
H  45.062  73.358  63.192
H  34.332  31.532  41.681
H  46.877  38.237  27.585
H  38.442  75.514  51.604
H  37.921  74.608  50.463
H  51.834  53.912  57.923
H  47.242  37.502  26.296
H  46.575  74.212  48.449
H  47.098  74.297  46.968
H  65.669  62.671  39.098
H  29.377  44.811  56.014
H  27.862  44.751  56.314
H  46.159  72.347  62.888
H  59.264  67.893  60.543
H  50.688  45.646  50.122
H  76.822  46.970  42.968
H  28.933  52.626  37.943
H  50.211  31.776  47.200
H  44.662  51.834  27.289
H  43.892  50.830  26.382
H  64.754  28.494  43.085
H  33.083  30.742  42.149
H  59.135  69.597  52.238
H  58.754  68.265  52.987
H  37.872  54.132  53.466
H  23.291  52.142  40.934
H  58.449  39.206  64.780
H  57.523  40.119  65.632
H  60.740  47.262  27.086
H  42.398  53.423  50.640
H  42.295  54.618  51.589
H  59.245  46.870  26.841
H  46.661  43.504  73.542
H  46.347  45.008  73.442
H  42.729  55.294  25.482
H  43.039  54.883  24.034
H  37.172  71.985  38.088
H  37.434  73.359  37.431
H  44.071  37.287  61.161
H  31.095  34.210  44.881
H  67.820  41.060  64.305
H  30.390  33.447  43.767
H  39.975  42.683  70.759
H  38.800  42.599  69.769
H  50.424  55.348  51.377
H  37.418  40.477  37.324
H  57.204  55.271  64.448
H  44.428  35.624  61.475
H  53.290  51.150  54.861
H  52.527  62.242  34.279
H  66.997  42.317  63.980
H  52.192  73.709  53.360
H  65.351  58.699  39.602
H  72.503  49.125  39.065
H  54.090  54.564  71.571
H  72.030  40.502  33.652
H  70.871  40.591  34.654
H  42.206  41.394  27.623
H  42.846  42.008  26.336
H  43.186  49.273  58.694
H  44.925  53.540  23.833
H  43.903  52.680  23.073
H  41.672  49.184  59.020
H  53.702  70.443  59.619
H  70.549  42.815  63.078
H  54.045  69.925  58.185
H  69.147  51.339  37.450
H  67.635  51.138  37.637
H  63.446  51.256  72.374
H  35.141  70.328  43.150
H  34.544  71.563  42.448
H  62.037  50.754  72.830
H  35.994  58.699  48.419
H  47.922  30.353  63.001
H  73.728  50.045  38.967
H  23.681  47.250  46.151
H  47.977  31.205  61.697
H  30.748  63.526  34.413
H  30.489  62.120  33.822
H  23.569  47.428  47.663
H  49.787  31.877  52.110
H  57.919  40.837  41.555
H  55.699  62.493  35.173
H  56.594  63.668  34.647
H  44.070  69.694  65.891
H  55.943  60.050  34.860
H  62.381  70.463  58.476
H  62.008  71.074  57.097
H  42.325  50.158  33.008
H  43.550  48.813  70.683
H  50.465  30.476  52.176
H  43.144  47.360  71.080
H  68.734  64.870  36.736
H  55.246  60.175  36.220
H  67.450  64.463  37.472
H  47.180  67.347  35.670
H  53.419  51.570  30.723
H  46.985  59.146  50.135
H  50.759  43.015  72.131
H  43.136  59.063  60.167
H  43.480  57.654  60.665
H  75.690  47.998  42.866
H  43.484  49.938  34.024
H  58.116  40.351  42.991
H  44.354  48.812  27.462
H  45.008  49.307  28.754
H  55.911  59.547  25.788
H  57.415  59.680  25.988
H  52.824  73.635  51.971
H  51.170  48.793  46.252
H  51.408  59.920  72.809
H  51.681  58.776  73.828
H  41.927  39.502  62.362
H  53.660  61.165  34.384
H  43.288  39.540  63.164
H  34.412  68.231  62.554
H  58.495  40.763  67.487
H  59.956  41.084  67.651
H  35.124  69.525  62.144
H  41.751  37.706  31.971
H  42.594  60.909  29.453
H  41.389  59.963  29.166
H  40.915  38.968  31.628
H  36.699  42.847  51.091
H  33.045  44.369  31.427
H  34.114  65.793  62.996
H  48.285  67.045  36.721
H  47.606  32.882  44.968
H  48.045  51.825  59.043
H  34.506  58.384  48.684
H  33.885  44.946  60.726
H  51.154  60.563  46.397
H  35.629  73.255  55.346
H  52.032  53.902  30.072
H  35.377  47.896  63.893
H  35.057  47.139  65.184
H  57.047  30.399  42.835
H  40.152  42.266  42.415
H  52.730  54.430  31.368
H  40.007  40.915  41.685
H  56.909  31.473  43.924
H  63.342  38.131  60.924
H  39.000  60.138  37.726
H  76.995  55.845  44.784
H  73.969  42.624  38.168
H  50.244  46.856  48.950
H  50.933  41.359  42.743
H  70.010  59.483  61.990
H  53.474  55.571  29.781
H  54.965  55.230  29.829
H  70.922  59.477  63.216
H  56.481  42.834  31.446
H  64.595  39.748  49.516
H  65.693  40.707  49.064
H  55.497  41.914  30.721
H  38.143  41.883  27.871
H  59.393  54.957  35.555
H  77.492  57.238  44.351
H  54.742  49.824  51.616
H  72.237  56.463  49.261
H  31.925  56.511  40.238
H  31.362  56.399  38.782
H  71.820  57.191  48.004
H  65.896  56.830  68.529
H  67.258  56.098  68.533
H  53.936  48.379  51.086
H  29.534  47.386  48.529
H  31.293  40.115  67.065
H  28.832  47.058  49.829
H  58.675  32.829  67.216
H  28.146  44.571  33.951
H  75.471  42.497  38.370
H  62.161  38.967  60.578
H  65.642  67.762  63.176
H  64.757  67.292  62.000
H  43.217  63.447  24.536
H  52.024  52.306  62.526
H  53.196  51.981  61.541
H  59.150  33.876  68.282
H  62.084  38.784  31.375
H  61.097  38.193  30.318
H  29.660  53.737  39.672
H  53.490  48.875  67.949
H  59.375  56.366  36.151
H  39.490  65.158  41.789
H  69.736  35.361  52.211
H  69.028  35.250  50.835
H  57.657  68.473  51.173
H  60.000  56.164  56.349
H  61.242  55.280  56.259
H  57.819  67.204  50.305
H  33.756  49.178  64.420
H  64.986  46.037  58.302
H  64.362  61.896  42.667
H  33.198  57.968  52.131
H  36.615  69.065  58.066
H  35.479  49.671  37.114
H  57.022  65.149  71.211
H  57.012  65.245  72.749
H  58.898  58.154  73.928
H  44.791  32.833  46.390
H  45.926  33.786  45.946
H  36.095  49.129  35.839
H  69.498  64.643  64.492
H  59.368  58.167  72.479
H  70.097  65.835  65.278
H  50.314  29.074  30.681
H  36.858  30.426  40.609
H  41.409  28.667  61.025
H  38.738  67.790  57.647
H  29.751  63.507  60.993
H  38.872  64.357  40.608
H  54.105  50.441  49.236
H  40.932  29.173  62.417
H  52.890  53.895  27.382
H  53.826  55.061  27.567
H  47.408  66.925  70.130
H  28.580  53.905  35.809
H  29.901  54.467  36.387
H  51.468  40.736  44.026
H  32.350  48.659  64.506
H  30.685  62.292  60.832
H  38.025  59.019  38.068
H  49.950  67.953  56.228
H  51.116  68.847  55.755
H  30.564  39.175  66.102
H  46.507  50.211  53.179
H  39.581  54.607  65.857
H  39.856  55.966  65.185
H  40.158  49.428  63.003
H  53.805  37.516  25.517
H  52.668  37.507  26.554
H  41.356  48.973  62.126
H  40.084  67.068  57.331
H  28.912  45.745  58.948
H  34.835  33.455  51.939
H  52.608  47.795  68.634
H  75.914  47.613  40.775
H  74.848  47.945  39.699
H  25.270  45.097  42.741
H  62.424  46.786  57.342
H  62.957  45.618  56.513
H  51.476  69.488  53.376
H  77.150  52.076  52.594
H  76.684  50.641  52.353
H  52.825  69.241  54.015
H  27.896  42.543  56.001
H  36.745  67.757  58.844
H  50.009  22.744  56.854
H  26.686  42.035  55.251
H  65.481  45.705  34.026
H  27.299  61.728  51.520
H  47.118  68.358  70.567
H  65.667  33.372  46.493
H  59.384  33.114  57.061
H  59.638  33.921  58.373
H  62.570  46.577  71.519
H  58.769  58.687  44.454
H  51.869  57.668  26.252
H  48.771  22.286  57.653
H  57.863  59.940  44.406
H  25.289  43.995  43.829
H  47.425  41.403  59.124
H  32.610  57.934  68.638
H  69.334  35.509  47.729
H  53.701  50.929  44.642
H  44.600  66.375  47.287
H  45.286  64.999  47.269
H  45.327  33.918  55.989
H  25.301  36.202  47.655
H  26.771  36.266  47.177
H  45.778  34.698  57.240
H  40.678  58.920  57.465
H  48.700  41.399  59.985
H  41.688  59.360  56.371
H  70.188  56.602  56.082
H  65.190  44.991  32.696
H  30.684  64.582  55.628
H  38.420  67.022  50.819
H  29.763  44.830  41.532
H  37.785  67.407  52.177
H  37.082  40.862  27.394
H  68.382  54.557  64.573
H  68.535  53.032  64.835
H  54.072  52.393  46.769
H  71.005  57.560  55.218
H  35.228  34.921  52.219
H  63.578  45.879  70.625
H  33.780  41.034  30.976
H  49.073  47.463  23.274
H  58.213  49.815  57.767
H  64.976  69.205  40.125
H  65.391  70.078  41.335
H  58.448  48.315  57.506
H  41.626  57.424  38.294
H  41.190  58.058  36.956
H  42.915  65.061  43.075
H  57.788  71.081  41.963
H  58.287  71.997  40.854
H  53.193  33.854  55.974
H  52.371  52.016  44.241
H  50.594  49.167  62.401
H  42.849  62.431  25.643
H  28.639  46.014  33.677
H  46.559  47.247  72.709
H  48.791  51.880  54.049
H  38.390  39.645  31.596
H  39.402  40.187  32.646
H  45.321  46.937  71.882
H  39.360  57.261  50.263
H  37.885  57.550  50.605
H  51.279  48.494  63.572
H  33.010  42.176  31.694
H  52.043  33.295  56.861
H  65.520  42.724  55.484
H  51.220  51.333  46.379
H  40.019  36.968  41.578
H  41.426  36.348  41.426
H  40.496  51.680  43.002
H  39.335  54.348  49.230
H  32.665  56.143  65.562
H  32.274  56.959  64.342
H  41.680  52.554  43.540
H  32.211  36.037  45.896
H  31.294  36.954  45.048
H  49.130  47.669  21.755
H  41.326  53.701  29.897
H  52.584  56.485  26.963
H  67.001  32.845  47.107
H  27.519  61.247  52.950
H  44.107  65.440  43.956
H  29.697  46.331  41.419
H  32.538  54.007  38.231
H  47.933  63.065  70.685
H  33.744  54.806  38.797
H  52.097  50.276  44.338
H  65.428  43.962  56.405
H  66.228  40.860  53.051
H  50.907  27.674  30.514
H  44.716  50.780  44.228
H  65.634  44.640  50.154
H  77.170  48.434  44.558
H  48.024  42.129  38.904
H  47.730  57.941  27.174
H  54.681  61.517  64.479
H  36.824  41.598  43.760
H  58.279  51.124  61.679
H  58.831  52.127  62.660
H  55.420  49.381  53.784
H  45.606  63.672  41.924
H  50.975  75.156  52.030
H  65.492  38.212  44.628
H  44.686  64.642  41.128
H  31.675  38.722  64.090
H  31.481  38.962  62.616
H  54.668  36.063  61.060
H  25.092  42.116  53.483
H  24.933  43.454  54.264
H  49.628  74.582  51.642
H  51.859  53.896  49.566
H  58.446  51.458  69.188
H  56.955  51.370  69.405
H  47.804  64.162  46.620
H  55.579  37.342  61.029
H  36.476  26.846  53.976
H  65.142  37.926  46.101
H  26.612  48.499  53.921
H  70.675  52.170  39.404
H  49.181  42.611  37.973
H  40.590  68.725  54.706
H  28.885  42.087  33.701
H  48.387  72.195  52.369
H  28.404  42.554  32.319
H  60.184  64.343  42.110
H  46.317  41.287  72.301
H  47.405  42.197  71.687
H  59.262  63.168  41.656
H  66.214  37.698  48.937
H  55.047  50.425  60.766
H  33.326  58.032  50.593
H  51.066  56.228  49.236
H  71.039  62.156  60.215
H  70.171  61.262  59.275
H  65.783  66.152  50.953
H  71.435  35.518  53.934
H  71.964  34.608  52.806
H  65.669  65.896  52.483
H  41.493  50.089  37.003
H  42.146  49.586  35.698
H  55.409  51.662  61.595
H  50.279  51.968  49.467
H  37.594  26.371  54.952
H  53.300  61.490  63.803
H  53.260  37.471  70.161
H  34.811  65.932  58.995
H  37.101  62.375  67.715
H  59.077  43.382  64.179
H  36.509  61.031  67.273
H  56.839  56.831  48.128
H  57.538  56.674  49.518
H  57.540  57.712  24.766
H  49.469  46.798  51.704
H  66.594  55.899  51.091
H  54.419  37.383  69.174
H  66.668  54.720  50.137
H  38.135  44.374  60.318
H  36.703  44.214  60.893
H  65.726  51.087  70.915
H  44.160  32.534  40.691
H  44.617  32.478  42.171
H  71.434  43.838  48.164
H  71.282  44.915  49.267
H  31.005  63.932  30.557
H  30.818  63.266  31.938
H  47.431  39.639  57.143
H  65.387  49.811  71.749
H  47.513  64.908  47.914
H  60.982  64.830  35.526
H  50.930  74.612  62.220
H  47.429  66.985  52.314
H  37.565  42.219  42.549
H  46.811  57.860  28.401
H  46.246  67.974  52.412
H  44.737  75.411  52.466
H  60.164  63.024  71.339
H  53.015  40.310  60.897
H  59.227  64.249  71.528
H  45.833  74.951  53.414
H  36.526  48.713  69.904
H  51.042  73.181  62.823
H  37.303  47.382  69.722
H  69.400  34.759  59.452
H  69.582  33.613  60.496
H  31.994  58.088  54.935
H  36.209  71.204  50.569
H  41.647  41.317  43.978
H  42.269  41.070  45.404
H  31.398  59.504  55.043
H  41.844  36.346  62.998
H  42.009  37.734  63.657
H  61.860  65.970  34.957
H  46.829  51.659  57.788
H  51.665  70.427  65.795
H  51.648  70.880  64.333
H  70.832  50.958  38.438
H  51.591  69.765  45.550
H  47.547  55.578  47.260
H  47.813  55.939  45.788
H  52.910  69.492  44.836
H  27.505  48.559  41.871
H  27.789  50.006  42.390
H  46.818  32.620  38.925
H  34.082  39.319  29.488
H  59.297  26.301  52.877
H  59.723  49.574  68.341
H  52.702  48.753  58.080
H  62.714  29.680  37.313
H  31.974  44.275  41.553
H  33.364  44.744  40.986
H  68.979  58.858  40.699
H  70.031  59.983  40.885
H  40.356  44.328  54.681
H  57.140  48.669  62.324
H  56.769  50.152  62.650
H  38.829  44.144  54.820
H  68.342  37.440  64.053
H  47.848  51.708  47.055
H  62.762  31.194  37.609
H  67.520  36.485  64.944
H  32.573  34.429  50.368
H  53.858  47.856  57.626
H  66.801  44.915  51.151
H  44.649  35.928  63.691
H  34.151  64.014  33.842
H  27.503  61.357  36.817
H  26.689  60.045  36.689
H  44.701  36.448  65.145
H  48.153  31.862  39.080
H  44.333  50.866  45.939
H  58.741  60.419  42.375
H  59.864  61.415  42.323
H  33.362  33.332  49.647
H  36.549  29.070  40.014
H  55.828  60.079  44.164
H  37.384  68.849  63.068
H  38.675  68.214  63.603
H  55.495  60.158  42.680
H  69.024  37.484  52.720
H  35.583  71.996  49.434
H  70.083  38.201  53.568
H  47.103  53.422  45.442
H  39.156  45.679  25.694
H  38.549  46.910  26.433
H  63.657  46.843  27.732
H  42.278  44.797  34.695
H  49.853  44.492  36.517
H  49.289  44.789  35.101
H  47.143  51.042  44.746
H  45.790  61.153  55.587
H  46.329  60.126  54.551
H  62.974  47.413  26.456
H  37.863  56.616  56.350
H  36.799  55.961  57.225
H  76.349  48.428  45.852
H  26.037  49.615  54.805
H  41.938  68.128  55.180
H  52.322  55.187  56.837
H  50.080  53.818  37.942
H  57.180  29.168  37.989
H  53.710  59.761  41.050
H  41.496  49.808  74.295
H  42.553  50.334  75.250
H  54.451  58.472  40.621
H  53.149  37.018  41.244
H  46.406  58.171  71.179
H  44.913  57.991  71.530
H  53.583  38.455  41.118
H  34.583  41.541  69.645
H  36.075  41.445  69.983
H  58.434  29.806  37.406
H  59.082  47.244  51.353
H  59.976  46.033  51.718
H  46.295  57.582  45.027
H  32.060  52.716  41.420
H  45.500  48.797  67.913
H  44.043  48.744  67.491
H  31.410  53.225  42.741
H  35.076  65.015  57.776
H  67.134  47.164  67.005
H  60.004  50.181  66.982
H  59.397  26.288  51.323
H  65.964  46.523  66.279
H  35.308  65.078  33.851
H  53.777  39.362  59.100
H  42.690  72.666  61.698
H  42.638  73.939  62.569
H  53.541  37.856  59.384
H  63.725  38.955  52.131
H  62.999  40.136  52.828
H  45.258  49.508  45.317
H  50.137  55.705  28.500
H  51.337  53.680  37.066
H  49.655  54.354  29.126
H  47.678  58.069  44.725
H  37.408  58.512  43.925
H  37.116  57.163  44.633
H  32.369  59.311  67.999
H  45.915  56.603  64.708
H  39.302  36.794  45.800
H  38.376  35.636  46.244
H  58.694  40.281  31.488
H  60.201  40.108  31.525
H  40.908  63.632  25.330
H  32.526  28.284  47.513
H  32.836  26.775  47.373
H  28.341  47.883  57.685
H  27.877  46.602  56.995
H  26.940  52.095  41.716
H  67.591  31.760  58.101
H  27.304  52.263  40.208
H  39.619  63.310  26.141
H  58.812  51.002  39.936
H  55.307  74.035  46.950
H  68.982  31.766  59.924
H  68.134  30.980  60.947
H  46.743  53.648  26.015
H  33.718  43.432  58.452
H  33.011  44.698  57.882
H  45.633  52.705  25.571
H  66.819  30.619  57.459
H  55.153  63.015  52.641
H  55.226  62.486  51.242
H  55.261  72.926  45.856
H  50.240  58.892  37.624
H  65.256  39.609  64.598
H  55.423  43.796  55.258
H  51.711  40.101  63.957
H  59.217  39.664  60.118
H  63.561  62.471  33.326
H  62.479  63.393  34.001
H  57.733  39.551  59.765
H  31.611  61.477  55.809
H  65.842  53.287  28.503
H  56.690  52.164  63.763
H  55.204  52.516  63.599
H  60.281  32.311  55.321
H  66.336  38.620  65.105
H  23.200  55.077  52.609
H  59.826  33.707  54.755
H  55.573  27.378  62.027
H  56.207  28.793  62.119
H  41.077  47.387  54.538
H  40.180  48.581  54.914
H  48.824  59.379  37.802
H  56.737  44.246  50.274
H  65.101  54.243  29.431
H  49.040  43.998  56.010
H  57.794  49.854  40.044
H  24.409  55.161  53.548
H  51.682  41.661  64.023
H  37.295  66.720  33.461
H  31.477  64.400  58.953
H  33.351  38.146  33.914
H  46.888  42.147  41.085
H  46.107  41.165  40.245
H  45.163  52.603  68.810
H  65.387  60.830  31.681
H  64.853  62.290  31.583
H  46.257  51.558  68.660
H  43.906  58.263  23.818
H  42.770  57.429  24.424
H  64.067  39.763  62.279
H  58.591  42.755  41.095
H  65.032  40.932  62.498
H  41.351  44.467  60.848
H  42.386  43.935  59.815
H  54.376  39.162  42.808
H  65.502  32.871  57.876
H  65.211  34.349  57.461
H  55.741  24.040  50.073
H  56.902  24.973  50.347
H  32.803  27.826  42.669
H  35.404  67.299  40.842
H  34.777  66.092  40.130
H  55.745  39.899  42.836
H  40.658  68.694  46.148
H  59.782  42.351  40.268
H  52.031  32.732  42.555
H  29.976  64.831  59.081
H  40.866  67.179  45.990
H  35.974  39.657  30.589
H  36.269  38.505  31.559
H  45.712  34.792  28.888
H  47.014  34.553  29.616
H  37.494  65.531  32.551
H  47.393  39.482  69.917
H  48.210  40.791  70.098
H  46.750  72.857  34.525
H  52.601  32.977  41.142
H  33.604  37.912  35.403
H  33.008  41.838  41.826
H  31.632  42.180  42.400
H  37.286  46.523  47.367
H  53.942  47.386  25.315
H  53.376  48.404  24.284
H  37.235  47.603  48.479
H  38.383  59.843  62.171
H  39.297  58.664  61.699
H  48.826  57.564  23.480
H  47.463  58.294  23.402
H  46.978  74.099  35.411
H  30.756  70.200  51.929
H  31.087  71.568  52.545
H  56.035  42.997  50.845
H  59.452  30.470  61.829
H  33.926  61.549  52.388
H  38.700  51.049  64.409
H  56.607  44.299  42.057
H  55.103  43.893  42.100
H  33.581  60.347  51.472
H  37.607  41.929  75.043
H  37.827  42.677  76.350
H  66.506  67.565  45.594
H  66.569  68.989  46.106
H  31.809  69.294  36.528
H  53.442  54.177  41.683
H  24.326  54.968  58.963
H  53.618  55.066  42.887
H  32.725  40.866  68.736
H  66.882  52.200  57.476
H  67.769  52.842  58.521
H  28.548  55.322  44.970
H  69.477  65.715  62.694
H  66.099  57.837  44.532
H  66.407  54.113  44.787
H  66.713  55.607  45.067
H  24.814  54.285  60.236
H  66.433  57.932  46.041
H  33.013  68.912  37.404
H  56.839  53.200  74.221
H  36.681  46.005  25.149
H  44.024  40.961  43.453
H  49.741  27.756  54.221
H  48.267  27.715  54.679
H  31.015  51.662  61.535
H  60.848  72.178  55.081
H  59.737  71.798  56.068
H  30.613  53.140  61.240
H  64.182  53.087  63.748
H  63.433  54.257  64.417
H  38.432  55.152  61.877
H  51.637  50.142  67.476
H  35.207  46.461  25.372
H  39.491  50.151  65.313
H  53.655  59.384  74.437
H  59.478  29.033  62.339
H  27.418  45.903  61.534
H  28.058  47.109  62.309
H  66.735  52.542  60.865
H  68.263  52.777  60.871
H  37.613  55.014  63.145
H  55.846  53.804  73.174
H  50.191  50.021  66.940
H  45.867  27.975  50.682
H  44.924  27.984  49.474
H  73.788  53.958  52.426
H  34.791  64.457  37.364
H  47.801  34.581  39.496
H  48.897  34.219  40.493
H  36.525  34.409  42.581
H  36.354  34.432  41.038
H  52.798  64.950  53.489
H  26.764  38.487  47.704
H  26.510  39.995  47.542
H  53.067  63.953  52.363
H  45.135  50.779  59.053
H  51.495  72.605  44.333
H  44.192  51.175  57.864
H  59.753  58.567  49.605
H  45.625  63.013  61.158
H  54.071  70.276  64.551
H  55.478  70.892  64.515
H  49.876  45.259  55.855
H  54.516  58.138  74.637
H  54.525  42.690  54.639
H  31.897  62.794  56.534
H  41.635  51.321  72.773
H  41.903  51.295  71.244
H  60.859  58.431  50.691
H  51.930  73.942  45.009
H  34.045  65.650  37.988
H  63.834  46.123  67.322
H  74.403  54.930  51.410
H  50.007  42.172  28.231
H  28.450  55.006  46.494
H  49.836  42.605  29.684
H  32.333  39.858  69.844
H  42.075  63.169  53.254
H  41.476  61.769  53.476
H  26.264  44.374  46.115
H  27.073  43.364  45.256
H  36.790  50.955  51.358
H  69.622  67.702  56.282
H  70.272  68.461  55.121
H  38.262  50.482  52.059
H  61.245  38.057  42.905
H  60.923  36.703  43.638
H  33.456  68.143  43.897
H  68.906  66.124  61.306
H  57.211  36.131  30.497
H  56.157  35.597  29.525
H  46.565  61.821  61.413
H  52.548  53.390  68.311
H  54.020  53.553  67.884
H  64.688  44.917  67.738
H  34.091  26.972  42.654
H  43.625  28.004  60.035
H  69.515  37.600  61.564
H  53.228  39.794  62.318
H  60.543  59.342  47.684
H  33.127  47.481  26.082
H  34.125  47.996  27.135
H  59.518  58.306  47.150
H  39.725  37.283  28.974
H  40.495  37.327  30.298
H  43.722  66.347  57.364
H  40.729  50.427  24.443
H  34.668  59.084  60.106
H  33.215  58.736  59.710
H  35.778  29.913  37.559
H  52.841  46.822  34.340
H  62.467  55.400  66.929
H  53.168  46.391  35.790
H  61.575  68.888  65.142
H  60.906  70.081  64.455
H  45.348  53.041  50.945
H  40.530  63.734  72.000
H  47.758  36.713  35.765
H  53.383  40.818  56.956
H  64.687  55.985  64.857
H  40.412  68.157  65.449
H  61.070  54.733  67.133
H  27.510  35.652  61.414
H  42.095  51.062  24.022
H  46.375  51.705  50.419
H  33.148  33.760  55.249
H  67.516  43.839  49.121
H  33.845  32.899  54.176
H  45.063  52.208  53.963
H  72.477  44.315  31.614
H  71.285  44.297  32.610
H  54.293  25.359  48.842
H  51.599  68.755  62.198
H  52.995  69.440  62.095
H  53.431  25.437  50.143
H  34.861  29.373  38.685
H  49.534  50.902  31.670
H  55.514  42.946  64.350
H  49.541  52.179  30.796
H  51.985  30.983  37.571
H  51.174  29.666  37.517
H  48.405  35.503  36.503
H  41.101  62.818  73.122
H  41.945  45.192  71.005
H  56.701  36.253  48.462
H  46.510  53.027  54.531
H  68.098  44.079  47.703
H  56.546  44.010  64.658
H  41.287  45.909  72.173
H  27.192  37.076  61.947
H  23.313  54.778  49.782
H  54.186  58.118  36.479
H  60.520  34.705  59.942
H  30.447  34.699  55.347
H  72.250  37.826  48.576
H  71.682  36.493  49.135
H  52.984  57.175  36.494
H  40.082  61.162  50.653
H  41.405  61.669  51.230
H  44.773  67.400  32.086
H  45.435  53.831  53.389
H  59.495  35.848  59.944
H  58.733  27.122  64.034
H  45.854  67.768  33.137
H  64.429  59.130  30.483
H  65.568  58.449  29.714
H  49.291  29.136  64.954
H  48.206  30.145  65.446
H  38.331  49.596  60.869
H  52.662  53.380  46.408
H  68.642  36.831  47.514
H  31.386  64.952  56.921
H  46.247  55.113  64.847
H  58.363  28.524  64.576
H  41.058  68.621  66.753
H  31.139  33.640  56.175
H  61.436  36.888  39.668
H  22.837  53.575  50.607
H  47.495  52.937  52.261
H  65.538  65.329  37.654
H  38.146  49.072  37.392
H  65.342  64.683  39.024
H  44.251  52.047  71.732
H  35.476  61.666  41.975
H  36.215  61.335  40.667
H  45.685  51.529  71.957
H  58.122  54.328  33.824
H  60.952  36.362  41.025
H  58.405  52.891  34.302
H  62.347  54.145  45.259
H  44.246  24.842  54.872
H  43.917  26.301  54.655
H  41.214  51.810  65.232
H  48.088  71.039  55.277
H  66.223  55.935  64.712
H  64.382  58.832  55.668
H  48.121  70.706  53.783
H  65.332  59.781  56.409
H  58.318  32.990  62.266
H  39.523  49.676  37.783
H  56.864  41.544  58.330
H  56.794  40.075  57.881
H  58.184  36.672  48.493
H  63.765  31.915  63.080
H  43.306  64.047  54.864
H  44.979  51.392  51.439
H  50.673  67.980  30.708
H  63.503  70.041  64.986
H  64.559  69.261  65.794
H  60.797  44.831  28.642
H  54.331  23.380  55.946
H  55.426  22.997  56.955
H  59.734  44.129  27.797
H  37.445  50.178  45.772
H  54.690  34.587  27.899
H  55.203  33.704  26.749
H  45.777  53.099  44.325
H  57.359  32.615  30.916
H  57.690  31.251  30.277
H  59.442  22.479  52.668
H  45.684  47.122  26.757
H  46.527  45.837  26.514
H  58.848  23.822  52.193
H  37.138  48.692  46.020
H  65.088  32.743  63.178
H  50.809  69.154  29.722
H  59.892  54.060  54.801
H  29.542  51.435  63.073
H  48.893  48.349  43.360
H  60.779  60.002  33.736
H  58.595  60.591  47.954
H  59.881  42.627  56.806
H  58.415  42.255  57.217
H  47.080  47.554  45.450
H  57.169  60.920  48.399
H  44.209  56.501  55.091
H  42.992  55.704  55.558
H  24.128  48.786  52.214
H  61.659  47.169  74.091
H  29.884  51.066  64.507
H  60.323  47.479  74.811
H  63.798  46.587  59.413
H  61.887  52.807  44.590
H  59.471  45.219  76.956
H  61.897  60.883  33.170
H  36.715  54.703  38.400
H  35.595  54.291  39.373
H  24.223  50.302  52.566
H  41.406  35.630  66.912
H  42.149  36.276  65.750
H  32.578  45.149  44.813
H  60.728  45.902  76.392
H  58.869  53.971  53.678
H  31.635  45.039  46.017
H  65.220  50.225  48.672
H  57.536  30.949  53.514
H  58.863  31.606  53.811
H  61.341  69.246  60.263
H  37.554  35.085  39.243
H  56.189  52.739  45.350
H  56.763  51.359  45.175
H  37.395  36.438  38.543
H  70.274  37.130  55.491
H  68.889  37.740  55.793
H  45.462  53.241  46.051
H  61.198  70.734  60.578
H  25.126  51.864  47.748
H  23.904  51.907  48.703
H  32.791  47.862  68.035
H  42.936  40.503  67.122
H  44.189  41.165  67.802
H  32.065  47.849  66.656
H  67.976  32.354  51.813
H  66.807  32.466  50.795
H  44.721  64.205  55.404
H  41.727  52.858  66.252
H  54.776  40.904  57.634
H  51.704  27.392  66.380
H  48.049  58.643  54.207
H  53.250  27.630  66.330
H  46.971  57.685  53.614
H  37.961  49.631  66.947
H  35.554  55.130  50.333
H  36.504  56.282  50.000
H  38.678  48.302  66.826
H  69.947  68.186  50.498
H  69.103  69.414  50.149
H  65.305  61.694  46.250
H  31.309  46.039  65.040
H  69.233  51.835  32.347
H  69.165  51.055  31.001
H  71.760  39.429  62.594
H  40.876  52.338  37.566
H  41.051  51.445  38.814
H  70.938  40.595  63.147
H  61.731  34.097  66.463
H  32.765  46.435  65.103
H  61.711  34.474  67.938
H  52.400  49.402  53.339
H  64.784  37.901  53.760
H  65.473  36.699  53.105
H  37.429  50.596  61.600
H  63.902  50.226  49.521
H  53.296  47.913  53.258
H  54.292  48.726  63.863
H  42.694  28.341  58.882
H  58.809  44.735  64.837
H  33.129  52.742  30.776
H  66.751  64.018  63.744
H  71.465  56.085  66.377
H  65.787  64.045  33.442
H  58.161  62.023  67.107
H  38.495  25.310  41.529
H  57.019  29.636  57.279
H  38.777  26.790  41.184
H  58.364  30.345  57.188
H  47.898  74.619  54.178
H  43.385  60.165  55.302
H  44.682  32.835  29.168
H  43.259  61.708  55.476
H  41.249  43.829  64.348
H  39.934  44.595  64.586
H  54.545  45.434  76.169
H  37.748  36.156  42.300
H  51.763  64.113  57.379
H  52.757  65.237  57.785
H  71.357  53.687  37.815
H  33.123  42.509  62.693
H  32.360  43.185  61.554
H  71.446  55.241  38.055
H  49.084  75.259  53.439
H  66.586  34.204  41.961
H  32.349  50.451  30.611
H  34.939  50.275  24.156
H  38.711  35.866  31.090
H  58.046  44.813  25.730
H  64.895  64.481  32.242
H  43.215  33.237  29.168
H  70.793  56.879  67.523
H  28.354  39.895  58.462
H  28.343  40.617  57.081
H  67.746  63.023  64.306
H  45.350  37.950  69.040
H  54.567  46.960  75.990
H  34.785  49.358  25.385
H  45.851  39.278  68.420
H  48.862  74.792  37.126
H  48.995  75.790  35.953
H  32.744  38.878  55.359
H  70.711  68.363  58.964
H  71.330  67.850  57.670
H  32.663  37.849  54.205
H  38.039  72.233  40.481
H  35.765  58.967  37.295
H  35.482  60.264  36.519
H  59.384  62.223  66.158
H  38.635  72.413  41.881
H  38.830  35.334  32.530
H  67.906  34.784  42.536
H  56.819  75.120  48.952
H  39.767  38.216  76.819
H  53.123  73.050  49.614
H  33.723  63.675  59.092
H  33.017  62.657  60.017
H  49.572  68.701  45.150
H  69.450  41.590  57.465
H  68.847  40.717  56.293
H  58.235  64.596  29.826
H  58.547  63.460  30.819
H  49.544  33.604  45.845
H  43.588  53.258  57.170
H  50.962  34.047  45.485
H  39.066  31.195  52.509
H  40.562  30.814  52.492
H  42.373  30.094  63.764
H  63.955  57.620  61.355
H  52.176  46.145  45.445
H  64.149  56.800  62.614
H  38.340  65.413  46.447
H  75.119  50.164  53.974
H  74.347  49.033  53.273
H  42.316  52.592  56.627
H  41.421  30.518  64.929
H  38.594  36.552  43.542
H  34.083  37.330  30.904
H  38.624  62.102  61.376
H  64.656  34.527  33.172
H  65.610  33.315  33.258
H  45.922  43.942  27.237
H  32.766  38.093  31.127
H  39.875  65.413  46.713
H  43.026  39.936  37.643
H  41.885  40.984  37.481
H  53.284  30.692  63.504
H  36.575  62.368  53.691
H  37.905  63.188  53.708
H  37.250  62.656  60.919
H  49.303  44.298  44.370
H  63.144  32.493  39.691
H  61.930  31.828  40.343
H  42.254  30.644  35.259
H  43.175  30.743  46.120
H  44.519  30.204  46.649
H  52.553  52.191  70.288
H  74.724  50.517  51.461
H  41.179  30.828  34.211
H  75.176  51.247  50.168
H  53.848  52.302  71.054
H  52.940  29.630  62.452
H  41.546  52.245  48.859
H  52.503  51.375  74.631
H  54.203  66.903  40.853
H  57.107  37.026  42.363
H  63.156  62.231  36.434
H  64.234  61.643  37.361
H  31.948  43.047  56.639
H  57.313  38.437  41.771
H  24.571  57.888  57.665
H  56.113  35.256  68.716
H  45.221  67.559  49.821
H  41.873  51.320  41.386
H  53.104  68.765  47.086
H  59.926  53.543  45.732
H  46.023  72.250  36.464
H  38.728  52.661  34.746
H  39.529  62.951  36.159
H  73.814  64.899  53.881
H  73.537  63.433  53.516
H  40.281  64.018  36.939
H  51.855  56.080  66.791
H  48.493  54.929  69.251
H  52.217  54.636  66.441
H  31.271  43.845  55.562
H  48.122  71.079  34.846
H  39.984  53.153  33.998
H  48.562  71.168  33.388
H  58.389  53.669  45.631
H  59.408  27.267  58.359
H  41.551  46.983  31.064
H  40.310  47.093  31.977
H  54.669  34.817  36.273
H  44.354  34.694  37.365
H  43.001  34.613  38.118
H  45.250  71.043  37.038
H  54.957  68.443  63.323
H  45.250  66.329  50.739
H  31.060  49.829  31.110
H  56.750  33.918  68.309
H  73.232  47.789  37.626
H  44.818  28.701  34.477
H  63.704  48.187  66.825
H  24.094  57.808  59.103
H  24.663  57.341  55.371
H  23.478  56.451  55.140
H  65.065  48.851  66.780
H  73.731  53.229  46.179
H  72.876  52.052  45.633
H  72.451  46.535  37.126
H  58.336  26.651  57.369
H  42.983  51.783  40.438
H  45.227  30.076  35.038
H  67.127  42.321  58.327
H  63.823  68.659  52.206
H  64.106  68.715  50.679
H  70.928  41.774  47.719
H  57.058  45.170  26.842
H  75.146  39.323  42.014
H  58.128  29.759  51.010
H  70.834  42.041  46.198
H  51.474  50.803  73.670
H  66.247  29.957  53.994
H  37.146  44.346  72.832
H  60.844  55.323  30.005
H  60.204  53.918  29.772
H  54.420  41.181  65.860
H  42.270  63.751  34.436
H  66.687  33.999  61.818
H  41.837  63.558  32.972
H  38.236  43.728  71.901
H  49.156  38.673  34.555
H  47.773  39.134  34.042
H  69.699  48.946  62.585
H  32.347  44.298  49.588
H  32.486  44.495  51.135
H  41.151  53.379  47.883
H  54.748  68.184  40.241
H  67.509  32.744  62.057
H  62.481  69.163  56.272
H  63.079  68.597  54.971
H  69.235  72.774  54.738
H  66.210  41.106  58.070
H  48.958  55.557  67.931
H  72.537  47.030  60.364
H  71.216  47.241  61.147
H  50.851  40.235  60.215
H  33.553  63.123  36.316
H  52.846  74.468  38.772
H  56.951  29.697  50.059
H  51.008  60.752  30.274
H  54.033  42.035  67.117
H  49.894  61.295  29.387
H  74.145  38.129  42.056
H  38.847  51.938  49.489
H  39.256  50.531  49.997
H  68.169  71.801  55.281
H  32.573  45.211  68.131
H  31.217  44.600  68.490
H  60.053  44.274  24.664
H  66.770  31.893  39.524
H  67.182  33.310  38.999
H  60.874  44.820  25.840
H  30.681  59.540  34.325
H  31.421  60.604  35.155
H  52.061  72.217  50.348
H  41.335  56.310  70.268
H  48.490  42.500  45.832
H  45.062  39.938  51.431
H  74.157  52.475  37.807
H  67.953  47.675  61.090
H  67.058  47.651  62.304
H  49.835  27.879  56.581
H  70.429  55.591  48.292
H  72.857  52.029  38.509
H  70.115  54.326  49.049
H  49.800  28.789  57.847
H  44.764  47.335  78.485
H  45.373  46.058  77.888
H  59.789  30.193  59.570
H  54.337  46.697  43.702
H  31.671  62.850  39.262
H  32.881  70.696  53.789
H  48.665  65.448  39.557
H  57.615  61.135  37.983
H  58.546  42.459  25.036
H  56.228  48.154  42.999
H  56.300  38.008  69.180
H  73.552  54.110  42.592
H  69.561  31.680  57.215
H  34.946  59.424  30.323
H  32.171  64.224  38.722
H  35.218  60.829  30.900
H  59.667  31.363  58.578
H  51.362  48.677  42.452
H  56.569  23.294  59.235
H  30.146  47.964  43.343
H  30.916  46.657  43.664
H  55.682  24.540  59.034
H  57.084  57.924  30.297
H  58.092  58.684  31.190
H  52.544  46.121  41.516
H  34.157  55.884  41.769
H  57.257  72.241  50.781
H  32.901  54.998  41.860
H  52.803  42.330  61.242
H  41.531  32.324  51.465
H  38.252  56.299  34.175
H  42.405  31.524  50.503
H  57.821  46.778  40.486
H  56.620  45.782  40.482
H  58.648  71.738  51.199
H  50.439  30.480  62.853
H  33.370  70.391  55.233
H  53.404  51.426  66.984
H  58.277  61.186  36.577
H  53.577  50.260  65.939
H  38.451  54.972  34.861
H  47.414  63.629  72.060
H  37.611  42.606  30.389
H  38.776  41.663  30.831
H  50.981  75.390  47.829
H  30.476  55.310  60.993
H  31.969  66.504  39.266
H  32.116  66.894  37.799
H  43.064  40.966  34.019
H  55.902  72.902  49.229
H  32.866  37.304  50.310
H  32.473  36.380  51.495
H  42.977  39.616  33.296
H  44.799  37.603  39.370
H  50.798  74.047  47.064
H  46.246  37.794  39.892
H  51.780  44.904  28.728
H  51.736  44.255  30.142
H  63.025  33.986  63.060
H  44.690  52.780  77.728
H  61.119  60.938  71.574
H  23.064  44.895  46.938
H  44.219  42.382  65.509
H  41.595  61.236  43.176
H  61.255  47.701  32.030
H  61.923  47.777  30.660
H  54.878  72.044  49.968
H  67.524  56.576  62.724
H  48.019  20.660  50.084
H  59.741  60.258  71.418
H  67.350  55.072  62.738
H  58.724  64.921  50.942
H  57.272  56.334  27.840
H  57.535  54.792  27.712
H  59.616  66.029  50.386
H  48.381  64.948  68.607
H  49.147  66.253  68.514
H  24.081  52.454  53.921
H  63.549  29.935  50.720
H  39.138  59.580  59.635
H  50.095  55.948  22.059
H  40.033  60.388  58.668
H  68.269  54.372  67.013
H  69.027  54.251  68.328
H  63.214  30.576  61.210
H  72.885  53.302  43.713
H  70.306  32.650  58.147
H  61.935  34.083  61.996
H  34.417  72.536  54.714
H  27.578  44.570  63.465
H  49.206  21.351  50.783
H  50.779  55.796  23.424
H  61.816  30.250  61.851
H  42.687  48.157  26.136
H  42.301  49.625  25.803
H  50.083  65.765  40.092
H  31.048  50.563  56.363
H  42.981  58.019  57.615
H  44.039  58.099  56.540
H  30.324  62.356  63.261
H  29.215  60.641  42.260
H  29.586  62.054  42.807
H  31.600  49.849  57.594
H  55.562  28.478  65.384
H  54.289  28.652  64.514
H  46.169  42.535  46.649
H  43.546  40.199  56.842
H  29.125  57.235  52.968
H  58.923  55.121  31.630
H  30.462  56.700  53.565
H  59.699  60.320  50.995
H  60.178  61.763  50.708
H  44.748  43.259  26.497
H  28.962  63.621  37.655
H  49.875  68.064  53.253
H  29.005  65.151  37.815
H  46.304  67.249  39.457
H  49.004  70.109  45.380
H  57.936  56.246  31.961
H  44.239  39.875  50.135
H  31.099  61.655  64.408
H  30.051  64.192  39.939
H  46.586  65.813  39.911
H  30.218  63.210  41.117
H  49.130  68.833  54.334
H  44.673  44.373  45.999
H  57.834  54.887  73.048
H  58.845  56.052  72.813
H  44.611  42.759  33.472
H  44.231  31.992  35.528
H  43.293  32.948  36.299
H  44.110  42.930  32.023
H  43.103  39.358  55.623
H  41.455  53.537  35.691
H  69.816  41.260  43.988
H  70.838  40.427  44.773
H  42.624  57.426  66.530
H  42.927  56.258  65.555
H  39.711  57.009  45.043
H  49.527  64.150  44.399
H  48.554  63.236  45.112
H  40.349  57.927  46.082
H  57.576  43.200  24.119
H  45.478  46.141  44.498
H  41.971  54.801  36.295
H  40.270  32.922  62.455
H  40.749  54.727  24.738
H  64.202  40.478  67.500
H  64.931  48.455  29.339
H  54.308  49.050  55.095
H  53.832  58.812  57.892
H  27.932  43.394  37.089
H  53.503  58.315  59.311
H  58.119  45.142  55.358
H  36.262  56.526  37.547
H  37.030  56.869  36.260
H  56.892  45.291  54.422
H  59.785  32.524  35.811
H  64.565  49.212  30.622
H  60.963  32.986  36.624
H  47.566  46.468  48.278
H  53.690  36.510  44.907
H  53.595  36.653  43.347
H  53.908  35.579  38.787
H  59.881  49.008  72.312
H  60.139  49.360  73.750
H  33.375  61.918  42.638
H  51.948  43.084  60.210
H  53.303  45.286  43.571
H  51.403  31.702  63.099
H  27.578  44.602  36.192
H  43.807  54.219  64.330
H  58.251  47.536  47.328
H  53.604  34.654  39.946
H  52.922  46.657  38.045
H  53.101  45.134  37.676
H  60.038  34.334  29.494
H  58.528  57.893  63.443
H  59.116  56.445  63.285
H  59.608  33.222  30.436
H  37.604  67.175  60.894
H  50.509  47.185  42.044
H  36.162  67.004  61.480
H  40.509  52.965  28.825
H  66.031  29.870  60.698
H  66.604  29.049  61.875
H  51.203  25.623  62.056
H  41.342  40.422  71.772
H  40.406  40.368  73.021
H  52.508  26.082  62.764
H  66.948  39.872  50.923
H  62.825  42.561  31.998
H  62.330  42.265  30.534
H  65.762  38.983  51.317
H  64.316  39.089  68.112
H  39.479  54.177  24.065
H  33.401  63.401  42.999
H  39.687  38.861  75.425
H  51.787  59.723  45.240
H  55.534  35.082  37.509
H  49.019  43.292  24.476
H  47.026  69.854  52.187
H  47.139  68.415  56.531
H  48.298  68.988  57.367
H  53.995  30.941  31.743
H  53.207  27.807  39.858
H  52.962  28.801  38.688
H  54.078  51.502  53.420
H  55.105  31.993  31.459
H  73.849  62.921  60.678
H  72.530  63.681  60.521
H  48.419  61.989  33.154
H  66.503  52.156  49.864
H  59.892  48.734  29.655
H  59.374  40.468  26.300
H  41.868  49.382  28.478
H  65.662  52.560  51.117
H  42.523  48.093  29.040
H  51.389  23.975  43.953
H  67.695  58.705  48.202
H  49.689  44.376  48.370
H  68.761  55.415  57.353
H  73.649  49.467  63.681
H  58.652  49.454  30.282
H  72.184  49.033  63.465
H  49.226  63.229  33.632
H  67.631  59.790  47.100
H  43.961  61.698  46.939
H  46.258  51.311  47.661
H  45.749  35.431  39.686
H  60.054  48.858  60.754
H  58.539  48.911  60.701
H  50.339  47.088  68.064
H  45.415  45.691  66.314
H  46.806  45.023  66.384
H  55.902  30.930  37.899
H  72.016  53.510  33.075
H  41.148  43.849  34.317
H  50.346  47.764  69.446
H  54.831  31.149  36.820
H  38.658  34.418  62.338
H  39.043  35.018  63.703
H  46.568  48.953  47.103
H  29.810  54.482  52.147
H  30.749  53.276  52.493
H  61.502  25.095  54.454
H  40.050  52.971  71.735
H  57.810  40.303  26.223
H  49.927  24.271  44.434
H  71.332  54.572  32.175
H  44.135  61.511  48.458
H  64.072  35.730  48.621
H  50.314  30.098  35.213
H  69.881  61.847  63.440
H  45.277  76.039  49.919
H  46.780  76.416  49.901
H  32.103  49.664  42.752
H  61.277  33.236  43.151
H  58.822  46.544  48.342
H  47.643  43.506  64.829
H  31.344  49.446  41.424
H  49.858  54.006  61.438
H  51.287  53.583  61.092
H  53.567  57.794  77.901
H  48.066  42.498  65.887
H  41.353  48.562  49.161
H  26.404  54.339  40.889
H  31.663  32.340  48.893
H  69.811  63.224  62.765
H  47.536  44.719  75.625
H  52.670  56.700  71.719
H  52.082  55.457  72.426
H  44.050  68.518  56.332
H  62.467  51.285  26.606
H  42.466  61.117  58.851
H  41.719  49.467  47.968
H  49.746  31.459  34.724
H  54.480  58.223  76.752
H  47.461  44.733  77.158
H  65.173  35.232  47.651
H  54.164  44.382  50.804
H  53.094  44.879  51.796
H  32.755  60.803  47.771
H  31.705  60.384  46.678
H  46.183  63.806  44.769
H  46.299  65.189  44.119
H  37.559  59.939  42.182
H  34.620  50.003  39.379
H  36.018  50.300  39.956
H  42.934  68.516  57.423
H  39.066  60.022  42.215
H  55.568  51.154  58.298
H  59.493  62.065  38.457
H  46.084  71.081  52.263
H  67.627  56.419  57.514
H  67.314  41.728  53.640
H  39.025  53.878  50.674
H  43.709  52.711  64.487
H  62.420  33.187  42.141
H  39.237  42.046  37.281
H  40.030  41.211  36.299
H  60.645  62.982  38.952
H  45.412  34.044  40.247
H  58.718  59.661  34.768
H  39.458  43.321  32.074
H  28.512  62.875  53.936
H  75.160  43.422  53.386
H  25.470  40.427  39.985
H  28.154  62.672  55.388
H  62.622  64.094  66.169
H  63.408  62.804  65.880
H  47.504  48.372  52.201
H  54.856  58.258  38.467
H  55.852  59.420  38.430
H  69.402  41.681  52.293
H  44.098  36.216  58.374
H  47.451  53.486  23.678
H  56.231  41.534  66.675
H  69.236  40.375  53.120
H  29.074  43.120  45.551
H  29.204  41.587  45.486
H  48.579  54.266  22.933
H  63.405  39.041  41.709
H  64.208  39.540  40.491
H  54.188  60.094  27.666
H  64.083  63.351  43.011
H  29.408  44.346  59.362
H  57.172  42.732  66.652
H  25.611  38.892  39.745
H  51.773  49.715  50.938
H  33.342  52.152  29.328
H  67.951  65.362  54.772
H  57.820  56.468  25.623
H  29.108  65.055  43.169
H  29.450  66.322  42.344
H  45.649  57.967  32.575
H  67.871  64.576  47.150
H  47.742  30.850  36.994
H  48.544  29.712  36.290
H  47.048  57.369  32.674
H  39.045  56.880  63.512
H  48.689  38.758  57.319
H  39.677  58.262  63.795
H  49.687  39.313  52.446
H  49.231  38.200  51.511
H  53.367  47.646  41.764
H  28.512  47.514  38.213
H  44.072  57.798  26.065
H  45.371  57.044  26.365
H  28.945  46.050  37.854
H  53.518  61.466  68.786
H  54.618  62.306  69.416
H  59.708  32.597  61.730
H  69.187  64.779  46.379
H  43.156  58.421  29.397
H  66.460  65.270  55.068
H  44.000  57.474  28.572
H  41.829  28.934  43.449
H  39.922  64.925  54.066
H  35.424  62.869  62.608
H  35.882  61.682  63.440
H  34.687  40.258  28.397
H  33.812  34.934  38.530
H  38.227  50.888  40.208
H  37.773  49.599  39.472
H  33.080  35.777  39.575
H  41.206  65.603  63.085
H  42.835  29.795  42.689
H  39.920  65.974  62.324
H  38.237  39.580  64.728
H  39.769  54.467  71.453
H  37.844  40.280  66.028
H  70.782  59.382  36.105
H  59.266  49.342  36.549
H  58.012  50.225  36.483
H  69.907  59.042  37.325
H  68.867  64.581  53.074
H  38.585  65.688  54.231
H  60.788  26.358  54.948
H  49.164  49.732  48.283
H  39.399  44.590  32.910
H  68.038  65.735  52.450
H  59.729  59.638  35.955
H  59.280  27.737  48.774
H  40.990  75.765  48.680
H  40.171  74.471  48.502
H  49.814  49.763  69.403
H  58.844  34.241  48.136
H  57.473  34.379  47.374
H  48.609  49.244  70.257
H  59.570  28.282  50.150
H  44.636  33.371  61.378
H  43.648  33.035  60.266
H  44.623  65.091  57.292
H  42.369  41.655  30.387
H  42.304  41.589  31.924
H  62.329  31.810  34.979
H  51.294  60.085  66.015
H  49.901  59.622  66.395
H  49.617  48.872  50.246
H  63.661  32.187  34.249
H  46.066  44.172  41.744
H  46.408  43.656  43.140
H  74.995  43.383  54.919
H  48.581  45.944  42.630
H  44.677  35.142  59.348
H  72.654  45.348  47.162
H  49.858  44.476  24.028
H  72.054  45.908  45.868
H  46.818  58.251  56.228
H  59.484  55.683  42.982
H  34.224  44.406  43.479
H  33.491  43.304  44.295
H  68.694  55.444  32.132
H  59.370  40.507  39.214
H  67.855  55.163  33.417
H  59.203  39.024  38.740
H  28.962  38.762  62.909
H  34.160  33.153  37.144
H  69.708  69.357  52.674
H  54.371  36.708  66.324
H  46.136  45.068  63.217
H  45.154  44.856  64.383
H  62.202  30.093  46.926
H  65.280  58.308  47.870
H  64.146  57.422  48.483
H  48.055  30.276  45.190
H  61.230  51.886  65.959
H  61.137  52.143  67.483
H  50.841  49.732  75.860
H  48.414  31.037  43.919
H  50.334  35.665  26.840
H  29.693  69.445  49.953
H  49.304  36.711  26.284
H  54.582  35.424  67.165
H  63.597  51.479  27.651
H  61.464  41.579  36.240
H  35.500  43.206  48.606
H  65.837  46.889  45.576
H  35.748  62.052  38.189
H  36.939  61.094  38.319
H  65.832  47.271  47.057
H  52.998  62.811  59.152
H  53.274  61.284  59.366
H  68.730  37.221  32.769
H  42.278  51.491  51.715
H  59.556  54.196  43.368
H  39.434  70.699  54.467
H  34.285  31.937  38.080
H  62.612  47.004  69.011
H  50.130  61.236  64.318
H  50.819  62.205  63.313
H  61.755  46.943  67.762
H  54.048  42.450  32.574
H  53.190  41.939  33.771
H  69.339  70.337  53.829
H  27.914  62.860  43.765
H  27.106  63.073  42.477
H  29.650  68.307  51.003
H  34.726  43.677  49.838
H  49.854  49.917  77.045
H  63.314  43.459  50.384
H  52.879  53.026  35.121
H  32.321  69.257  62.289
H  52.570  67.610  47.961
H  59.994  62.057  58.729
H  59.093  60.901  59.237
H  72.590  65.562  55.688
H  54.330  67.640  62.155
H  28.854  45.484  51.555
H  48.432  59.842  71.130
H  71.972  66.863  55.203
H  51.720  53.952  34.760
H  47.020  60.030  70.518
H  34.762  62.212  35.941
H  64.629  47.809  62.236
H  64.994  46.711  61.212
H  31.836  65.805  61.733
H  30.976  44.420  43.600
H  29.956  43.308  43.467
H  31.140  66.068  60.376
H  59.411  49.501  62.681
H  60.747  50.042  63.264
H  39.872  55.988  69.838
H  51.508  41.058  59.098
H  61.971  43.996  50.891
H  42.126  43.466  66.944
H  50.438  64.923  70.608
H  70.075  38.263  49.857
H  59.790  38.125  28.541
H  68.920  36.926  34.278
H  60.304  36.730  28.279
H  69.275  38.647  51.116
H  22.856  44.354  55.248
H  23.588  45.700  55.132
H  42.072  50.699  50.377
H  48.113  39.043  29.995
H  30.012  39.412  39.820
H  49.487  64.217  71.629
H  66.211  31.505  53.994
H  37.488  30.682  46.722
H  38.587  31.392  47.551
H  30.368  45.520  51.797
H  70.149  59.056  57.073
H  69.866  59.309  58.564
H  44.251  53.762  28.358
H  30.315  35.379  37.392
H  45.353  53.997  29.381
H  29.419  36.662  37.393
H  42.185  42.220  66.060
H  31.231  68.274  61.855
H  59.994  42.111  36.384
H  30.629  56.543  34.063
H  32.004  55.889  33.722
H  50.376  74.064  58.135
H  50.667  74.634  59.554
H  38.886  54.636  41.263
H  63.837  55.278  56.729
H  63.364  55.262  55.242
H  39.062  55.254  42.620
H  43.087  46.467  41.031
H  43.498  47.905  40.715
H  51.625  46.651  57.788
H  26.425  50.394  49.360
H  51.912  45.796  58.996
H  27.646  56.246  48.448
H  31.516  39.331  39.935
H  48.756  39.498  31.318
H  53.666  38.349  50.899
H  68.489  57.809  68.101
H  43.420  31.572  48.032
H  69.489  60.442  34.110
H  70.670  49.819  61.797
H  36.953  55.393  42.131
H  36.121  55.652  40.874
H  48.997  31.054  59.564
H  26.732  55.465  47.496
H  30.180  52.767  34.478
H  52.837  75.633  39.774
H  43.617  53.917  67.604
H  45.838  58.216  57.426
H  39.808  34.353  55.007
H  61.941  63.805  51.098
H  62.916  63.815  52.297
H  60.878  34.516  38.977
H  41.975  61.313  57.420
H  39.240  33.907  37.279
H  39.344  32.390  37.476
H  47.790  55.179  77.825
H  26.437  46.420  41.438
H  44.557  53.554  66.444
H  25.477  47.440  42.080
H  71.329  60.499  38.168
H  60.521  32.992  38.901
H  70.709  61.730  38.879
H  30.558  31.990  47.857
H  26.971  55.762  40.573
H  42.224  32.494  48.232
H  70.985  60.423  33.742
H  33.326  71.455  49.603
H  32.569  70.548  50.594
H  53.933  39.849  51.065
H  46.961  53.904  78.169
H  38.885  30.656  40.210
H  39.706  31.884  40.659
H  48.096  30.469  58.467
H  72.425  64.801  51.052
H  27.790  48.316  33.577
H  57.677  41.241  54.441
H  62.717  28.667  47.266
H  56.970  40.674  55.666
H  59.201  67.032  70.744
H  40.058  26.934  37.198
H  38.799  27.893  37.081
H  38.926  70.180  55.817
H  35.690  33.427  45.151
H  73.639  63.986  51.362
H  34.205  33.545  44.850
H  75.881  53.858  53.355
H  59.473  66.457  69.338
H  77.093  54.141  54.264
H  59.203  62.468  60.731
H  58.432  62.128  61.970
H  23.892  54.979  47.206
H  49.599  76.982  54.454
H  52.412  55.873  75.941
H  53.679  55.931  76.789
H  49.714  78.067  53.376
H  31.737  41.537  39.084
H  27.562  49.663  34.231
H  61.483  49.900  54.205
H  61.909  48.403  54.293
H  29.714  41.834  58.303
H  29.691  43.240  57.708
H  30.924  53.771  33.594
H  51.482  41.105  26.550
H  52.090  41.331  27.959
H  26.466  51.821  49.968
H  48.772  51.173  24.959
H  35.117  45.080  33.263
H  35.336  44.310  34.608
H  49.428  52.357  25.690
H  29.493  51.365  31.062
H  28.569  50.192  31.443
H  69.057  58.187  66.718
H  45.042  42.988  30.113
H  44.371  43.733  28.962
H  27.605  39.243  63.459
H  62.883  36.631  33.818
H  32.310  42.943  39.471
H  61.400  36.348  33.984
H  54.592  32.594  34.863
H  54.887  33.794  33.960
H  25.265  48.734  63.711
H  24.873  50.234  63.561
H  39.410  32.911  54.689
H  45.319  36.247  54.450
