10074
Supercell generated
Cl  41.355  60.912  72.904
Cl  47.457  30.595  59.795
Cl  36.587  47.974  74.939
Cl  39.701  50.858  60.342
Cl  62.272  58.463  60.770
Cl  64.713  44.919  60.674
Cl  61.091  67.219  41.463
Cl  38.650  41.614  73.002
Cl  31.618  51.656  47.316
Na  46.824  37.609  61.727
Na  35.922  52.317  54.171
Na  41.282  68.330  69.539
Na  35.678  36.916  44.079
Na  47.330  56.563  35.351
Na  36.813  29.957  63.856
Na  36.041  44.656  51.380
O  50.171  42.178  73.222
O  53.655  63.092  30.456
O  67.050  52.989  70.249
O  76.893  53.938  48.302
O  55.780  50.581  33.228
O  57.559  39.279  64.795
O  42.428  57.141  60.793
O  29.196  51.282  37.806
O  70.417  47.899  41.295
O  73.023  50.633  35.593
O  48.835  28.957  52.189
O  44.881  65.470  37.871
O  45.987  64.483  57.826
O  54.773  68.363  34.854
O  60.632  49.002  31.915
O  47.680  66.449  35.170
O  44.710  49.133  27.704
O  50.949  69.630  39.088
O  54.697  63.182  34.870
O  25.330  47.445  56.487
O  25.680  38.196  54.155
O  34.238  56.264  33.561
O  57.481  55.117  41.051
O  45.774  68.398  33.873
O  52.780  71.069  34.594
O  56.509  38.133  52.006
O  57.985  52.475  37.190
O  48.275  51.723  74.697
O  52.007  50.589  30.637
O  45.590  46.369  38.057
O  65.720  72.800  49.720
O  61.722  55.026  74.988
O  36.050  67.369  44.733
O  58.403  56.043  65.433
O  39.087  53.539  44.707
O  45.855  65.366  44.494
O  60.701  45.999  35.522
O  70.819  37.360  65.368
O  45.232  54.002  33.321
O  51.132  65.399  40.336
O  54.921  57.700  33.406
O  36.478  62.725  59.781
O  42.754  32.393  32.507
O  42.348  37.941  71.300
O  66.693  59.494  35.137
O  70.620  46.120  66.064
O  58.412  64.763  39.259
O  69.883  37.813  38.095
O  39.854  57.236  27.537
O  36.337  37.134  37.226
O  36.192  54.680  54.194
O  65.746  56.926  56.930
O  42.043  23.685  50.383
O  63.473  31.963  47.301
O  55.397  58.278  65.928
O  35.731  42.864  52.677
O  33.065  43.722  31.499
O  64.876  54.650  60.845
O  65.894  45.565  56.252
O  42.197  41.640  63.314
O  33.921  58.711  63.611
O  42.169  57.084  45.709
O  27.268  64.586  56.508
O  27.172  51.919  43.838
O  28.930  51.988  46.230
O  31.673  45.250  53.225
O  46.187  73.809  62.234
O  45.089  51.381  25.429
O  49.355  30.857  46.451
O  36.010  67.949  66.709
O  70.307  53.939  46.052
O  49.473  57.427  60.644
O  54.076  50.023  72.464
O  75.569  57.328  52.244
O  54.588  69.254  67.688
O  54.828  69.053  50.400
O  54.617  39.103  26.573
O  27.073  44.697  57.190
O  61.273  35.719  44.016
O  46.906  75.316  48.222
O  72.523  43.499  51.541
O  74.648  54.915  41.154
O  65.882  43.177  65.542
O  47.527  58.742  48.632
O  68.061  64.109  37.145
O  43.277  47.981  72.033
O  62.699  70.480  58.214
O  52.723  38.095  52.039
O  38.602  75.783  49.381
O  59.259  35.943  51.413
O  36.978  52.545  56.102
O  72.244  45.369  63.556
O  33.428  40.639  34.998
O  49.512  69.605  47.780
O  28.119  58.252  45.405
O  26.637  57.237  59.749
O  74.600  59.603  58.195
O  37.773  68.399  37.148
O  71.394  48.694  38.767
O  53.781  44.599  36.816
O  51.446  62.109  71.221
O  43.426  36.507  35.212
O  33.890  38.987  37.172
O  56.614  55.777  47.136
O  73.698  46.255  40.077
O  66.497  57.612  59.740
O  46.201  45.435  62.371
O  47.699  49.567  29.784
O  66.453  71.082  55.276
O  39.009  62.632  65.975
O  22.636  48.081  40.993
O  60.215  41.409  24.314
O  61.705  63.020  69.325
O  70.043  37.131  41.015
O  63.767  45.942  52.896
O  28.063  67.261  55.971
O  69.077  59.175  65.346
O  50.690  48.595  21.909
O  35.197  53.180  59.010
O  32.604  30.709  52.399
O  40.673  64.982  33.808
O  58.843  70.687  35.029
O  51.956  64.913  71.142
O  57.312  67.401  30.108
O  49.428  40.247  67.392
O  31.144  40.325  67.312
O  58.238  37.487  45.936
O  54.791  68.166  70.610
O  40.432  46.174  51.347
O  58.377  44.732  46.873
O  58.347  58.709  75.231
O  55.074  34.455  55.739
O  41.529  68.616  49.070
O  63.780  50.417  50.299
O  39.195  56.017  32.253
O  47.516  33.836  72.470
O  59.507  74.754  43.982
O  46.220  40.411  54.769
O  62.029  41.257  64.582
O  30.903  44.041  48.066
O  45.214  50.835  74.969
O  41.023  29.727  56.875
O  52.515  41.299  36.239
O  51.580  71.517  31.897
O  43.944  74.672  48.489
O  43.019  73.275  54.451
O  38.838  51.180  36.166
O  67.587  55.522  34.479
O  51.432  21.489  48.737
O  43.588  45.327  75.088
O  56.522  50.784  39.885
O  58.909  38.772  49.007
O  56.933  62.692  53.828
O  42.917  58.515  73.780
O  43.943  64.452  53.337
O  67.406  45.413  35.881
O  49.004  30.205  54.707
O  57.666  61.645  70.271
O  65.618  54.351  58.237
O  71.594  60.023  64.466
O  59.389  57.134  69.725
O  42.838  53.202  32.347
O  57.312  58.434  38.935
O  50.014  37.141  45.208
O  39.767  27.490  57.809
O  68.372  31.049  47.839
O  43.404  55.189  34.752
O  74.126  55.484  50.043
O  43.790  27.668  39.429
O  54.213  36.970  24.932
O  64.068  66.554  57.472
O  51.208  44.878  66.952
O  39.297  42.098  40.749
O  38.166  49.943  58.099
O  59.915  53.945  63.409
O  57.211  47.384  45.144
O  36.644  32.006  52.174
O  49.529  32.594  30.766
O  31.223  58.858  31.736
O  68.040  70.206  41.193
O  46.448  55.230  29.874
O  38.366  69.899  39.224
O  73.420  33.418  49.988
O  41.592  54.359  67.790
O  54.431  77.818  46.891
O  35.124  60.072  66.926
O  28.477  65.990  53.159
O  36.047  58.245  62.224
O  38.439  65.119  29.830
O  32.841  38.739  41.910
O  62.782  66.503  55.050
O  47.368  43.307  34.368
O  40.847  35.880  36.222
O  60.928  35.299  32.591
O  42.467  54.669  30.321
O  71.206  43.125  64.421
O  28.546  40.099  54.367
O  34.657  42.718  29.552
O  37.349  61.654  71.852
O  57.851  31.781  36.560
O  33.875  62.296  61.338
O  74.386  63.102  40.544
O  67.557  40.892  42.698
O  59.112  69.528  53.376
O  60.010  48.958  67.433
O  49.821  22.784  46.896
O  65.240  27.627  48.512
O  53.665  31.607  37.848
O  38.554  44.913  64.766
O  52.167  49.011  60.906
O  32.836  39.743  59.237
O  56.052  47.752  36.599
O  38.584  37.706  61.184
O  56.261  25.533  57.725
O  34.267  32.360  63.485
O  59.871  43.523  44.807
O  58.668  32.059  45.012
O  72.139  48.421  33.650
O  68.396  44.623  64.507
O  67.212  37.666  60.108
O  31.833  36.032  35.143
O  48.266  59.443  76.276
O  57.064  68.809  33.194
O  47.714  70.080  35.987
O  38.315  65.113  56.434
O  60.734  36.499  67.463
O  55.098  38.850  38.562
O  28.974  52.494  29.805
O  43.896  77.177  46.790
O  68.724  50.210  38.914
O  33.480  54.650  71.330
O  30.198  42.477  37.694
O  51.691  55.112  43.660
O  69.167  59.600  38.960
O  50.804  67.824  41.308
O  50.734  51.444  76.775
O  70.096  63.696  54.157
O  40.885  40.866  38.969
O  54.528  53.040  24.131
O  69.241  61.691  36.602
O  54.114  44.840  22.351
O  31.267  61.497  45.284
O  53.691  32.603  45.245
O  34.753  50.720  43.834
O  54.304  53.679  34.684
O  67.175  63.095  56.822
O  45.068  30.016  41.291
O  48.369  44.479  73.153
O  51.361  56.168  38.406
O  49.218  55.332  24.282
O  34.382  53.255  42.845
O  72.217  48.679  50.973
O  23.853  52.192  44.396
O  62.650  38.625  54.783
O  44.980  23.818  46.221
O  55.345  62.909  41.567
O  28.694  64.281  46.391
O  22.951  54.964  57.423
O  70.705  52.138  48.597
O  54.941  45.602  49.565
O  44.874  54.828  22.825
O  32.527  36.125  61.355
O  56.801  54.292  63.636
O  38.795  42.760  69.722
O  66.980  40.888  63.869
O  37.038  73.232  37.932
O  46.231  43.748  75.094
O  40.663  62.218  46.773
O  41.492  54.749  51.038
O  50.155  72.920  59.940
O  41.547  43.480  26.672
O  55.191  54.762  71.367
O  33.827  66.829  62.877
O  52.471  63.129  41.700
O  60.799  34.815  28.428
O  63.625  50.926  43.543
O  50.193  64.695  56.552
O  77.795  43.998  43.526
O  35.652  41.352  54.816
O  45.102  36.796  62.643
O  37.112  45.012  56.214
O  75.152  54.352  58.215
O  56.146  33.958  37.441
O  32.134  63.569  53.229
O  46.626  38.165  52.793
O  56.866  37.670  59.168
O  51.355  59.903  73.481
O  56.081  59.281  24.487
O  30.536  63.199  32.884
O  74.206  48.565  39.026
O  50.984  62.948  44.231
O  53.641  59.010  63.761
O  33.984  58.018  56.077
O  56.079  66.488  39.902
O  24.051  62.425  48.211
O  39.290  66.256  36.084
O  28.090  54.532  59.511
O  35.374  59.226  47.817
O  34.837  72.335  42.239
O  70.217  51.061  36.724
O  53.011  71.015  59.653
O  41.980  38.996  62.153
O  59.184  40.263  68.922
O  43.182  60.744  29.268
O  51.879  61.658  34.325
O  30.107  51.120  40.831
O  56.463  23.658  55.655
O  48.804  71.248  57.484
O  67.535  40.110  68.686
O  38.559  49.453  39.718
O  50.927  28.361  31.771
O  35.365  60.882  63.000
O  68.891  65.831  52.241
O  30.795  53.321  53.123
O  37.899  34.848  64.096
O  71.304  55.632  32.983
O  46.162  45.770  67.413
O  59.397  49.188  60.558
O  43.933  62.011  47.326
O  39.017  65.672  62.745
O  43.156  28.706  42.811
O  46.174  33.878  45.960
O  57.980  65.747  72.515
O  36.617  48.724  71.717
O  60.913  65.304  72.543
O  47.354  56.842  27.384
O  47.990  42.256  38.044
O  52.502  71.163  64.644
O  35.757  42.685  70.926
O  44.774  57.779  70.433
O  70.943  33.568  59.252
O  69.508  65.902  64.638
O  41.681  50.935  74.800
O  38.305  40.444  65.935
O  60.887  26.598  55.715
O  47.416  41.896  73.067
O  67.452  36.899  63.770
O  57.458  49.283  62.755
O  70.186  59.772  41.853
O  64.351  28.902  37.484
O  24.524  59.766  52.372
O  46.897  60.874  55.989
O  61.817  46.378  50.837
O  36.015  57.635  44.892
O  50.822  53.781  28.436
O  59.341  50.535  35.453
O  64.419  39.516  52.677
O  58.725  26.412  52.257
O  46.803  31.362  39.640
O  27.174  60.302  36.241
O  65.989  45.087  50.835
O  49.895  44.502  34.255
O  44.616  48.840  68.291
O  54.422  36.226  70.952
O  59.511  60.130  35.555
O  49.896  30.533  35.858
O  72.615  48.377  63.392
O  43.649  74.468  60.501
O  59.766  44.931  75.942
O  40.458  68.624  54.988
O  64.531  38.075  44.959
O  49.166  29.647  42.589
O  54.682  28.662  45.618
O  47.234  44.631  59.870
O  38.511  49.553  33.826
O  34.883  48.160  38.640
O  34.757  63.057  54.473
O  53.779  44.609  52.063
O  38.159  73.172  43.035
O  60.463  40.227  43.791
O  62.341  64.564  43.001
O  30.035  34.786  43.068
O  75.931  56.597  55.156
O  59.666  59.106  61.314
O  29.214  40.747  42.905
O  67.615  50.032  35.472
O  62.971  53.599  32.814
O  44.408  39.845  35.008
O  51.593  41.704  28.986
O  29.397  37.728  52.983
O  58.991  70.535  49.169
O  43.724  30.727  56.951
O  29.765  38.674  40.802
O  47.986  35.502  64.009
O  27.882  43.525  33.351
O  53.820  61.382  65.825
O  58.206  51.632  61.351
O  41.356  49.886  36.185
O  72.199  34.420  52.854
O  70.505  61.836  58.718
O  55.014  52.485  60.249
O  57.672  28.800  37.974
O  65.807  67.255  59.567
O  43.257  38.997  45.734
O  51.734  74.235  62.611
O  58.857  60.503  41.556
O  26.653  50.369  41.279
O  38.341  41.673  43.010
O  47.079  55.592  46.632
O  38.812  47.958  25.875
O  70.048  38.055  52.908
O  37.023  66.872  64.289
O  42.270  37.578  64.437
O  63.743  47.301  26.965
O  37.990  25.850  51.925
O  57.825  52.167  68.697
O  25.223  43.063  54.943
O  31.531  37.561  63.899
O  43.920  64.880  41.443
O  30.972  33.407  50.284
O  40.925  70.513  63.715
O  66.382  49.018  40.304
O  50.691  68.138  53.001
O  61.898  69.148  55.164
O  31.176  60.405  33.983
O  68.496  32.677  38.747
O  29.772  42.754  67.968
O  37.474  51.114  49.854
O  50.589  61.990  28.710
O  57.129  30.130  51.130
O  63.630  64.069  33.376
O  37.320  35.827  33.032
O  31.783  44.691  50.704
O  48.056  38.511  34.125
O  68.473  33.434  63.138
O  59.982  56.594  30.302
O  66.640  32.275  52.701
O  48.453  39.989  29.938
O  27.390  55.156  47.285
O  53.933  68.534  40.715
O  23.046  58.692  55.353
O  74.767  53.614  46.469
O  58.606  27.206  58.779
O  43.073  68.977  57.141
O  44.902  47.957  40.767
O  63.575  54.818  56.498
O  52.878  73.805  58.660
O  44.166  53.603  67.724
O  71.775  59.075  57.515
O  37.343  30.953  46.619
O  46.820  59.454  71.280
O  54.681  67.272  62.900
O  44.072  28.947  35.692
O  56.865  30.107  56.777
O  58.180  46.964  25.614
O  32.359  69.905  49.564
O  71.226  61.199  34.406
O  29.268  51.445  32.460
O  47.301  42.565  65.802
O  36.321  44.694  34.300
O  30.681  41.299  58.600
O  39.389  30.082  40.631
O  36.275  54.787  41.448
O  41.644  31.839  49.053
O  30.552  30.822  49.273
O  41.085  49.137  47.939
O  50.135  54.267  62.192
O  62.984  33.470  42.461
O  45.490  75.984  50.470
O  53.784  56.433  77.449
O  50.139  42.215  26.459
O  31.566  53.121  33.864
O  69.249  58.369  68.103
O  50.400  45.414  58.742
O  56.765  74.121  48.692
O  59.971  41.914  35.000
O  24.949  49.295  63.968
O  58.978  67.718  70.406
O  37.198  42.751  31.071
O  63.814  48.268  65.822
O  58.028  36.753  40.752
O  40.877  51.467  50.293
O  41.733  43.926  33.895
O  43.764  66.257  58.523
O  44.647  41.670  64.421
O  62.141  53.372  43.850
O  40.242  52.734  29.726
O  44.920  43.400  27.221
O  50.044  27.584  65.825
O  36.476  71.915  49.622
O  23.396  53.087  55.409
O  62.513  32.262  37.821
O  26.680  50.510  50.227
O  54.620  45.483  77.293
O  45.185  71.570  37.257
O  67.273  37.294  36.400
O  36.170  68.778  58.525
O  29.341  37.588  35.237
O  45.492  59.129  74.993
O  56.939  72.753  51.152
O  37.574  44.290  72.197
O  51.620  49.801  74.099
O  69.177  71.746  55.013
O  38.226  25.801  42.141
O  38.760  36.559  42.627
O  38.844  73.936  40.262
O  34.034  62.615  36.434
O  39.799  54.932  70.710
O  44.430  53.437  29.295
O  53.510  68.376  48.045
O  44.218  52.774  77.348
O  41.049  60.774  59.286
O  69.964  69.316  53.337
O  50.082  47.851  77.069
O  40.216  31.362  63.263
O  63.155  38.141  35.633
O  52.370  44.663  55.164
O  24.760  43.603  50.033
O  39.429  33.354  51.710
O  51.761  26.046  47.490
O  60.436  62.329  72.630
O  49.394  55.809  69.053
O  68.034  56.737  31.466
O  63.599  61.316  36.592
O  49.205  64.167  73.971
O  59.068  61.807  58.863
O  56.071  35.450  51.747
O  50.806  62.191  36.931
O  61.894  51.885  35.483
O  45.805  40.154  58.631
O  34.668  50.234  47.300
O  39.650  34.428  34.131
O  39.220  49.152  51.017
O  54.991  56.399  64.060
O  56.987  67.963  57.310
O  52.563  26.021  55.831
O  64.649  68.970  43.386
O  32.311  53.836  27.959
O  62.287  41.365  69.372
O  68.551  48.596  53.326
O  45.166  60.600  43.258
O  67.563  65.106  43.766
O  70.477  41.936  35.605
O  47.857  30.827  62.780
O  55.166  47.464  66.277
O  23.545  46.874  48.763
O  34.341  69.662  60.721
O  60.883  28.374  36.123
O  50.066  55.740  41.420
O  63.082  38.136  57.369
O  69.870  53.236  43.660
O  42.013  74.431  42.795
O  34.962  50.118  53.861
O  27.330  49.417  62.147
O  57.483  58.375  36.091
O  49.732  47.395  35.280
O  61.774  60.536  58.727
O  72.767  40.010  40.172
O  46.034  26.452  37.083
O  66.708  46.303  71.144
O  39.476  60.294  27.294
O  68.559  43.430  51.904
O  64.331  62.021  50.285
O  39.976  32.852  41.072
O  72.904  39.707  51.213
O  45.682  59.903  32.894
O  47.990  27.749  58.633
O  56.904  44.203  67.914
O  65.705  37.773  67.485
O  48.537  60.222  30.854
O  57.288  62.227  50.552
O  39.987  46.878  40.123
O  51.392  28.684  53.585
O  34.058  53.089  63.152
O  41.275  30.020  35.021
O  63.646  63.510  64.632
O  52.610  51.242  25.540
O  70.683  67.645  58.390
O  48.918  74.531  35.020
O  45.066  39.252  69.539
O  28.577  39.648  59.888
O  70.420  56.002  67.732
O  67.506  33.619  41.622
O  31.988  42.244  63.494
O  52.538  64.408  58.334
O  41.287  43.927  64.758
O  60.169  50.036  63.056
O  34.990  59.969  36.658
O  48.968  44.236  24.231
O  43.198  34.434  36.701
O  56.055  35.467  68.321
O  70.676  47.079  60.023
O  62.985  70.216  51.127
O  46.904  71.878  34.135
O  53.013  55.156  65.711
O  75.669  62.236  52.290
O  39.892  54.216  36.239
O  42.264  61.089  56.900
O  45.476  66.579  50.020
O  41.159  47.571  30.912
O  51.734  54.910  35.746
O  35.695  51.196  26.084
O  52.074  40.089  59.465
O  60.949  46.179  29.391
O  58.729  38.334  54.785
O  37.370  55.751  74.822
O  52.450  76.295  49.423
O  64.051  32.728  66.410
O  66.335  26.345  45.916
O  61.068  47.140  62.215
O  32.998  71.268  58.911
O  42.521  26.345  37.239
O  39.492  65.771  66.980
O  43.619  31.996  28.243
O  54.764  48.889  61.787
O  45.509  62.888  28.142
O  41.373  38.319  37.509
O  27.753  33.329  47.113
O  51.052  61.523  47.151
O  35.017  35.272  60.956
O  52.351  55.116  72.129
O  32.828  49.778  56.748
O  70.060  41.209  44.128
O  31.179  43.406  43.179
O  65.070  47.408  62.079
O  71.954  31.218  53.505
O  59.318  53.871  46.038
O  68.576  37.711  33.750
O  49.911  67.469  55.536
O  45.437  55.833  67.972
O  54.870  57.790  52.480
O  77.913  42.473  46.786
O  45.218  74.800  55.870
O  55.027  28.731  40.451
O  32.944  42.842  33.779
O  70.275  58.975  47.164
O  47.649  27.988  40.734
O  51.229  78.065  46.847
O  24.328  49.055  59.018
O  62.632  43.926  62.429
O  42.827  45.957  38.883
O  57.770  41.202  72.080
O  43.517  68.488  47.144
O  54.029  26.057  61.533
O  61.105  57.477  66.972
O  47.727  40.015  36.279
O  58.536  51.134  64.716
O  70.073  37.887  59.209
O  37.302  23.735  49.293
O  32.747  64.939  50.495
O  47.306  45.070  32.241
O  62.400  50.801  28.260
O  76.557  54.358  43.246
O  67.346  53.995  26.769
O  69.012  55.515  42.556
O  58.406  45.008  70.604
O  40.592  55.985  39.449
O  46.505  41.136  76.526
O  35.411  54.562  27.913
O  45.912  62.550  41.263
O  69.693  50.457  55.502
O  41.514  43.292  70.631
O  41.893  30.934  68.964
O  29.511  58.206  34.432
O  53.760  66.666  68.671
O  38.536  28.601  51.463
O  70.086  37.004  43.908
O  33.492  38.739  45.079
O  72.070  63.413  56.950
O  58.688  46.840  32.949
O  60.254  71.770  61.504
O  61.505  33.906  47.172
O  49.431  41.421  34.521
O  51.431  54.486  67.719
O  34.447  64.959  56.665
O  28.631  34.565  55.006
O  56.396  39.286  61.714
O  45.497  62.140  58.810
O  46.178  33.424  51.009
O  45.366  46.429  35.245
O  54.935  25.886  47.451
O  58.942  46.632  50.957
O  47.286  27.352  44.114
O  32.918  44.775  63.828
O  69.042  60.997  52.020
O  47.281  63.672  34.501
O  34.418  61.182  58.347
O  45.269  63.423  49.887
O  48.415  26.106  38.258
O  37.620  60.484  64.842
O  49.334  35.292  61.370
O  28.981  58.134  37.266
O  74.675  48.089  43.342
O  60.840  48.734  37.039
O  28.566  54.483  53.557
O  71.066  30.852  50.493
O  45.982  72.919  46.659
O  53.285  59.039  25.472
O  69.295  38.190  62.135
O  53.031  34.480  26.427
O  59.699  41.764  48.831
O  70.065  46.005  52.454
O  25.490  46.785  53.977
O  50.972  43.779  37.204
O  39.941  67.087  52.293
O  55.282  33.396  42.966
O  71.069  44.009  43.828
O  51.366  71.135  42.106
O  48.950  35.052  31.604
O  49.253  30.207  29.267
O  53.615  65.128  39.419
O  36.582  62.724  57.169
O  37.220  51.829  47.038
O  65.642  42.799  37.766
O  36.131  39.842  43.373
O  44.295  63.285  68.487
O  46.622  70.294  45.804
O  61.233  31.039  56.744
O  65.451  38.823  58.654
O  40.642  33.225  70.266
O  66.244  39.302  29.943
O  48.503  36.270  39.450
O  47.801  33.663  59.230
O  31.107  54.344  56.458
O  71.874  48.607  44.204
O  54.470  33.440  69.861
O  58.020  64.738  52.552
O  28.553  47.976  64.183
O  60.744  41.861  66.938
O  47.419  48.521  61.914
O  56.782  59.839  33.521
O  43.004  75.362  58.094
O  49.100  39.627  53.594
O  30.140  36.479  48.805
O  68.740  57.513  50.243
O  46.025  73.996  53.440
O  44.241  57.818  34.251
O  57.332  45.254  34.929
O  44.122  50.764  31.028
O  59.182  56.931  46.143
O  36.581  52.226  29.944
O  37.677  35.198  56.264
O  40.273  55.339  29.284
O  52.696  76.622  54.233
O  36.234  45.087  59.197
O  46.487  73.396  38.788
O  69.326  43.890  60.739
O  64.976  66.089  34.596
O  41.453  65.922  55.391
O  64.904  66.458  44.763
O  55.871  65.063  61.185
O  43.820  55.477  72.073
O  46.998  53.373  72.745
O  73.136  46.536  61.176
O  69.672  49.797  51.193
O  63.047  54.953  51.586
O  33.852  50.458  65.402
O  70.012  50.726  70.184
O  45.236  71.557  66.850
O  66.623  58.646  39.486
O  29.178  53.738  39.320
O  34.631  39.411  29.399
O  43.383  58.287  63.481
O  45.705  41.759  36.756
O  49.199  73.282  52.636
O  30.005  40.124  47.129
O  43.887  67.461  53.622
O  63.226  25.820  54.338
O  49.315  63.448  41.823
O  30.401  34.921  63.236
O  37.330  73.018  55.925
O  34.646  69.532  56.153
O  33.670  54.641  49.326
O  31.778  28.291  48.741
O  26.318  54.517  56.905
O  38.099  44.205  39.364
O  74.486  35.967  52.224
O  47.017  50.610  65.416
O  35.247  50.542  40.034
O  52.839  42.870  50.003
O  45.506  50.092  34.282
O  66.573  35.837  51.631
O  23.510  41.102  45.008
O  29.593  53.097  43.592
O  27.882  50.709  65.952
O  69.971  30.660  45.745
O  36.347  33.185  65.767
O  34.556  52.547  45.965
O  61.317  54.941  59.879
O  75.530  46.684  47.404
O  54.482  57.741  60.938
O  48.121  38.911  38.731
O  36.290  32.674  61.645
O  22.302  46.834  57.432
O  23.215  50.294  56.003
O  59.958  29.240  52.381
O  27.456  43.161  48.957
O  64.066  43.491  49.228
O  41.050  23.071  47.749
O  50.478  39.121  35.589
O  54.736  64.268  45.527
O  49.833  24.592  62.546
O  75.120  38.096  45.357
O  61.500  69.475  39.439
O  68.443  38.838  55.003
O  67.394  51.083  54.019
O  62.102  34.850  65.310
O  29.742  56.561  67.926
O  55.780  66.850  47.182
O  47.195  70.805  63.189
O  61.799  44.249  70.335
O  34.104  35.359  49.560
O  47.214  54.381  35.163
O  50.413  32.425  57.255
O  41.010  59.976  63.412
O  40.694  56.287  62.356
O  48.183  52.644  33.103
O  67.699  33.708  65.734
O  45.851  77.354  42.594
O  69.941  58.032  61.664
O  52.120  29.896  33.596
O  29.622  49.469  45.263
O  31.040  59.240  51.147
O  45.257  56.605  48.530
O  26.772  49.094  44.011
O  41.171  46.362  26.014
O  37.740  33.372  39.496
O  56.732  55.285  38.119
O  23.567  49.574  48.926
O  70.772  47.272  69.411
O  62.069  53.888  48.397
O  76.001  45.667  54.987
O  55.015  34.594  47.230
O  50.236  68.458  61.819
O  45.432  24.372  59.172
O  44.035  72.595  41.707
O  33.007  54.055  36.013
O  45.822  36.491  50.559
O  65.713  52.798  66.505
O  71.930  38.157  62.192
O  52.645  30.570  61.645
O  33.079  45.804  38.762
O  56.760  33.999  62.747
O  32.892  46.481  61.579
O  75.047  54.762  63.594
O  70.297  60.760  44.234
O  62.621  59.960  63.377
O  72.249  49.971  40.983
O  40.777  44.689  41.876
O  47.644  38.896  63.436
O  45.988  34.353  36.285
O  63.184  46.180  63.970
O  47.503  49.777  26.956
O  41.425  77.130  48.406
O  45.651  58.854  41.062
O  48.217  65.976  62.134
O  57.092  77.273  46.636
O  37.634  35.642  59.769
O  54.804  48.165  76.004
O  34.114  67.263  46.739
O  44.761  66.859  67.290
O  58.143  36.166  28.376
O  59.570  54.752  67.952
O  58.366  55.600  76.256
O  61.628  43.925  64.921
O  44.995  73.286  44.012
O  32.101  51.490  42.802
O  37.971  58.967  66.862
O  47.047  54.169  26.807
O  53.748  53.545  63.276
O  56.907  46.596  62.605
O  63.636  54.943  37.834
O  74.689  40.646  57.616
O  43.790  34.831  53.010
O  53.332  49.507  64.236
O  62.440  41.724  42.181
O  41.546  73.059  40.236
O  51.180  59.138  62.475
O  64.209  47.753  50.831
O  50.551  36.934  41.267
O  46.550  73.384  50.860
O  46.564  48.030  66.129
O  50.931  67.032  48.528
O  38.171  63.278  46.145
O  52.910  49.185  28.355
O  61.908  63.885  30.614
O  56.088  59.867  48.986
O  46.927  23.609  42.470
O  56.934  70.016  59.300
O  58.276  42.665  37.009
O  45.394  39.246  25.931
O  44.397  62.957  34.364
O  60.981  67.889  60.949
O  53.324  49.947  77.670
O  41.611  36.329  46.678
O  42.028  26.022  41.967
O  42.378  46.061  28.698
O  42.851  50.290  33.841
O  55.099  36.875  57.185
O  53.503  35.529  53.514
O  44.934  53.002  62.883
O  65.663  66.859  51.839
O  63.823  48.142  39.340
O  78.403  47.694  46.980
O  48.454  77.733  45.415
O  35.199  66.713  50.861
O  59.321  39.189  41.097
O  52.705  40.633  73.179
O  30.755  61.484  39.017
O  59.869  64.574  41.544
O  57.950  48.226  72.043
O  61.889  51.095  38.543
O  49.079  32.008  41.369
O  49.661  32.592  61.813
O  58.225  28.902  46.514
O  74.090  56.859  59.649
O  25.419  60.838  57.656
O  62.302  65.490  45.518
O  31.290  35.688  54.023
O  69.952  41.543  62.226
O  25.381  63.523  50.289
O  53.320  73.503  52.716
O  59.004  46.217  53.913
O  34.297  30.372  42.183
O  40.725  37.336  30.805
O  71.328  63.216  44.994
O  42.294  69.667  51.785
O  53.463  61.043  51.318
O  30.424  34.220  46.252
O  28.010  63.162  51.678
O  56.651  50.614  66.345
O  65.614  62.378  34.994
O  53.857  75.260  46.137
O  44.781  53.767  74.476
O  60.597  48.205  26.651
O  37.281  54.730  60.109
O  72.033  44.391  58.478
O  67.870  53.085  47.610
O  66.988  68.857  53.253
O  57.854  60.059  57.402
O  41.053  65.472  31.201
O  53.376  52.644  73.679
O  33.925  30.413  49.674
O  35.042  50.746  60.650
O  46.467  24.486  52.658
O  45.280  29.988  30.802
O  59.354  39.224  57.080
O  36.762  36.920  29.064
O  52.954  52.580  29.060
O  54.442  75.463  50.944
O  47.550  24.875  61.171
O  69.479  60.491  49.301
O  51.998  63.573  48.745
O  48.790  47.040  27.961
O  44.069  71.735  52.265
O  73.655  53.470  55.135
O  71.436  47.978  53.973
O  27.292  32.465  54.143
O  31.223  60.337  36.698
O  60.450  60.706  65.097
O  46.272  29.416  53.433
O  34.124  46.695  52.974
O  55.171  24.574  45.225
O  54.687  71.339  31.617
O  23.233  39.964  52.525
O  36.398  28.038  45.628
O  35.782  50.185  63.681
O  58.446  66.409  62.725
O  32.712  41.222  47.482
O  68.989  41.743  65.479
O  52.647  26.784  50.670
O  39.065  39.594  68.723
O  60.613  57.464  43.912
O  55.677  31.147  48.348
O  34.630  53.072  40.078
O  41.975  66.414  46.512
O  67.429  48.157  56.217
O  60.379  38.214  70.314
O  54.774  38.188  54.656
O  65.732  30.236  48.964
O  77.743  52.176  50.382
O  38.542  50.659  24.582
O  30.019  68.612  54.469
O  67.103  43.475  29.352
O  40.595  60.714  51.771
O  62.970  73.033  50.416
O  49.541  58.610  52.319
O  32.318  29.207  56.292
O  68.668  35.474  39.728
O  61.491  28.064  44.679
O  46.474  41.741  25.243
O  75.781  45.831  60.894
O  32.699  48.906  44.834
O  47.847  24.960  57.637
O  40.919  29.095  45.950
O  54.512  58.289  28.062
O  44.067  75.518  41.286
O  34.297  28.294  40.102
O  37.959  65.437  50.598
O  33.693  70.048  46.702
O  59.438  30.864  50.000
O  72.699  37.522  37.705
O  27.876  60.545  39.078
O  62.181  51.398  64.353
O  57.104  34.734  65.626
O  72.453  40.929  53.645
O  49.227  46.816  73.966
O  33.941  32.917  48.438
O  41.817  55.056  41.944
O  58.698  44.558  30.183
O  64.109  26.854  44.345
O  42.662  44.296  53.040
O  60.081  76.220  46.592
O  39.910  45.328  73.624
O  33.769  61.499  38.881
O  44.114  41.144  52.594
O  39.599  67.043  59.781
O  31.334  66.099  54.196
O  72.628  34.237  47.036
O  39.028  59.014  32.195
O  65.047  50.784  64.557
O  38.241  56.766  47.794
O  56.386  57.983  45.017
O  52.321  35.814  68.435
O  50.651  56.968  63.880
O  50.472  27.628  36.249
O  64.803  74.533  47.456
O  26.657  39.605  43.597
O  47.325  54.796  40.215
O  64.860  61.216  47.485
O  48.730  35.883  68.062
O  56.969  77.563  49.393
O  57.080  60.486  66.747
O  58.601  41.447  42.183
O  42.576  63.011  70.694
O  44.481  39.095  63.586
O  62.578  54.795  35.199
O  25.865  57.749  38.006
O  70.962  46.097  37.506
O  71.139  53.914  53.890
O  42.838  70.082  40.636
O  61.028  62.614  36.128
O  60.528  36.729  72.731
O  59.242  62.010  67.546
O  47.293  36.516  59.745
O  53.695  41.352  65.854
O  27.778  61.843  61.113
O  52.088  75.081  39.035
O  64.432  69.525  56.502
O  54.969  32.251  61.593
O  69.721  63.197  63.349
O  62.544  52.641  26.045
O  49.592  39.193  60.930
O  59.589  45.377  72.975
O  63.204  29.288  47.026
O  49.477  50.206  60.147
O  24.418  54.789  48.194
O  41.365  70.142  37.859
O  62.299  30.180  49.593
O  39.021  60.227  74.813
O  63.549  43.525  35.428
O  42.232  49.604  40.758
O  40.168  53.256  75.977
O  32.093  69.352  62.657
O  61.905  32.333  61.504
O  32.613  53.115  60.576
O  42.704  28.258  55.089
O  31.054  56.412  42.677
O  63.242  63.906  71.585
O  27.741  37.835  42.047
O  33.528  48.952  30.174
O  64.810  34.034  36.435
O  28.966  51.634  50.930
O  66.036  36.071  32.079
O  27.562  57.547  65.881
O  36.225  58.072  32.969
O  58.847  29.574  43.219
O  47.934  63.507  59.770
O  41.606  71.440  42.853
O  27.428  49.021  38.439
O  42.636  59.568  26.688
O  66.976  50.503  62.645
O  51.469  64.312  34.760
O  28.849  40.177  49.667
O  55.409  32.547  39.908
O  37.388  30.130  59.747
O  45.319  59.385  38.383
O  29.536  63.707  43.873
O  65.592  69.414  50.314
O  66.691  54.173  37.237
O  55.746  63.625  38.445
O  45.066  40.761  40.099
O  40.561  46.985  65.999
O  46.172  66.334  60.293
O  41.186  33.784  61.224
O  28.368  44.206  46.404
O  68.293  39.979  60.327
O  42.993  55.983  69.419
O  32.065  41.996  51.462
O  72.358  67.154  52.347
O  51.700  48.104  33.317
O  44.869  22.983  54.469
O  64.180  30.105  44.472
O  26.978  56.950  35.230
O  41.491  44.855  56.766
O  43.962  42.905  76.958
O  62.511  37.917  62.403
O  61.752  57.780  71.442
O  59.531  46.889  58.755
O  51.421  71.523  57.494
O  46.870  23.492  48.122
O  66.404  60.424  45.222
O  29.916  48.550  33.056
O  25.864  58.427  40.591
O  73.151  60.819  61.145
O  71.447  35.236  49.122
O  43.359  77.731  50.675
O  48.029  24.934  45.009
O  27.726  63.765  59.011
O  44.197  45.387  23.401
O  62.923  67.567  47.254
O  65.012  64.243  42.790
O  28.465  58.971  60.830
O  43.146  38.861  59.633
O  46.791  74.470  41.532
O  27.634  56.402  55.354
O  47.263  55.014  63.024
O  47.964  49.570  54.953
O  58.170  57.980  67.376
O  63.759  61.901  60.750
O  51.983  51.416  55.343
O  49.120  45.564  46.735
O  53.353  46.953  47.094
O  53.938  51.960  51.186
O  48.811  49.095  45.384
O  50.198  53.874  53.237
O  49.224  50.873  51.299
O  30.467  45.467  36.427
O  66.422  46.912  28.500
O  26.812  44.591  51.726
O  27.732  58.294  57.392
O  50.706  49.817  48.518
O  36.343  51.357  34.663
O  55.456  43.791  62.119
O  60.442  60.608  69.539
O  55.331  32.014  58.702
O  42.061  55.164  74.371
O  48.009  45.639  64.442
O  42.829  35.080  41.799
O  47.289  65.862  53.023
O  44.215  77.682  56.468
O  60.830  53.314  72.983
O  27.645  65.016  49.435
O  38.520  45.964  42.526
O  56.788  45.260  27.649
O  36.123  34.651  47.454
O  25.728  45.148  47.795
O  46.456  52.145  31.046
O  34.833  50.186  50.752
O  42.050  26.617  47.298
O  66.209  34.100  54.752
O  49.024  77.219  48.690
O  57.225  42.351  46.239
O  61.604  31.427  44.668
O  62.106  64.613  62.843
O  35.671  48.474  33.117
O  58.530  76.150  53.220
O  57.149  30.552  63.318
O  68.483  61.155  46.652
O  48.226  42.879  70.534
O  54.024  73.055  36.578
O  61.997  55.911  69.234
O  76.738  52.622  39.853
O  57.321  27.091  41.436
O  48.995  70.885  51.290
O  48.254  63.561  69.306
O  36.087  60.075  55.827
O  59.750  50.808  46.956
O  63.207  59.619  42.545
O  76.901  47.420  41.791
O  42.978  43.666  58.734
O  50.865  29.651  49.680
O  62.324  68.177  31.858
O  52.701  52.929  32.416
O  50.052  63.174  39.146
O  53.056  60.096  40.770
O  42.107  24.473  45.624
O  45.714  50.662  61.341
O  52.106  34.131  60.325
O  47.776  38.987  24.346
O  58.560  46.675  37.146
O  46.186  47.640  70.646
O  33.981  50.402  37.245
O  28.073  35.274  40.505
O  67.247  29.535  40.640
O  42.701  69.425  31.695
O  65.350  57.854  31.321
O  52.090  59.150  29.057
O  63.414  52.475  73.248
O  56.257  58.026  58.557
O  72.573  59.573  48.640
O  51.204  74.022  41.928
O  67.300  50.639  30.738
O  66.063  64.910  46.856
O  75.446  45.471  43.919
O  44.556  31.088  68.391
O  33.387  51.362  34.862
O  40.988  48.668  58.213
O  59.338  50.421  42.732
O  61.535  46.236  44.796
O  56.811  36.451  54.551
O  49.661  63.675  50.061
O  39.029  48.517  28.482
O  51.327  64.274  26.756
O  37.785  29.903  34.556
O  69.009  60.301  55.970
O  39.236  66.245  38.882
O  67.707  32.470  44.297
O  75.678  42.630  44.856
O  67.685  35.169  61.241
O  57.002  39.978  47.386
O  61.325  41.437  53.015
O  41.763  52.898  34.907
O  64.295  56.346  26.823
O  68.640  70.483  43.777
O  68.909  63.654  50.391
O  47.967  47.738  25.277
O  46.426  78.458  51.763
O  37.892  49.225  55.194
O  34.293  36.496  42.464
O  55.890  67.420  59.782
O  53.665  44.807  70.566
O  60.393  52.928  42.057
O  60.279  31.952  40.502
O  49.490  77.946  52.196
O  43.552  69.381  36.149
O  33.999  44.587  48.791
O  43.623  46.529  63.227
O  37.547  43.612  44.886
O  68.362  69.095  58.764
O  61.384  40.313  58.589
O  49.045  25.356  47.778
O  55.430  73.034  34.217
O  70.576  65.600  56.273
O  60.885  42.657  60.143
O  72.920  60.824  45.533
O  59.170  52.734  39.701
O  43.153  54.827  39.344
O  52.810  62.403  39.065
O  58.711  49.211  49.150
O  39.188  44.227  32.279
O  33.933  65.348  53.017
O  59.196  48.336  76.579
O  45.332  35.533  65.512
O  57.822  61.214  61.832
O  36.568  48.997  36.105
O  37.391  54.450  67.437
O  44.942  76.349  53.264
O  47.715  60.925  42.914
O  31.682  59.799  55.029
O  22.374  47.849  46.232
O  46.636  68.964  52.128
O  26.339  53.555  50.360
O  55.752  36.427  61.930
O  33.881  36.939  39.128
O  44.551  34.131  30.986
O  47.785  65.099  47.071
O  35.792  40.896  63.955
O  55.475  60.685  43.988
O  52.341  67.330  38.394
O  54.918  29.042  37.408
O  48.892  49.454  73.314
O  45.950  34.606  40.216
O  58.217  55.832  52.135
O  27.437  40.989  57.642
O  57.678  72.036  37.283
O  44.918  55.480  64.942
O  49.214  60.754  69.808
O  63.729  56.056  48.995
O  44.933  35.725  57.101
O  62.185  37.602  65.253
O  30.723  45.356  41.436
O  55.731  28.166  49.475
O  31.572  34.473  57.137
O  52.849  47.835  58.519
O  38.423  45.143  46.818
O  54.100  38.354  59.755
O  33.152  35.051  64.292
O  45.385  57.766  45.656
O  41.798  39.860  29.782
O  63.903  66.692  42.157
O  66.156  46.289  66.396
O  58.666  46.844  42.218
O  38.217  42.780  54.839
O  54.875  69.968  57.288
O  31.473  53.419  41.030
O  48.067  36.084  36.182
O  50.339  60.941  60.328
O  36.839  28.706  39.365
O  35.430  57.427  28.496
O  58.594  53.672  48.929
O  66.192  35.385  49.181
O  36.745  47.415  50.374
O  37.546  60.307  43.084
O  55.475  46.658  60.288
O  66.556  59.002  48.187
O  46.102  33.599  68.676
O  54.913  31.108  31.422
O  45.372  27.065  42.127
O  37.658  45.272  52.720
O  65.313  51.128  71.716
O  42.071  28.747  32.411
O  64.583  29.856  51.460
O  29.031  46.500  38.444
O  51.299  68.389  59.384
O  34.675  62.743  66.924
O  35.079  36.694  56.577
O  41.111  63.195  68.176
O  55.674  41.928  26.981
O  50.990  27.350  57.806
O  49.986  65.723  36.836
O  33.081  70.639  53.406
O  46.480  57.581  32.351
O  25.709  44.156  43.415
O  47.958  38.836  57.630
O  60.623  58.751  47.676
O  63.626  53.476  68.050
O  45.612  40.697  61.639
O  70.988  59.631  36.605
O  47.171  45.318  26.093
O  48.266  49.463  69.308
O  46.467  37.980  41.668
O  66.228  30.909  35.539
O  72.738  53.226  33.994
O  27.635  63.169  54.372
O  25.645  66.658  50.422
O  25.754  65.182  53.581
O  69.747  40.815  53.833
O  58.265  46.666  67.371
O  29.212  62.231  35.344
O  58.108  50.010  31.039
O  49.611  46.178  31.821
O  53.789  46.237  34.191
O  59.753  32.851  52.115
O  41.451  46.093  71.506
O  73.783  52.577  50.278
O  52.954  24.240  49.127
O  63.947  39.610  32.069
O  63.551  62.216  44.466
O  40.537  49.221  62.850
O  40.315  53.120  26.665
O  37.496  39.228  27.290
O  35.718  61.111  34.081
O  65.357  58.879  64.772
O  46.262  47.952  49.209
O  32.992  56.669  30.984
O  51.543  32.765  28.341
O  39.300  45.207  29.747
O  38.451  49.225  67.386
O  72.420  65.750  40.980
O  71.070  40.044  64.432
O  71.413  39.424  57.038
O  30.707  46.771  48.566
O  37.878  49.353  61.795
O  60.461  32.586  68.446
O  47.796  52.143  38.750
O  55.472  30.518  43.583
O  57.027  33.392  50.081
O  45.633  45.780  73.342
O  68.609  57.761  53.556
O  71.836  56.397  48.611
O  40.018  52.225  63.197
O  38.306  58.538  36.700
O  31.781  48.441  67.276
O  31.952  32.069  46.830
O  39.090  73.033  48.619
O  45.803  71.469  49.056
O  59.267  65.267  58.278
O  44.633  43.217  61.105
O  53.647  66.806  65.558
O  36.740  72.034  40.268
O  54.256  59.444  71.846
O  36.305  31.529  57.640
O  65.911  47.972  35.480
O  58.264  37.701  67.334
O  60.912  74.587  40.555
O  46.668  48.293  73.374
O  45.151  58.159  65.662
O  53.365  39.566  47.852
O  26.272  36.935  59.266
O  35.543  45.419  31.762
O  55.257  41.373  63.510
O  37.435  45.386  27.046
O  50.298  65.308  32.480
O  43.741  61.021  63.265
O  53.547  38.697  45.445
O  30.285  69.869  47.301
O  62.800  50.019  25.673
O  44.026  67.092  63.387
O  35.484  42.343  42.799
O  46.766  64.657  64.156
O  62.138  51.331  54.842
O  38.799  37.116  38.202
O  46.884  67.604  31.035
O  43.531  53.234  65.016
O  64.325  52.188  52.713
O  57.862  44.544  55.874
O  72.889  64.259  43.118
O  46.991  49.402  21.849
O  53.003  34.382  38.469
O  54.982  28.835  62.049
O  59.415  33.920  30.497
O  57.299  45.189  59.072
O  51.963  27.045  63.301
O  37.604  56.500  40.037
O  46.950  40.948  27.937
O  43.105  66.335  44.189
O  48.946  76.663  60.450
O  49.497  46.571  23.199
O  46.105  51.384  28.359
O  57.287  69.584  51.091
O  40.076  55.576  56.133
O  70.334  60.699  62.000
O  26.439  52.209  55.441
O  39.237  28.990  61.958
O  30.325  62.180  55.101
O  52.359  43.050  61.836
O  54.006  33.481  63.896
O  41.399  52.017  41.548
O  63.127  46.901  70.680
O  51.827  26.136  34.365
O  40.641  69.976  67.080
O  36.306  32.165  33.797
O  43.982  51.745  72.645
O  61.761  51.324  49.079
O  39.676  40.722  33.783
O  41.630  52.141  66.305
O  57.447  62.212  45.339
O  46.960  28.116  66.319
O  66.188  50.922  42.197
O  35.731  50.356  56.731
O  57.177  23.320  53.092
O  58.180  60.351  47.281
O  42.428  67.404  29.397
O  60.468  60.562  31.468
O  41.012  43.197  47.567
O  32.268  45.653  46.069
O  61.188  44.687  26.670
O  61.618  42.620  39.840
O  29.318  41.799  35.017
O  41.356  54.991  53.758
O  47.741  31.027  69.081
O  68.451  62.793  42.438
O  53.609  37.940  67.408
O  31.863  39.202  39.124
O  41.866  62.520  33.981
O  50.215  78.074  55.042
O  63.136  62.248  56.880
O  64.844  47.193  46.101
O  34.037  41.217  66.383
O  44.370  36.215  46.506
O  27.845  58.122  50.802
O  50.950  71.933  47.761
O  27.453  50.671  34.873
O  32.310  38.299  47.852
O  38.093  70.111  54.719
O  69.404  42.253  49.540
O  47.418  29.886  44.866
O  64.854  40.914  34.662
O  69.649  38.306  49.877
O  63.779  35.365  34.211
O  62.534  47.131  67.955
O  42.422  61.745  43.239
O  53.353  68.982  32.232
O  59.980  33.525  56.343
O  49.669  61.030  26.035
O  58.854  39.455  60.454
O  41.647  33.830  38.944
O  57.002  37.206  70.342
O  73.057  56.237  54.065
O  50.536  53.588  73.947
O  59.989  72.168  39.413
O  55.318  24.144  59.893
O  64.493  51.382  33.577
O  41.828  31.794  51.676
O  37.242  50.995  52.885
O  48.438  43.202  28.647
O  50.225  69.468  45.063
O  66.687  57.610  45.681
O  44.985  51.605  69.295
O  40.516  27.584  63.990
O  56.600  58.181  72.464
O  41.879  52.625  55.748
O  53.901  30.184  64.307
O  35.322  64.944  36.659
O  54.524  52.036  70.607
O  33.273  40.163  69.569
O  30.649  63.022  64.277
O  30.932  50.776  60.960
O  45.996  62.828  62.119
O  76.390  47.831  50.180
O  47.961  59.516  37.788
O  41.874  55.336  64.202
O  51.951  64.697  53.326
O  56.999  43.052  50.776
O  47.980  21.651  49.707
O  46.953  52.825  24.190
O  66.293  40.022  46.321
O  37.461  64.688  70.757
O  28.280  56.457  39.306
O  44.772  67.758  42.379
O  29.181  39.708  37.807
O  44.360  25.323  35.131
O  39.881  61.706  70.376
O  62.676  36.767  52.591
O  71.137  53.764  50.636
O  30.674  48.261  29.564
O  61.172  72.436  42.352
O  64.188  43.737  40.202
O  68.616  53.984  52.764
O  57.352  30.295  60.247
O  59.112  57.085  59.521
O  46.465  63.684  54.915
O  54.890  62.903  73.357
O  62.557  60.476  46.274
O  47.914  63.696  37.371
O  57.021  26.920  44.720
O  54.841  26.924  52.496
O  39.336  47.127  48.914
O  47.626  42.696  57.219
O  29.650  57.070  53.230
O  64.574  35.667  43.928
O  41.700  30.944  60.660
O  42.501  40.838  33.718
O  46.791  38.331  31.449
O  59.555  49.740  39.845
O  43.090  62.886  25.705
O  59.180  66.281  50.572
O  36.384  63.027  50.320
O  67.407  58.017  62.526
O  64.956  30.551  63.338
O  28.284  36.088  46.612
O  51.486  44.546  22.749
O  55.104  25.934  64.414
O  52.471  49.407  35.276
O  46.245  40.463  33.167
O  41.651  72.998  56.746
O  45.678  36.893  71.239
O  27.657  37.589  39.052
O  57.605  53.698  23.806
O  58.757  46.260  64.389
O  66.615  49.574  44.812
O  67.042  40.022  48.995
O  52.122  56.475  61.196
O  34.067  44.325  56.189
O  69.018  30.921  58.462
O  46.184  44.315  40.271
O  46.424  67.332  39.696
O  38.668  53.224  58.291
O  48.851  45.181  76.719
O  30.722  49.115  42.757
O  61.057  59.851  44.335
O  25.738  55.475  40.238
O  35.064  29.146  56.761
O  49.921  29.983  58.562
O  50.747  35.727  66.005
O  49.196  52.267  26.360
O  75.235  50.507  56.421
O  56.297  40.257  50.283
O  57.836  34.233  53.665
O  67.601  63.679  65.312
O  32.784  37.942  53.721
O  31.673  42.656  56.307
O  45.394  31.314  64.172
O  70.055  49.182  62.588
O  59.466  68.770  31.535
O  34.612  72.961  55.107
O  40.899  68.745  34.859
O  66.270  46.872  48.504
O  47.401  63.268  72.000
O  35.381  55.558  30.670
O  58.857  64.176  69.420
O  69.527  42.615  69.632
O  33.816  46.932  47.535
O  73.281  36.201  44.251
O  62.116  55.745  46.174
O  40.556  52.799  48.095
O  63.994  40.534  39.214
O  75.160  38.253  41.280
O  50.288  36.906  33.383
O  60.755  45.666  23.945
O  75.113  38.647  53.709
O  70.228  41.513  46.987
O  70.334  63.502  39.518
O  49.819  75.452  54.588
O  46.945  52.864  76.791
O  65.690  38.588  55.642
O  73.176  55.773  37.138
O  39.150  53.987  41.058
O  45.587  26.302  47.906
O  63.609  41.257  54.513
O  54.615  37.419  49.931
O  61.376  38.441  45.866
O  28.632  37.688  63.977
O  32.935  46.507  29.765
O  57.045  39.004  30.347
O  39.290  32.675  54.469
O  57.017  54.950  44.251
O  49.183  53.985  37.224
O  59.420  64.395  29.631
O  42.141  43.228  39.758
O  30.807  55.604  29.617
O  41.953  41.983  66.951
O  72.054  51.977  38.878
O  41.854  47.158  35.320
O  41.291  75.970  56.015
O  54.227  55.078  42.701
O  45.153  43.474  32.766
O  32.966  60.908  52.565
O  38.587  56.698  44.912
O  38.293  56.714  61.877
O  66.676  41.411  58.749
O  63.032  36.650  27.725
O  29.952  47.815  61.600
O  36.530  47.642  47.703
O  52.075  36.222  35.173
O  37.675  65.391  32.623
O  72.599  51.602  52.742
O  40.256  68.758  46.184
O  46.470  37.630  55.299
O  32.958  27.437  42.609
O  40.226  37.309  33.568
O  55.628  39.144  42.211
O  45.762  43.372  54.997
O  67.681  37.399  48.098
O  45.300  37.984  66.338
O  40.711  50.529  27.348
O  55.517  59.940  55.556
O  35.683  48.539  42.183
O  38.644  47.193  34.954
O  71.461  57.987  44.366
O  49.488  66.492  29.694
O  59.664  32.706  63.309
O  59.502  55.167  43.490
O  73.910  47.867  36.167
O  24.722  57.451  57.778
O  47.683  50.790  36.074
O  39.524  63.488  36.804
O  31.456  50.905  30.496
O  31.781  67.143  60.749
O  47.437  26.581  51.087
O  54.123  34.549  35.364
O  42.623  53.285  70.583
O  29.215  45.813  52.171
O  32.490  64.540  62.446
O  71.670  44.523  35.261
O  55.695  63.942  58.485
O  42.122  34.741  55.437
O  73.263  65.698  57.303
O  58.201  70.256  46.342
O  55.038  59.823  68.569
O  47.689  38.928  73.785
O  59.218  57.493  41.204
O  60.768  59.038  56.698
O  36.575  47.670  57.477
O  53.784  55.426  37.417
O  68.935  55.161  29.257
O  38.431  39.251  51.029
O  38.875  38.391  35.726
O  40.641  50.462  68.003
O  37.721  38.777  63.851
O  61.980  43.919  37.657
O  61.555  61.552  54.046
O  69.426  46.912  34.601
O  47.672  49.471  77.220
O  40.526  46.599  63.206
O  40.639  37.308  69.239
O  43.172  60.881  32.188
O  47.101  55.159  70.454
O  66.615  67.658  56.701
O  35.296  34.266  57.657
O  71.720  55.612  65.085
O  36.989  67.811  41.437
O  29.955  50.141  55.706
O  49.825  35.174  57.924
O  43.442  63.695  63.821
O  67.517  70.726  60.764
O  56.975  67.584  67.977
O  73.774  46.665  49.640
O  63.598  40.699  46.405
O  32.800  39.728  49.958
O  55.463  42.097  23.202
O  47.961  71.286  68.808
O  46.556  22.005  45.402
O  48.656  67.925  37.622
O  60.583  54.200  28.269
O  42.768  57.072  49.477
O  62.114  26.918  49.558
O  66.186  47.218  43.276
O  69.577  38.933  45.874
O  50.646  26.118  45.036
O  33.105  49.326  41.316
O  40.391  39.475  59.914
O  47.041  69.610  40.629
O  65.583  49.113  32.439
O  50.286  31.669  38.581
O  43.096  51.619  47.614
O  64.836  61.127  39.373
O  54.064  72.421  41.634
O  40.115  44.991  54.306
O  57.000  72.845  60.017
O  37.594  73.673  59.521
O  40.339  48.354  23.634
O  37.342  69.884  44.783
O  72.273  36.798  54.209
O  49.161  28.058  46.882
O  61.371  48.420  48.299
O  53.892  29.280  54.599
O  33.474  57.381  36.147
O  71.567  42.157  41.483
O  37.707  40.799  35.489
O  62.309  56.679  39.389
O  51.646  43.135  71.297
O  51.496  45.626  25.887
O  66.692  43.756  42.576
O  65.475  55.056  32.579
O  40.016  60.700  33.957
O  44.124  64.727  60.918
O  64.085  64.356  40.143
O  64.585  31.384  60.674
O  46.729  50.845  71.051
O  61.134  40.425  73.586
O  43.894  67.908  39.250
O  40.228  28.380  42.548
O  38.212  70.406  47.765
O  65.308  67.780  40.058
O  31.647  40.552  43.968
O  56.191  57.090  74.954
O  28.066  36.725  56.639
O  31.555  61.082  66.587
O  39.418  48.911  72.712
O  39.550  70.852  61.231
O  61.696  41.649  56.210
O  64.454  45.234  42.588
O  62.859  26.141  46.785
O  53.128  35.987  62.743
O  57.412  34.749  56.836
O  56.790  54.627  68.124
O  48.423  60.618  73.086
O  41.532  34.656  49.087
O  32.292  58.907  38.994
O  57.378  51.724  71.986
O  38.657  57.628  57.361
O  34.047  31.545  59.702
O  33.551  56.786  46.442
O  39.520  36.828  64.916
O  51.556  22.903  56.185
O  44.899  65.946  70.016
O  47.789  51.728  67.691
O  44.878  69.350  50.010
O  39.858  34.792  58.407
O  52.577  25.347  58.764
O  44.157  32.051  38.822
O  50.785  38.602  57.474
O  25.080  62.416  53.396
O  70.071  66.226  49.078
O  67.230  37.405  44.341
O  27.263  56.228  62.243
O  36.031  41.427  68.395
O  48.517  41.794  23.258
O  66.243  39.093  38.301
O  46.064  68.650  64.738
O  51.561  58.974  57.492
O  63.146  62.027  41.200
O  68.233  47.869  68.039
O  63.223  63.377  47.094
O  65.497  38.048  33.957
O  38.413  29.225  37.358
O  36.425  37.183  48.926
O  62.357  32.028  51.588
O  61.797  75.501  52.749
O  46.518  61.369  35.847
O  52.750  63.635  64.284
O  43.946  71.025  46.911
O  50.626  72.316  36.221
O  66.012  41.281  61.422
O  35.594  64.564  62.426
O  66.038  53.243  30.606
O  52.369  44.421  64.534
O  51.201  26.443  41.716
O  64.950  52.457  55.200
O  32.759  37.021  58.121
O  66.957  43.802  62.306
O  65.903  42.494  44.985
O  49.178  68.429  50.238
O  65.694  54.663  47.857
O  58.468  60.334  52.922
O  50.437  51.335  36.403
O  39.977  54.099  60.744
O  58.775  42.389  53.998
O  28.993  57.242  48.179
O  65.514  52.558  44.705
O  24.743  46.873  39.249
O  44.439  52.132  39.255
O  36.364  39.327  33.471
O  31.749  51.941  37.007
O  51.137  25.628  52.790
O  54.119  40.530  53.223
O  72.692  39.532  44.514
O  68.693  51.541  45.509
O  62.647  28.082  52.417
O  28.300  50.993  53.679
O  61.233  45.155  48.065
O  37.630  43.565  36.564
O  64.921  62.381  67.236
O  76.304  40.196  44.021
O  44.693  72.288  63.961
O  58.822  75.649  50.203
O  44.422  61.426  54.381
O  36.044  32.934  43.252
O  69.235  46.661  48.085
O  55.838  60.468  40.239
O  34.812  35.559  53.981
O  53.490  22.402  44.780
O  63.415  43.232  58.368
O  64.750  40.833  70.836
O  36.166  52.085  37.658
O  62.994  49.241  57.004
O  45.375  45.095  57.843
O  39.230  60.607  56.040
O  54.844  25.809  42.412
O  52.341  36.376  55.918
O  40.962  64.810  57.786
O  57.027  33.066  31.615
O  31.721  39.990  31.347
O  54.135  29.569  52.093
O  56.205  27.725  59.541
O  43.851  68.112  71.462
O  48.524  44.956  36.757
O  26.160  62.771  46.335
O  58.262  23.189  50.431
O  36.813  66.764  35.045
O  39.090  71.896  57.741
O  25.067  48.959  36.910
O  36.640  36.355  72.322
O  25.154  59.731  45.525
O  47.635  65.374  32.456
O  70.900  53.319  60.299
O  37.142  62.931  68.044
O  41.439  47.689  74.660
O  60.712  45.827  66.490
O  62.641  32.113  54.447
O  26.398  48.227  66.212
O  33.969  70.912  39.105
O  53.924  27.988  34.789
O  75.470  57.162  38.250
O  33.182  28.139  53.690
O  67.408  31.570  55.819
O  44.399  45.905  69.409
O  69.320  43.750  41.601
O  50.331  71.023  62.903
O  39.826  36.836  72.462
O  62.446  61.790  27.968
O  64.019  56.864  67.527
O  74.555  61.878  48.461
O  72.304  46.103  42.779
O  45.896  53.413  59.941
O  37.680  60.029  59.373
O  52.511  39.223  29.829
O  56.251  56.815  25.937
O  42.475  44.809  31.402
O  58.366  68.694  61.357
O  39.318  32.867  48.871
O  57.887  65.887  55.623
O  65.614  61.769  43.117
O  69.462  33.099  53.009
O  32.978  51.987  52.949
O  44.551  60.521  60.860
O  66.145  35.445  38.740
O  45.879  62.655  44.723
O  29.632  45.730  55.968
O  68.251  68.134  45.877
O  56.334  66.009  70.366
O  44.908  66.160  55.778
O  58.650  40.669  62.718
O  54.019  28.112  57.222
O  47.908  56.940  66.344
O  63.309  49.252  72.532
O  77.772  44.667  48.381
O  68.222  36.890  68.463
O  59.247  59.323  71.809
O  57.555  62.807  73.188
O  24.164  60.487  42.526
O  43.031  62.113  37.097
O  57.124  39.485  44.591
O  72.413  52.691  63.660
O  44.179  59.507  48.513
O  47.258  64.212  30.006
O  69.103  45.265  57.208
O  36.172  40.494  50.573
O  40.073  60.017  68.182
O  59.810  47.525  69.970
O  31.418  44.478  29.136
O  38.799  37.297  26.368
O  56.512  29.719  53.952
O  42.611  74.415  51.340
O  29.287  41.986  40.239
O  36.113  68.406  48.266
O  55.618  70.134  43.320
O  70.950  59.371  53.684
O  51.593  36.997  28.008
O  59.766  53.370  75.563
O  25.833  57.636  47.627
O  33.436  57.251  48.979
O  36.834  30.909  40.957
O  31.582  67.405  45.407
O  52.555  68.975  43.384
O  37.010  27.393  57.847
O  38.138  51.313  27.508
O  64.242  69.958  53.681
O  37.422  53.815  33.300
O  57.612  64.029  48.017
O  32.182  34.793  41.351
O  59.611  65.601  65.458
O  37.671  63.294  63.733
O  48.953  50.604  41.019
O  67.019  64.741  62.374
O  48.788  75.611  43.241
O  70.256  50.125  30.773
O  55.164  65.727  55.731
O  61.331  57.885  26.710
O  41.731  64.624  39.217
O  46.804  61.582  47.332
O  36.441  56.971  65.197
O  65.757  61.086  58.833
O  35.447  54.524  35.511
O  56.804  49.921  69.729
O  47.767  60.616  61.208
O  54.182  72.016  45.025
O  40.317  44.486  37.690
O  42.034  66.290  68.909
O  41.643  34.924  29.913
O  62.854  37.061  38.261
O  42.700  54.080  58.149
O  62.540  60.773  71.903
O  27.290  57.551  42.652
O  70.010  47.465  30.002
O  59.202  45.106  61.739
O  55.021  32.303  51.822
O  51.526  52.432  70.791
O  58.271  52.466  27.930
O  50.183  26.675  49.966
O  57.430  73.370  62.673
O  63.223  59.833  68.073
O  60.732  26.561  60.250
O  60.154  23.922  45.332
O  41.703  56.213  32.599
O  50.754  37.667  38.305
O  69.089  44.093  67.419
O  46.016  75.622  45.331
O  53.834  43.945  28.068
O  63.029  52.443  46.290
O  34.374  58.065  42.441
O  39.673  47.869  45.620
O  36.548  27.123  49.551
O  39.689  50.563  46.344
O  30.305  49.736  52.842
O  51.895  28.827  46.694
O  49.251  39.212  42.264
O  35.161  41.825  60.661
O  32.490  60.572  29.652
O  69.515  42.149  58.704
O  48.411  61.228  40.143
O  59.575  66.825  53.926
O  49.658  37.774  30.729
O  34.844  43.165  26.710
O  54.644  65.244  49.267
O  29.518  43.376  54.162
O  40.336  55.380  47.254
O  26.316  39.600  61.780
O  50.314  21.854  51.285
O  46.693  72.390  55.690
O  37.068  33.968  50.088
O  36.471  48.756  30.180
O  50.912  53.058  24.151
O  50.522  60.648  42.024
O  48.901  23.328  53.252
O  58.709  58.287  25.508
O  42.921  49.057  66.053
O  33.557  60.459  32.402
O  41.353  25.502  54.026
O  65.563  43.616  53.728
O  25.272  54.031  62.378
O  73.689  44.118  54.141
O  53.540  65.333  36.414
O  51.344  51.289  22.132
O  47.811  65.449  49.929
O  61.225  67.279  67.080
O  33.160  68.013  58.097
O  34.639  47.362  55.352
O  45.399  45.499  77.537
O  34.605  28.080  47.668
O  50.466  29.403  62.902
O  53.845  55.810  24.401
O  53.296  41.721  25.195
O  36.786  37.900  68.896
O  42.961  37.793  53.941
O  70.648  48.838  66.508
O  50.954  46.625  64.435
O  56.812  70.904  67.954
O  61.293  35.628  70.071
O  59.762  69.613  37.318
O  59.137  51.358  58.696
O  33.873  46.653  43.727
O  39.528  72.438  54.025
O  59.054  61.293  29.312
O  36.652  46.659  44.548
O  27.246  45.148  40.217
O  53.409  61.496  28.025
O  30.595  50.580  34.789
O  22.250  54.523  46.159
O  33.407  43.100  53.967
O  55.295  41.713  36.730
O  59.840  31.236  47.434
O  67.060  44.211  59.238
O  28.604  55.089  41.952
O  74.600  42.519  48.919
O  47.156  34.990  55.795
O  59.300  49.184  52.549
O  57.114  71.988  57.028
O  29.796  52.887  65.669
O  31.494  55.431  47.800
O  41.663  65.607  60.654
O  31.430  47.638  40.477
O  47.453  59.740  45.370
O  59.189  44.337  49.713
O  62.169  51.085  59.398
O  38.849  63.310  48.769
O  65.706  50.437  26.023
O  55.000  31.704  55.064
O  58.851  50.449  25.973
O  42.594  66.834  51.360
O  74.778  41.503  52.246
O  31.448  39.056  36.221
O  39.257  57.380  42.397
O  73.448  56.676  62.407
O  35.742  71.829  58.257
O  61.887  59.282  29.295
O  33.984  32.300  35.776
O  61.589  63.282  59.025
O  66.076  31.356  42.529
O  41.570  50.713  31.477
O  61.338  66.957  63.548
O  26.148  42.956  63.904
O  31.720  53.547  45.426
O  36.253  53.439  73.885
O  34.072  62.461  48.531
O  57.864  31.139  33.743
O  46.019  27.703  55.688
O  32.646  48.494  33.732
O  51.832  67.936  35.702
O  39.765  28.053  48.202
O  57.583  52.098  33.948
O  32.112  65.300  43.697
O  42.646  57.538  53.782
O  68.091  40.315  36.083
O  64.583  54.983  53.923
O  29.397  43.442  31.198
O  62.183  49.298  69.551
O  50.593  59.829  32.671
O  45.841  29.004  38.225
O  50.360  40.636  37.875
O  39.470  39.512  56.245
O  39.810  63.382  60.357
O  48.115  28.225  61.332
O  52.200  30.358  56.665
O  62.780  56.743  29.356
O  61.814  64.969  39.387
O  40.741  33.453  46.516
O  60.643  39.016  52.753
O  62.087  55.090  25.140
O  61.982  63.555  49.509
O  33.712  55.587  44.038
O  41.808  40.003  54.893
O  35.139  42.624  46.774
O  62.881  49.100  62.870
O  55.119  70.118  61.629
O  60.557  51.754  51.715
O  43.227  30.639  62.942
O  65.227  44.356  46.771
O  46.060  48.672  31.745
O  40.994  59.723  45.580
O  39.871  51.311  52.910
O  28.999  61.200  49.761
O  44.560  25.028  43.602
O  38.161  46.772  31.816
O  50.827  40.515  51.645
O  54.380  49.915  37.629
O  32.119  36.643  67.363
O  68.327  57.360  36.673
O  42.193  29.459  37.832
O  42.209  35.080  33.131
O  56.525  66.501  37.057
O  51.396  41.079  23.229
O  36.941  70.884  35.738
O  72.946  40.343  37.393
O  40.667  65.406  28.292
O  30.206  64.039  50.126
O  24.542  52.180  57.763
O  57.906  72.475  32.853
O  61.797  56.988  63.479
O  62.894  29.118  55.606
O  42.383  26.762  57.577
O  47.016  53.929  66.173
O  40.770  55.919  58.758
O  67.800  47.000  59.028
O  62.221  70.104  36.517
O  41.957  71.862  45.378
O  47.397  60.535  28.161
O  56.235  59.407  62.958
O  44.198  24.753  38.674
O  69.821  57.497  40.723
O  33.257  44.946  71.828
O  57.895  51.667  74.688
O  48.776  71.796  41.221
O  39.370  44.607  34.962
O  42.807  60.543  40.028
O  39.155  67.677  43.637
O  60.610  48.259  64.920
O  32.744  45.848  34.704
O  49.825  33.461  36.300
O  62.641  74.858  45.578
O  52.564  61.113  68.578
O  43.604  73.899  38.548
O  63.308  57.592  44.345
O  69.062  35.405  54.507
O  64.727  51.354  60.929
O  40.774  44.287  68.054
O  38.573  41.654  52.364
O  57.522  66.281  42.322
O  52.568  37.437  64.924
O  50.978  49.540  71.097
O  26.976  59.774  54.745
O  31.650  50.583  50.814
O  28.686  43.116  62.571
O  50.518  34.370  69.872
O  32.041  65.258  35.351
O  52.327  59.369  44.067
O  37.831  56.192  29.784
O  35.724  49.239  67.043
O  71.851  52.609  57.348
O  38.142  54.561  27.637
O  55.582  40.813  69.394
O  43.609  31.504  44.368
O  63.244  64.439  36.319
O  44.989  53.724  37.244
O  71.350  50.386  59.763
O  60.160  42.714  62.901
O  56.896  25.734  37.374
O  41.263  67.383  37.300
O  57.887  54.738  61.070
O  64.193  36.273  59.644
O  44.355  27.558  45.724
O  66.145  55.718  28.839
O  39.751  31.672  33.415
O  43.473  59.596  44.795
O  49.251  58.255  25.792
O  56.487  46.113  74.213
O  68.125  62.610  34.026
O  50.769  32.294  67.777
O  25.592  52.036  64.459
O  41.747  68.840  43.507
O  34.474  35.513  33.234
O  58.962  64.364  36.538
O  33.774  72.574  50.066
O  64.321  33.076  49.756
O  42.147  62.778  61.516
O  66.363  51.091  48.136
O  71.581  40.648  49.102
O  57.901  53.691  31.822
O  32.306  43.417  36.404
O  47.470  42.700  62.802
O  55.513  51.371  30.235
O  46.813  21.564  52.715
O  39.864  67.733  32.546
O  33.860  51.937  49.158
O  63.544  46.538  48.515
O  35.331  36.790  63.326
O  43.280  38.029  32.985
O  63.574  32.400  57.080
O  44.223  56.566  31.230
O  57.870  42.155  32.638
O  66.958  48.830  50.343
O  48.083  35.798  28.831
O  49.084  73.621  49.540
O  39.121  70.344  42.086
O  60.157  24.007  52.712
O  32.115  39.419  56.214
O  50.564  38.057  71.200
O  67.031  54.422  55.259
O  59.147  25.808  39.096
O  64.927  40.925  43.055
O  36.626  74.361  51.006
O  63.900  48.163  42.258
O  37.918  25.417  47.124
O  36.545  65.522  42.728
O  67.453  45.802  45.118
O  68.146  43.914  54.696
O  60.080  61.979  26.539
O  24.853  52.306  52.167
O  60.829  36.456  55.226
O  71.069  56.413  59.482
O  48.450  63.411  27.434
O  48.625  50.166  24.137
O  56.072  65.911  33.884
O  55.449  55.008  32.775
O  66.562  65.822  54.293
O  29.634  40.350  64.944
O  44.045  26.074  53.751
O  47.183  28.434  48.843
O  64.663  28.343  58.693
O  74.855  41.140  41.939
O  61.841  49.472  34.261
O  54.312  43.236  67.925
O  41.967  30.778  30.051
O  68.630  51.464  66.904
O  48.717  74.886  45.980
O  69.445  48.503  46.059
O  47.589  45.222  53.750
O  30.030  50.456  58.393
O  50.563  29.126  40.217
O  48.044  27.369  63.882
O  41.259  38.685  48.378
O  54.869  30.508  34.530
O  34.121  51.560  28.587
O  55.558  52.753  41.524
O  37.566  51.541  71.443
O  44.269  31.603  52.626
O  63.181  59.018  50.495
O  37.250  68.901  33.175
O  37.628  38.456  54.252
O  54.043  48.870  31.809
O  43.059  63.326  30.620
O  60.046  64.447  44.423
O  59.808  53.420  70.473
O  55.070  52.889  37.694
O  33.755  67.493  34.105
O  51.683  28.904  43.653
O  41.818  69.357  59.989
O  68.901  44.559  31.376
O  68.948  34.513  57.443
O  61.358  45.270  59.656
O  53.953  56.632  39.814
O  41.473  32.425  57.864
O  43.185  35.040  71.307
O  40.694  62.742  63.734
O  59.308  49.060  23.492
O  40.646  70.810  32.847
O  48.483  55.003  60.022
O  46.875  61.280  68.195
O  21.960  43.825  52.103
O  47.912  32.616  34.388
O  70.051  31.471  42.061
O  40.976  39.161  66.530
O  45.103  43.255  68.075
O  64.607  71.585  37.510
O  63.454  57.618  58.350
O  45.512  36.342  33.206
O  34.700  69.141  43.243
O  61.777  65.034  56.995
O  27.317  63.383  40.298
O  27.836  60.459  47.211
O  30.641  45.091  62.271
O  51.988  31.822  47.756
O  40.416  72.076  50.835
O  59.756  55.528  38.785
O  40.693  27.895  39.636
O  30.101  32.713  41.163
O  32.629  35.053  44.160
O  34.381  67.565  54.428
O  65.817  36.279  46.620
O  31.256  48.003  58.826
O  56.383  43.238  70.471
O  27.983  46.049  43.923
O  38.007  59.155  39.603
O  67.728  44.211  39.284
O  44.875  69.808  55.164
O  67.058  60.729  37.641
O  32.500  59.988  43.033
O  29.911  53.711  48.999
O  36.079  54.115  51.268
O  46.840  56.475  24.565
O  56.113  47.534  33.248
O  53.928  62.127  47.398
O  35.972  40.281  37.522
O  38.480  53.643  52.358
O  56.425  47.275  29.557
O  50.504  26.452  60.655
O  63.737  51.590  40.596
O  70.679  44.995  49.508
O  50.092  59.686  35.751
O  58.829  68.433  40.248
O  66.380  60.419  52.320
O  52.120  76.526  42.760
O  31.787  49.963  38.962
O  53.077  35.970  58.727
O  52.995  51.885  36.023
O  25.238  57.635  53.665
O  34.706  53.468  32.709
O  66.795  61.564  49.294
O  56.746  69.890  55.191
O  44.901  58.674  56.720
O  46.480  66.079  72.584
O  47.826  32.281  56.540
O  42.184  36.422  58.577
O  55.332  72.735  54.537
O  46.357  42.234  30.508
O  39.270  52.796  54.954
O  55.409  65.039  64.313
O  63.366  51.236  66.728
O  52.746  53.854  40.826
O  36.220  54.336  44.499
O  34.519  47.379  36.022
O  38.638  57.803  73.307
O  28.257  61.046  63.869
O  26.278  52.761  46.298
O  72.445  43.435  37.677
O  46.310  44.729  70.955
O  58.627  67.725  35.446
O  71.529  61.251  55.328
O  61.772  55.271  41.811
O  60.682  46.751  40.166
O  29.432  46.997  46.167
O  47.355  66.071  42.218
O  64.915  55.375  45.220
O  36.809  59.238  51.550
O  38.891  32.704  44.725
O  63.126  35.911  47.202
O  72.381  37.702  42.142
O  52.174  32.229  35.430
O  27.732  33.404  44.042
O  49.901  47.449  61.428
O  30.464  37.707  43.458
O  62.311  24.277  50.769
O  37.112  71.084  63.458
O  39.385  61.456  41.618
O  51.947  69.645  51.364
O  49.833  42.651  76.231
O  37.795  56.916  68.716
O  44.349  36.105  68.680
O  21.587  46.982  50.966
O  43.726  40.295  73.441
O  51.300  72.155  54.512
O  49.487  60.725  57.636
O  29.056  50.099  48.301
O  59.843  34.156  65.783
O  53.610  45.969  67.734
O  34.226  53.048  67.073
O  60.451  66.866  37.940
O  71.142  45.395  40.099
O  48.476  36.670  72.227
O  26.433  66.252  46.821
O  72.830  56.738  40.633
O  74.601  43.668  57.477
O  35.883  42.475  57.497
O  67.756  53.549  41.162
O  38.299  49.060  43.273
O  34.899  39.663  40.293
O  51.380  72.182  50.414
O  44.948  32.805  54.837
O  55.918  63.600  68.941
O  70.349  66.239  44.276
O  50.084  43.031  68.702
O  35.173  26.658  52.418
O  62.641  26.554  40.587
O  41.306  64.517  42.546
O  66.808  66.906  63.802
O  25.620  54.779  53.721
O  49.858  73.682  56.608
O  38.800  57.817  54.680
O  24.731  39.986  47.219
O  62.350  48.168  23.575
O  65.248  50.642  57.523
O  71.837  50.393  46.677
O  38.545  51.665  32.082
O  67.098  38.578  41.003
O  24.224  48.066  61.599
O  65.187  44.190  70.110
O  66.881  42.713  35.110
O  35.009  57.837  39.702
O  39.033  64.832  44.212
O  38.877  41.682  60.806
O  30.851  53.444  63.137
O  50.125  50.690  28.565
O  48.194  37.653  66.187
O  55.906  39.137  66.756
O  42.122  46.766  68.332
O  49.196  68.683  64.559
O  43.105  71.659  49.553
O  58.204  30.440  66.143
O  36.085  44.857  69.181
O  32.433  61.124  63.999
O  52.093  39.129  54.553
O  35.547  46.045  28.905
O  42.694  72.444  36.314
O  56.152  49.350  25.055
O  25.507  52.479  35.675
O  73.612  52.720  59.773
O  61.079  51.135  23.948
O  61.963  42.285  47.840
O  30.413  61.911  51.999
O  49.737  57.580  28.252
O  70.369  55.008  62.349
O  65.824  73.825  52.639
O  72.014  35.249  40.447
O  67.615  68.447  48.781
O  48.212  70.590  66.074
O  45.454  31.461  34.938
O  61.164  41.703  27.008
O  33.019  49.472  62.233
O  42.363  52.164  52.910
O  48.174  32.129  52.375
O  36.326  54.675  47.340
O  59.903  35.814  57.635
O  30.048  38.436  57.649
O  36.757  39.501  71.223
O  37.515  54.255  37.009
O  66.686  60.781  65.778
O  45.950  31.842  71.202
O  70.152  34.261  42.771
O  49.620  40.145  75.268
O  31.019  56.237  50.566
O  72.415  50.266  55.155
O  63.526  35.683  55.786
O  39.841  74.082  37.261
O  29.208  36.055  59.061
O  66.228  63.962  51.076
O  32.746  57.270  53.021
O  49.036  73.170  64.760
O  30.543  34.192  60.555
O  49.577  54.825  65.018
O  58.438  35.746  61.326
O  48.232  52.036  62.261
O  58.574  58.907  64.512
O  30.388  40.969  61.835
O  50.563  48.161  30.180
O  57.890  65.367  45.351
O  66.080  48.511  72.765
O  60.698  44.368  52.994
O  69.531  53.200  34.686
O  32.123  48.008  51.904
O  73.555  42.054  35.249
O  28.377  43.701  42.548
O  37.884  65.170  59.202
O  41.106  35.946  27.304
O  43.709  42.800  24.667
O  64.395  47.412  55.245
O  62.766  48.784  45.063
O  63.492  72.803  53.566
O  31.590  58.930  57.643
O  63.283  72.471  40.408
O  48.732  49.143  33.290
O  64.781  58.237  53.809
O  65.991  49.757  67.607
O  43.204  47.306  32.827
O  61.467  52.174  61.793
O  34.938  50.573  70.436
O  39.972  48.655  69.782
O  32.387  68.635  39.279
O  44.916  72.777  57.867
O  62.557  40.826  36.340
O  40.011  33.324  31.153
O  41.758  48.346  38.339
O  56.496  49.432  27.771
O  60.792  53.330  37.417
O  48.337  61.201  49.552
O  61.906  44.335  42.760
O  50.463  38.900  25.123
O  41.883  58.445  41.461
O  41.952  22.689  53.110
O  42.688  59.649  35.813
O  56.984  50.180  36.137
O  41.622  65.678  63.647
O  38.981  49.212  31.062
O  60.771  62.222  43.115
O  53.371  69.924  37.032
O  65.141  41.787  68.009
O  64.939  34.109  61.289
O  68.611  43.221  45.233
O  76.019  44.367  41.216
O  33.263  39.577  61.973
O  47.897  71.130  38.625
O  32.120  36.609  50.626
O  33.570  66.395  38.041
O  50.939  74.859  47.615
O  51.350  55.216  22.357
O  26.603  45.554  65.171
O  40.541  57.908  34.627
O  58.065  26.218  47.403
O  45.808  37.455  39.144
O  36.100  33.157  55.036
O  44.720  28.178  32.966
O  49.061  33.640  65.708
O  39.016  44.691  60.105
O  26.100  49.658  47.539
O  50.985  43.996  30.811
O  58.871  71.574  43.699
O  58.791  39.345  28.372
O  48.318  57.748  41.287
O  66.639  40.997  53.718
O  52.899  46.600  30.620
O  73.097  61.596  53.125
O  55.113  36.419  65.747
O  63.411  43.042  52.024
O  60.772  37.584  28.682
O  31.114  55.628  32.807
O  52.685  54.508  75.664
O  60.045  62.635  61.589
O  65.866  33.247  34.016
O  28.601  68.730  48.966
O  63.975  58.189  47.041
O  60.262  52.970  65.842
O  48.872  35.466  25.346
O  39.590  33.360  36.558
O  62.703  65.298  51.517
O  35.368  59.650  30.343
O  47.466  59.023  58.472
O  43.919  43.115  29.846
O  35.564  33.795  37.834
O  59.889  38.964  37.550
O  49.321  47.551  66.591
O  34.217  44.231  44.535
O  26.507  61.740  42.959
O  51.305  41.599  32.370
O  48.581  62.240  64.476
O  45.168  43.981  65.205
O  23.895  44.797  57.164
O  73.346  44.329  45.540
O  49.922  59.279  45.633
O  62.498  48.407  29.985
O  23.335  43.259  47.331
O  62.084  69.946  63.835
O  62.285  54.647  66.163
O  34.088  59.364  60.362
O  38.799  35.397  29.884
O  33.523  48.162  27.196
O  35.355  30.855  37.756
O  60.212  34.790  37.767
O  60.967  35.761  60.559
O  73.059  37.194  50.184
O  41.637  60.577  49.178
O  56.857  36.090  48.943
O  44.539  46.983  25.624
O  56.141  35.379  26.403
O  53.942  23.343  57.433
O  64.879  69.838  64.778
O  43.838  63.434  56.464
O  53.909  39.956  56.848
O  64.894  46.141  59.421
O  44.404  25.041  56.698
O  36.001  60.775  40.523
O  65.712  65.345  37.674
O  22.233  54.756  50.730
O  58.784  30.982  30.112
O  34.297  42.158  49.640
O  56.819  40.432  57.176
O  72.111  45.863  32.968
O  68.844  48.509  43.364
O  31.682  57.897  45.012
O  69.086  30.324  53.442
O  59.833  53.273  25.458
O  72.808  54.385  43.424
O  53.546  32.636  66.607
O  40.308  57.322  52.314
O  63.228  35.323  62.706
O  68.178  54.175  68.068
O  39.725  58.215  59.909
O  33.367  31.840  55.189
O  47.133  66.206  68.354
O  67.767  55.642  63.923
O  34.481  47.681  70.207
O  26.395  47.389  41.743
O  31.119  37.007  45.838
O  40.562  35.814  40.105
O  64.495  60.084  55.840
O  40.113  63.764  72.459
O  52.008  29.429  37.663
O  55.287  44.433  65.197
O  52.234  68.456  63.717
O  58.399  55.313  26.621
O  27.569  36.297  62.017
O  36.552  61.971  37.799
O  76.831  53.447  55.687
O  43.059  30.675  47.015
O  64.129  32.075  40.280
O  37.457  62.499  54.236
O  42.715  32.423  35.283
O  42.101  55.816  36.829
O  42.227  56.918  66.617
O  48.409  64.390  44.380
O  40.513  39.493  52.631
O  72.851  42.125  43.974
O  40.677  37.374  44.443
O  32.722  29.747  44.665
O  42.594  54.411  26.739
O  49.187  72.299  44.480
O  26.013  55.807  44.837
O  43.191  41.341  37.392
O  30.062  48.310  36.419
O  34.142  44.344  67.332
O  64.624  61.778  70.086
O  67.316  67.897  43.064
O  49.962  44.713  61.800
O  61.865  41.065  50.492
O  75.523  50.383  51.010
O  37.937  61.822  61.661
O  40.839  39.634  75.401
O  44.263  58.363  59.283
O  33.538  43.444  58.860
O  68.086  46.520  41.095
O  68.668  31.671  61.150
O  26.209  53.077  41.276
O  27.800  47.712  57.114
O  32.411  27.296  46.207
O  59.543  40.274  31.421
O  64.740  38.524  65.059
O  54.555  42.969  54.593
O  31.144  64.239  47.640
O  56.876  48.946  42.181
O  57.695  74.638  46.122
O  60.879  28.275  39.256
O  51.908  37.267  49.553
O  58.934  55.412  72.563
O  31.477  64.094  41.057
O  43.095  37.853  56.667
O  32.359  49.036  47.854
O  60.146  62.022  50.969
O  57.427  56.572  31.743
O  56.079  28.364  65.534
O  29.558  61.848  41.330
O  64.075  67.495  37.377
O  57.544  43.662  24.217
O  46.217  32.170  32.088
O  54.836  57.740  22.774
O  44.133  38.753  51.168
O  59.067  44.767  38.916
O  54.061  71.600  50.653
O  37.685  56.076  34.992
O  56.965  57.802  29.182
O  30.854  46.679  43.863
O  42.649  49.855  25.533
O  51.167  32.515  64.378
O  57.416  62.025  36.612
O  31.983  63.740  37.889
O  32.489  63.860  59.563
O  43.831  47.773  77.610
O  42.109  30.735  41.026
O  59.935  38.351  63.724
O  24.026  45.733  51.615
O  34.296  33.317  45.395
O  39.792  26.903  36.232
O  56.711  40.352  54.069
O  72.892  63.763  50.129
O  61.380  48.513  54.485
O  54.564  33.229  33.207
O  33.180  41.774  38.644
O  33.427  55.416  41.148
O  52.942  62.051  61.352
O  67.838  41.235  56.268
O  39.459  30.348  53.398
O  32.746  37.201  31.430
O  74.773  49.087  53.812
O  34.235  62.388  41.797
O  62.801  41.805  29.073
O  41.304  40.776  71.666
O  66.638  29.224  60.868
O  38.146  68.190  61.817
O  58.937  56.688  62.762
O  53.311  47.429  37.318
O  38.969  54.793  24.820
O  50.590  34.003  44.982
O  60.216  50.014  73.376
O  63.257  31.306  35.013
O  36.026  57.460  36.979
O  53.225  59.892  59.477
O  64.825  49.972  29.644
O  59.127  47.283  47.053
O  53.984  51.228  67.617
O  59.152  30.896  58.534
O  67.563  48.199  61.607
O  69.598  55.079  48.498
O  64.723  57.480  61.839
O  54.977  36.871  43.800
O  66.516  55.956  66.440
O  65.502  60.761  29.858
O  60.807  29.125  65.265
O  35.083  65.318  59.570
O  52.006  47.154  70.213
O  37.899  65.515  53.586
O  39.509  54.001  73.328
O  31.529  60.967  48.224
O  47.015  71.572  52.844
O  64.902  53.165  50.289
O  53.846  40.873  61.440
O  54.865  36.817  40.675
O  26.166  49.572  54.410
O  33.764  58.749  51.077
O  29.898  67.125  50.961
O  39.050  36.156  48.238
O  61.088  72.473  45.545
O  65.355  57.478  37.156
O  27.892  52.802  62.459
O  64.964  28.529  42.261
O  61.688  25.520  43.283
O  68.821  63.965  46.110
O  38.257  51.415  41.641
O  51.544  31.574  43.415
O  33.853  43.834  40.451
O  51.366  53.236  38.393
O  35.122  64.872  33.948
O  60.763  57.599  74.154
O  27.893  47.219  48.877
O  66.714  56.910  69.111
O  31.341  56.654  39.729
O  33.393  34.158  51.946
O  37.677  56.594  51.374
O  66.651  36.762  53.946
O  38.641  38.716  31.971
O  63.159  39.043  60.287
O  40.811  39.694  41.376
O  35.732  46.741  65.316
O  22.938  50.980  40.799
O  76.864  56.442  40.915
O  51.713  51.743  61.358
O  64.551  66.761  62.334
O  27.852  46.014  34.720
O  60.548  62.205  39.977
O  72.526  61.681  39.066
O  40.528  41.976  36.323
O  60.527  65.631  33.928
O  50.896  75.301  51.752
O  37.252  55.260  57.409
O  52.488  69.988  46.115
O  61.731  37.888  31.466
O  48.067  32.379  43.979
O  54.365  60.425  35.239
O  72.524  65.876  47.227
O  48.520  54.301  21.512
O  41.048  52.208  24.199
O  68.031  44.299  47.940
O  49.611  51.548  31.003
O  52.554  57.796  36.170
O  48.967  70.122  54.197
O  72.150  43.278  47.931
O  39.127  48.282  37.376
O  36.572  49.234  45.425
O  23.538  49.491  51.854
O  76.749  42.198  55.025
O  62.499  70.184  61.077
O  31.962  45.867  66.667
O  45.550  60.880  25.842
O  52.271  55.040  30.805
O  50.553  68.763  31.061
O  52.350  42.908  57.870
O  38.252  41.155  38.314
O  41.750  54.887  23.827
O  61.271  48.685  42.225
O  48.385  69.603  42.967
O  44.820  58.505  52.347
O  53.553  27.814  66.819
O  74.624  43.406  39.226
O  54.157  48.663  68.980
O  39.399  69.157  57.842
O  66.429  63.178  39.302
O  67.858  62.586  60.464
O  50.726  51.373  33.613
O  41.109  62.597  28.070
O  60.159  56.603  24.085
O  59.465  28.024  49.386
O  46.963  68.456  71.168
O  52.404  69.706  54.195
O  69.381  35.736  46.309
O  70.562  57.468  55.685
O  29.675  37.972  66.531
O  57.072  48.463  58.285
O  38.352  53.829  49.564
O  27.177  44.547  37.407
O  63.075  39.197  67.395
O  67.285  39.370  51.664
O  74.760  51.258  38.187
O  48.500  65.524  39.430
O  57.771  71.855  53.617
O  56.492  64.748  29.967
O  36.818  65.549  47.709
O  54.730  42.109  30.969
O  51.678  56.622  26.061
O  52.022  68.959  56.777
O  48.589  30.874  65.534
O  63.064  34.700  68.006
O  26.987  40.781  39.277
O  43.952  57.904  28.803
O  45.635  42.625  42.679
O  50.321  59.890  67.488
O  64.110  38.470  41.013
O  41.733  42.095  31.517
O  58.339  33.932  47.165
O  41.501  73.931  47.540
O  69.139  67.115  54.636
O  41.711  28.109  60.441
O  61.847  62.575  66.420
O  34.335  62.680  30.653
O  37.319  42.916  62.618
O  44.257  33.119  61.048
O  29.295  50.572  63.175
O  58.538  42.483  58.404
O  43.328  56.272  56.472
O  76.723  51.442  53.311
O  63.122  46.203  57.420
O  76.527  46.916  39.079
O  47.845  41.443  60.199
O  67.898  53.316  65.063
O  44.386  32.909  41.820
O  50.274  49.927  63.497
O  53.995  59.377  38.104
O  67.135  54.682  49.987
O  59.790  53.632  34.370
O  65.324  33.248  64.072
O  29.190  46.303  59.335
O  29.118  41.821  45.212
O  54.193  62.171  70.617
O  44.445  55.978  26.224
O  50.045  37.328  52.115
O  39.943  58.097  64.957
O  47.505  29.112  36.049
O  27.417  65.575  43.313
O  56.880  41.861  65.716
O  44.627  35.973  59.959
O  59.073  49.228  28.548
O  72.804  63.289  60.174
O  52.835  26.744  38.384
O  46.998  68.298  56.350
O  49.194  62.624  32.223
O  49.863  22.859  44.167
O  68.512  54.948  57.926
O  33.106  53.554  30.430
O  58.781  43.754  65.631
O  58.808  58.508  49.827
O  42.440  49.302  29.207
O  66.092  31.128  58.560
O  29.565  54.083  35.913
O  38.337  64.382  41.184
O  65.663  43.000  56.520
O  29.165  63.980  62.084
O  51.596  36.541  25.173
O  39.587  55.650  66.502
O  69.268  52.759  30.619
O  69.794  68.958  50.673
O  35.993  56.230  49.440
O  63.939  49.930  47.387
O  66.999  32.610  50.231
O  43.895  39.979  66.791
O  31.446  58.819  68.191
O  24.506  52.015  48.739
O  70.686  36.541  56.849
O  58.198  31.682  54.411
O  47.284  58.002  55.284
O  60.920  53.556  55.655
O  42.333  35.926  66.709
O  35.528  55.245  38.654
O  62.489  46.235  75.623
O  61.177  47.524  73.497
O  57.658  52.150  44.175
O  32.868  56.072  64.964
O  40.278  51.439  38.588
O  53.340  54.050  26.632
O  44.914  66.061  46.905
O  41.217  58.411  57.271
O  59.865  56.135  35.713
O  64.463  40.223  49.978
O  53.985  55.867  28.730
O  53.270  41.554  42.419
O  32.921  47.750  64.766
O  61.147  56.245  56.295
O  49.372  22.612  57.504
O  38.597  67.998  49.463
O  30.073  65.123  56.319
O  37.651  35.009  45.051
O  25.860  36.932  45.879
O  34.667  40.863  31.826
O  58.839  34.007  59.191
O  66.549  33.633  46.839
O  57.181  73.089  39.941
O  40.909  58.153  37.328
O  65.107  70.403  40.875
O  69.614  35.638  51.154
O  53.063  33.306  57.458
O  32.053  54.290  38.437
O  27.474  60.463  52.068
O  65.624  45.435  33.742
O  58.446  59.582  44.400
O  64.788  53.063  27.791
O  29.233  64.529  38.408
O  30.022  69.940  51.459
O  60.834  45.429  32.718
O  70.026  53.990  39.198
O  37.435  52.353  61.779
O  66.981  36.461  56.593
O  56.515  50.936  47.657
O  30.947  61.571  59.466
O  51.683  39.401  40.456
O  28.382  61.121  57.206
O  55.391  31.862  28.951
O  35.848  71.395  53.042
O  71.076  57.433  38.370
O  37.685  29.771  49.105
O  29.137  66.972  46.948
O  31.018  56.557  35.923
O  56.024  26.135  34.781
O  37.581  35.134  53.284
O  74.160  57.378  47.338
O  33.392  38.244  65.696
O  25.900  51.546  60.252
O  31.289  32.151  62.791
O  42.170  72.225  60.493
O  42.694  60.051  70.622
O  51.560  53.070  64.497
O  33.173  54.742  52.115
O  71.224  52.682  41.626
O  45.843  68.648  37.560
O  64.560  46.602  31.195
O  61.364  38.330  50.077
O  71.581  61.331  50.881
O  61.210  51.671  68.487
O  51.247  34.954  30.212
O  63.264  44.004  55.242
O  48.620  35.763  42.733
O  48.499  53.657  29.796
O  59.968  73.234  51.113
O  56.509  69.792  40.745
O  49.540  73.868  38.616
O  70.712  55.452  36.049
O  55.972  60.950  59.616
O  63.956  33.969  52.881
O  22.765  56.718  48.427
O  62.574  34.997  50.501
O  64.461  40.603  56.949
O  34.232  51.014  31.670
O  40.784  66.697  71.977
O  40.555  31.477  37.987
O  57.031  35.205  44.644
O  28.414  47.801  54.331
O  39.992  74.583  58.262
O  55.116  34.898  29.923
O  55.814  70.288  65.065
O  63.045  33.801  59.239
O  32.050  67.935  42.197
O  61.460  37.626  42.091
O  40.384  51.408  71.945
O  26.023  42.439  46.631
O  43.516  61.041  51.648
O  29.804  55.478  45.229
O  69.776  42.825  38.170
O  54.929  63.018  55.723
O  35.635  57.942  53.796
O  59.465  40.695  46.272
O  53.879  28.641  31.781
O  63.344  41.681  60.543
O  52.536  41.358  68.673
O  50.894  34.014  72.391
O  60.071  23.928  48.144
O  31.900  50.650  27.148
O  57.735  42.528  60.994
O  52.342  57.693  67.039
O  63.532  35.733  41.400
O  53.689  67.175  57.823
O  66.521  46.770  53.056
O  65.155  66.430  49.054
O  49.808  39.591  27.699
O  54.791  45.793  24.853
O  52.600  38.607  42.863
O  61.336  61.062  48.902
O  42.486  50.872  59.710
O  26.963  38.700  48.066
O  36.642  35.125  41.321
O  48.291  33.634  39.170
O  51.673  73.648  45.212
O  63.916  44.725  67.335
O  54.160  53.873  68.281
O  67.273  52.216  56.807
O  50.611  50.093  67.531
O  33.818  47.000  50.138
O  63.863  53.758  63.511
O  49.510  26.899  54.895
O  69.029  66.842  60.958
O  67.672  54.656  44.777
O  44.488  26.748  50.459
O  75.455  54.265  52.947
O  33.920  40.030  52.466
O  66.754  56.263  52.300
O  61.193  65.904  69.557
O  35.782  57.530  58.071
O  43.324  50.769  22.804
O  59.804  73.241  57.063
O  21.503  51.645  50.909
O  34.351  56.513  67.547
O  64.417  37.441  50.316
O  56.308  57.111  69.328
O  36.438  37.281  51.760
O  54.477  39.215  31.690
O  65.091  69.461  61.271
O  59.050  40.624  51.321
O  51.181  36.003  47.399
O  61.090  28.771  58.276
O  54.661  68.462  53.310
O  55.995  41.799  43.392
O  65.885  67.118  66.399
O  51.861  73.741  65.712
O  37.744  63.140  34.936
O  54.988  47.142  72.116
O  50.093  42.563  59.683
O  33.199  62.484  33.954
O  73.133  46.381  52.610
O  51.844  60.535  53.560
O  60.780  56.132  50.464
O  29.671  31.050  45.251
O  62.299  67.803  34.703
O  31.110  40.893  53.863
O  46.157  39.868  71.601
O  66.398  36.332  41.838
O  64.419  33.097  44.961
O  38.085  46.403  67.642
O  39.139  25.228  59.753
O  61.510  58.950  52.969
O  34.725  44.597  74.067
O  67.516  62.066  54.251
O  50.222  66.038  51.536
O  70.336  45.986  45.687
O  35.117  61.669  44.855
O  53.102  45.207  60.170
O  25.001  40.295  50.090
O  49.768  62.614  52.666
O  37.876  52.095  65.190
O  59.433  69.119  56.233
O  49.184  66.782  45.405
O  49.590  35.793  54.767
O  60.038  33.801  49.629
O  42.188  76.499  53.388
O  62.802  39.386  43.649
O  35.622  41.962  34.273
O  33.715  35.953  46.438
O  36.994  39.986  58.734
O  42.107  39.738  68.949
O  37.454  43.292  66.993
O  46.865  55.430  75.466
O  37.573  27.473  60.695
O  60.303  44.127  55.851
O  37.449  38.651  40.396
O  61.222  67.587  51.948
O  57.587  36.424  37.957
O  62.554  43.558  45.695
O  71.627  50.955  33.002
O  44.328  70.574  43.779
O  59.497  50.393  70.403
O  64.419  37.000  30.122
O  71.502  62.202  41.926
O  60.906  51.763  30.828
O  51.046  78.742  49.584
O  69.487  52.424  62.705
O  50.265  41.210  55.962
O  34.378  58.448  71.513
O  74.173  38.159  56.368
O  46.637  58.344  29.837
O  71.523  51.420  66.281
O  60.498  58.544  38.268
O  42.791  48.353  61.147
O  46.316  56.627  38.379
O  46.700  56.705  53.052
O  60.465  63.934  54.443
O  52.394  72.096  38.902
O  50.061  56.911  30.953
O  36.356  56.609  71.740
O  34.186  56.318  60.150
O  59.361  71.349  65.525
O  57.710  36.517  73.311
O  74.005  51.196  42.755
O  64.922  49.695  53.899
O  27.622  49.385  59.359
O  56.376  38.041  36.050
O  31.777  43.063  66.379
O  34.651  65.166  40.829
O  29.948  38.180  61.616
O  51.438  31.821  54.200
O  54.034  46.571  63.445
O  66.778  29.554  45.858
O  63.305  58.946  73.800
O  46.817  45.548  28.986
O  49.493  56.747  75.821
O  38.386  30.510  43.352
O  55.561  72.949  65.924
O  51.120  38.865  68.797
O  31.042  45.154  32.880
O  47.830  65.798  56.238
O  43.193  50.307  77.251
O  68.184  49.806  58.471
O  56.190  37.372  33.070
O  35.024  40.677  27.172
O  31.382  56.810  55.342
O  36.884  46.885  40.356
O  69.434  69.279  56.239
O  46.282  62.072  52.269
O  22.494  41.748  49.812
O  56.396  46.927  69.624
O  42.102  60.475  65.869
O  36.706  48.052  52.997
O  74.944  40.254  46.807
O  59.383  69.437  67.829
O  35.066  38.725  54.785
O  39.830  62.304  30.543
O  60.533  36.301  48.219
O  59.194  58.204  54.390
O  38.089  46.527  70.643
O  39.277  44.502  24.677
O  35.621  37.624  31.369
O  29.938  65.767  58.896
O  52.189  32.403  40.777
O  59.500  41.334  39.267
O  35.441  68.511  39.461
O  56.170  25.281  49.744
O  66.134  34.590  58.738
O  41.483  43.134  61.232
O  64.097  40.441  62.928
O  48.632  41.729  31.987
O  68.761  50.900  60.727
O  71.102  62.673  47.871
O  54.766  42.087  33.682
O  35.919  54.261  65.157
O  38.964  39.187  43.935
O  45.985  62.363  31.883
O  39.665  75.935  52.025
O  51.977  57.797  23.025
O  44.914  48.914  63.756
O  66.644  69.037  37.257
O  65.675  31.980  38.112
O  69.391  46.290  62.533
O  47.179  76.477  57.207
O  41.938  57.274  24.927
O  65.220  35.611  65.987
O  52.797  61.289  56.234
O  36.926  68.750  52.494
O  56.867  42.009  39.896
O  54.101  33.911  72.719
O  66.655  59.616  41.919
O  38.798  44.230  49.997
O  28.892  59.869  43.188
O  53.516  73.709  48.398
O  42.413  50.368  70.001
O  58.124  35.697  32.353
O  44.563  64.361  66.265
O  63.734  62.009  31.579
O  47.805  41.013  40.670
O  34.256  37.956  34.737
O  55.203  71.363  38.690
O  43.027  65.199  49.224
O  38.022  51.245  74.528
O  62.283  48.067  59.733
O  53.162  39.530  63.700
O  48.039  70.468  60.382
O  28.125  55.369  50.915
O  44.930  56.278  61.803
O  68.851  34.049  48.646
O  35.865  64.398  45.036
O  32.940  62.070  56.392
O  62.716  54.200  30.202
O  40.394  74.803  44.968
O  46.772  58.101  61.676
O  44.276  43.889  38.039
O  34.736  30.928  46.662
O  45.139  47.783  56.943
O  37.978  47.796  64.225
O  37.206  64.522  38.655
O  42.810  64.626  36.318
O  60.849  62.638  33.170
O  50.070  40.247  63.769
O  43.008  37.559  28.504
O  42.028  31.820  54.565
O  55.953  51.779  62.892
O  34.236  68.706  36.340
O  54.866  64.151  51.686
O  39.606  47.591  53.543
O  46.969  33.259  29.376
O  49.061  40.428  70.287
O  45.985  73.915  35.662
O  32.911  41.431  41.601
O  40.744  58.270  30.012
O  35.898  47.206  25.506
O  39.540  49.987  65.243
O  24.643  54.296  59.612
O  23.231  55.768  53.205
O  65.641  68.890  46.675
O  56.908  44.266  41.909
O  57.387  27.757  62.773
O  60.263  29.619  62.722
O  55.441  54.605  74.307
O  66.844  52.808  60.359
O  26.586  46.493  62.434
O  55.371  59.607  76.452
O  49.237  58.271  22.986
O  38.605  59.165  62.180
O  54.406  47.973  22.787
O  37.337  44.927  75.229
O  76.227  51.713  44.272
O  64.072  62.909  52.885
O  46.875  40.714  67.778
O  53.451  40.135  50.395
O  70.743  64.885  59.594
O  71.091  53.392  67.982
O  35.434  43.644  64.827
O  23.909  55.826  43.284
O  56.031  32.093  65.154
O  35.571  47.762  62.088
O  36.999  46.547  37.912
O  58.626  43.381  27.020
O  40.204  33.965  65.687
O  60.415  65.262  60.919
O  46.789  74.672  59.640
O  42.689  71.318  65.543
O  43.589  36.963  49.091
O  35.057  44.173  37.187
O  44.116  39.877  42.674
O  36.360  55.074  62.734
O  39.425  60.860  37.428
O  58.003  63.259  32.041
O  45.528  62.404  38.436
O  26.225  41.939  41.769
O  57.805  68.065  65.167
O  53.589  28.666  59.869
O  59.900  48.882  44.878
O  63.389  58.960  38.374
O  42.768  53.636  60.974
O  42.645  37.755  74.251
O  43.497  59.299  68.085
O  53.919  64.026  67.021
O  29.530  42.650  50.760
O  41.158  31.738  43.396
O  69.369  49.302  48.570
O  67.652  55.350  60.979
O  71.441  55.235  56.730
O  39.796  71.582  35.495
O  67.316  60.796  62.261
O  48.052  55.517  32.251
O  50.485  36.922  63.245
O  63.032  46.748  33.963
O  56.134  60.035  51.815
O  70.304  31.836  55.863
O  42.358  63.765  45.497
O  38.156  30.214  56.055
O  35.778  27.225  42.426
O  58.657  28.172  54.992
O  26.050  42.275  60.600
O  32.356  46.433  56.826
O  49.614  59.547  55.012
O  44.904  22.975  50.571
O  44.724  46.107  30.782
O  49.479  51.821  65.229
O  51.164  56.563  78.025
O  69.431  66.254  41.747
O  35.915  45.198  42.117
O  43.941  41.402  56.495
O  41.734  43.371  74.899
O  43.967  43.025  35.274
O  65.874  48.943  59.664
O  72.790  38.480  47.598
O  31.376  50.823  64.766
O  35.584  36.742  66.690
O  60.403  65.599  47.483
O  60.557  37.815  59.059
O  68.190  47.970  65.026
O  45.218  58.195  23.099
O  42.703  51.262  63.381
O  68.197  29.998  50.691
O  38.814  32.546  60.701
O  70.116  36.011  35.977
O  56.768  65.110  66.994
O  43.766  34.608  44.333
O  62.884  72.093  47.623
O  38.480  75.728  55.106
O  46.294  56.426  72.816
O  40.351  66.137  48.561
O  56.490  62.498  64.793
O  31.870  43.130  45.664
O  54.942  37.666  73.873
O  59.695  44.099  41.597
O  33.867  48.474  59.318
O  58.142  63.126  56.488
O  43.578  33.717  50.248
O  64.510  56.294  64.659
O  62.983  52.378  57.360
O  76.804  39.836  51.249
O  66.163  29.578  53.825
O  50.837  58.233  40.029
O  44.988  61.776  71.323
O  35.696  45.223  62.194
O  44.432  51.131  66.710
O  43.328  45.814  66.099
O  50.248  24.629  39.612
O  32.778  32.750  39.095
O  40.461  29.038  66.526
O  68.485  39.148  65.898
O  66.498  42.469  49.839
O  39.183  72.220  45.698
O  50.239  54.777  33.536
O  44.228  38.175  37.067
O  31.612  47.905  54.521
O  33.535  64.484  46.542
N  47.857  49.282  48.268
N  54.343  50.620  53.964
N  50.018  52.303  56.039
N  47.251  45.069  48.825
N  51.705  52.422  51.109
N  52.863  49.999  49.198
N  48.474  51.547  53.974
N  47.272  47.441  45.688
N  47.603  49.293  51.533
N  52.347  53.890  53.978
N  51.671  48.281  46.381
N  50.494  46.245  45.071
C  51.333  52.400  55.586
C  53.332  49.133  51.435
C  48.212  50.488  51.834
C  52.696  45.362  44.729
C  47.157  49.513  47.010
C  50.757  46.384  43.614
C  47.555  51.342  52.875
C  51.350  54.812  49.203
C  48.170  44.702  49.930
C  48.015  46.499  44.873
C  47.336  48.500  49.278
C  53.048  54.115  56.371
C  47.106  50.995  46.623
C  52.544  50.154  50.611
C  46.207  52.406  51.025
C  51.830  53.800  51.556
C  52.251  46.050  43.424
C  46.483  42.475  46.769
C  44.926  50.851  45.330
C  51.047  54.819  50.715
C  52.130  50.694  45.940
C  54.300  53.287  56.267
C  52.329  49.482  46.860
C  56.522  52.962  55.392
C  46.262  53.447  53.322
C  47.165  45.321  44.364
C  55.338  53.678  55.429
C  52.303  47.067  46.504
C  46.385  51.291  45.295
C  52.893  48.974  52.911
C  54.464  52.148  57.047
C  51.716  45.872  45.810
C  48.566  50.620  54.984
C  48.992  45.932  50.293
C  44.611  43.958  46.809
C  51.884  49.776  48.260
C  49.298  53.361  56.800
C  51.386  53.871  52.994
C  49.239  46.055  45.642
C  45.254  44.795  45.913
C  50.401  53.876  48.461
C  56.682  51.842  56.187
C  48.150  48.371  50.547
C  49.373  50.981  56.200
C  48.168  46.951  51.115
C  52.801  51.592  51.005
C  48.432  51.144  57.412
C  52.888  51.904  46.485
C  47.128  43.309  45.872
C  52.553  50.365  44.514
C  47.818  48.681  45.944
C  45.225  42.797  47.241
C  54.061  49.167  53.871
C  47.043  52.661  52.279
C  46.515  44.473  45.422
C  46.486  52.770  44.933
C  48.113  52.649  57.482
C  55.649  51.436  57.010
C  51.934  53.774  55.364
C  51.303  56.225  48.612
H  45.676  74.932  44.733
H  60.566  24.383  44.581
H  43.174  42.889  76.385
H  68.506  44.656  67.953
H  48.690  39.779  42.813
H  48.678  38.991  41.515
H  72.128  35.127  48.444
H  50.012  37.399  38.871
H  51.236  36.843  38.135
H  68.879  44.290  66.489
H  61.885  58.551  26.271
H  59.286  23.626  45.017
H  63.086  61.097  71.166
H  44.719  43.087  76.369
H  62.295  59.855  71.683
H  42.367  45.257  56.656
H  61.428  57.086  26.166
H  41.595  44.364  57.595
H  37.299  54.484  33.996
H  38.086  54.238  32.725
H  57.717  64.685  48.729
H  57.025  41.179  40.370
H  70.656  35.005  48.603
H  33.106  49.783  30.469
H  39.913  50.982  27.033
H  40.216  57.486  42.279
H  54.573  27.316  57.275
H  54.062  28.424  56.295
H  45.608  38.874  66.582
H  59.379  40.465  62.105
H  58.618  41.643  62.735
H  44.485  67.001  55.987
H  44.418  65.820  55.006
H  41.093  51.204  27.927
H  33.986  56.473  49.169
H  32.666  56.867  48.531
H  61.763  67.816  63.403
H  56.648  63.929  47.908
H  25.599  58.474  47.182
H  60.134  54.083  76.105
H  58.833  53.605  75.436
H  41.279  34.323  55.209
H  59.397  47.326  69.108
H  60.546  48.144  69.801
H  42.341  34.303  56.271
H  73.357  57.639  62.362
H  72.544  56.331  62.387
H  38.909  57.850  41.623
H  26.774  57.675  47.886
H  65.113  29.997  44.231
H  29.979  49.994  53.724
H  45.255  75.831  45.904
H  62.157  52.095  46.532
H  48.732  60.619  61.262
H  64.104  31.062  44.652
H  56.709  49.016  69.379
H  40.953  44.163  37.030
H  48.881  50.125  41.861
H  49.860  50.422  40.722
H  59.595  47.559  59.466
H  69.337  42.817  45.737
H  68.447  42.591  44.509
H  63.048  53.319  46.711
H  58.870  66.217  65.577
H  31.377  41.664  52.066
H  32.766  34.754  40.584
H  31.364  34.341  41.086
H  31.931  42.956  51.388
H  39.471  44.514  37.194
H  55.986  50.024  70.235
H  60.232  28.298  58.261
H  61.569  28.582  57.452
H  68.262  40.277  59.399
H  54.353  69.318  52.979
H  60.196  66.059  64.826
H  47.608  61.335  60.581
H  62.425  37.416  63.223
H  34.035  57.662  41.625
H  53.946  43.028  28.363
H  54.793  66.236  56.471
H  39.220  51.352  46.043
H  40.999  55.539  32.551
H  42.314  55.849  33.268
H  26.485  44.293  52.596
H  27.157  56.870  41.977
H  27.551  58.329  42.132
H  26.027  44.905  51.232
H  52.735  28.985  47.150
H  35.143  58.567  42.135
H  52.198  28.362  45.892
H  55.903  63.050  58.819
H  61.477  57.351  70.615
H  40.626  50.769  46.182
H  53.768  44.443  28.900
H  62.692  57.543  71.477
H  37.332  26.554  49.621
H  36.115  27.048  50.420
H  39.666  48.791  45.317
H  38.958  47.868  46.270
H  63.453  37.816  62.196
H  29.577  49.213  52.467
H  30.704  39.386  36.753
H  42.094  53.782  69.941
H  56.089  64.574  59.115
H  35.659  54.688  30.348
H  64.977  69.827  54.302
H  64.023  70.914  53.740
H  37.212  51.054  27.366
H  38.018  52.171  27.935
H  50.733  26.392  49.211
H  46.240  31.184  63.716
H  49.314  26.802  49.557
H  31.968  64.017  63.081
H  37.308  26.860  58.608
H  69.505  46.693  30.302
H  36.235  27.857  58.203
H  68.506  37.508  67.772
H  31.255  56.333  29.150
H  77.509  44.515  49.299
H  78.441  45.365  48.418
H  31.202  54.812  29.217
H  64.222  48.909  72.541
H  55.329  31.954  52.672
H  51.811  53.202  71.324
H  30.654  47.309  40.951
H  42.907  44.131  30.855
H  67.499  36.376  68.075
H  24.185  61.429  42.754
H  70.937  47.205  30.140
H  59.958  45.706  61.613
H  44.870  51.812  67.249
H  49.588  36.819  34.050
H  59.655  72.505  50.555
H  60.616  73.712  50.571
H  51.013  36.370  33.734
H  36.047  68.441  52.748
H  37.173  69.380  53.192
H  52.885  60.425  56.665
H  52.094  61.134  55.585
H  64.530  41.052  39.841
H  36.167  55.852  31.160
H  45.202  64.421  65.531
H  63.122  40.449  39.642
H  66.081  35.202  65.786
H  65.358  36.576  65.979
H  47.239  76.676  58.154
H  41.590  64.658  60.861
H  31.924  46.844  40.205
H  66.694  47.488  49.129
H  33.168  63.902  62.160
H  55.758  32.771  51.390
H  59.277  44.432  61.052
H  44.024  65.171  66.209
H  31.225  39.269  35.304
H  25.107  60.259  42.459
H  42.200  62.258  37.575
H  43.216  67.441  50.921
H  42.673  66.027  50.827
H  71.771  44.213  34.343
H  59.287  49.721  26.459
H  58.150  50.039  25.437
H  70.898  44.044  35.610
H  54.602  32.348  55.674
H  55.535  31.099  55.615
H  64.985  49.806  26.180
H  55.570  68.412  52.983
H  75.601  41.861  51.881
H  44.410  37.960  66.724
H  38.402  63.933  48.168
H  43.254  53.960  70.905
H  62.102  50.142  59.637
H  62.033  51.552  60.238
H  34.781  71.875  58.409
H  36.127  72.385  58.960
H  48.386  26.362  51.100
H  59.696  45.165  49.700
H  59.739  43.693  49.242
H  47.325  27.173  51.849
H  39.408  62.762  48.194
H  66.084  46.092  49.053
H  74.998  40.614  52.576
H  47.988  57.271  65.430
H  42.889  62.547  36.241
H  32.275  68.026  45.676
H  31.949  66.562  45.720
H  40.727  69.459  34.217
H  37.379  30.814  41.758
H  37.047  31.763  40.543
H  40.659  69.091  35.730
H  41.526  44.645  31.332
H  50.554  52.494  70.808
H  67.705  68.938  45.947
H  65.466  50.901  25.203
H  67.660  67.459  46.254
H  56.068  28.861  53.878
H  56.860  29.877  53.056
H  60.209  69.286  31.193
H  55.806  66.138  71.168
H  56.575  66.911  70.089
H  58.001  51.591  27.596
H  59.124  52.309  28.365
H  45.255  32.271  64.220
H  63.240  49.745  71.699
H  47.013  56.558  66.434
H  59.901  68.149  32.141
H  69.227  39.813  60.523
H  44.782  23.667  53.786
H  55.811  40.874  43.146
H  55.370  57.354  69.364
H  56.623  57.374  70.205
H  51.277  72.968  65.756
H  51.904  73.947  64.761
H  44.150  40.937  39.846
H  37.472  45.956  68.253
H  38.923  46.492  68.119
H  45.002  39.886  40.512
H  50.572  36.423  46.773
H  51.828  35.577  46.816
H  39.856  47.467  65.548
H  34.369  57.486  71.647
H  25.865  42.031  63.837
H  28.150  48.808  37.828
H  42.753  60.018  27.546
H  34.089  57.282  60.298
H  33.322  56.061  59.784
H  41.761  59.162  26.741
H  61.456  68.193  52.666
H  61.341  66.699  52.329
H  73.228  51.017  43.307
H  73.638  51.201  41.856
H  28.244  44.651  45.538
H  26.767  48.328  38.288
H  36.120  36.610  52.385
H  40.371  46.094  65.673
H  63.246  39.864  42.929
H  63.402  39.487  44.396
H  65.788  46.784  29.222
H  40.885  35.369  29.487
H  42.378  35.077  29.300
H  38.520  25.840  60.195
H  39.951  25.256  60.286
H  43.930  56.248  69.455
H  41.801  65.290  68.743
H  47.446  56.056  75.932
H  37.072  37.803  52.280
H  56.193  64.448  38.203
H  59.961  68.429  56.666
H  42.776  76.297  54.139
H  43.495  46.054  23.444
H  58.988  41.245  52.071
H  59.327  41.145  50.544
H  44.969  45.859  23.754
H  64.144  69.683  61.242
H  65.097  68.562  61.633
H  54.448  40.148  31.404
H  53.638  38.842  31.367
H  59.937  69.318  55.426
H  67.279  46.716  28.913
H  64.325  50.265  54.413
H  48.412  66.552  56.065
H  73.440  45.472  52.456
H  51.496  63.962  35.666
H  37.234  62.325  34.788
H  32.568  61.732  33.972
H  33.686  62.342  33.120
H  51.783  65.229  34.823
H  49.949  42.033  58.880
H  50.130  43.480  59.345
H  54.176  47.635  71.945
H  55.474  47.144  71.270
H  52.073  60.013  52.774
H  66.250  49.874  62.777
H  65.918  35.535  41.574
H  66.621  51.114  61.978
H  29.319  63.430  44.783
H  49.487  55.986  75.217
H  49.136  57.502  75.328
H  45.873  28.339  54.965
H  60.584  27.028  61.085
H  66.515  35.404  31.564
H  47.493  58.122  30.231
H  46.007  57.764  30.304
H  65.887  36.735  42.564
H  65.744  49.623  54.419
H  50.873  60.523  53.585
H  61.175  55.241  50.525
H  65.453  66.336  66.024
H  46.922  66.084  56.054
H  30.451  44.491  32.478
H  31.838  45.090  32.319
H  66.327  53.289  37.423
H  51.611  38.034  68.891
H  51.705  39.618  69.003
H  67.453  54.237  37.836
H  54.706  73.361  66.126
H  55.891  72.574  66.758
H  28.157  39.639  49.241
H  38.080  30.669  44.259
H  66.703  67.211  65.884
H  37.267  63.809  34.422
H  31.498  40.073  54.217
H  72.701  46.337  53.483
H  62.239  68.679  35.124
H  63.252  67.653  34.565
H  29.344  30.411  44.597
H  29.169  31.860  45.067
H  28.887  39.812  50.567
H  60.940  56.508  51.346
H  39.104  31.158  43.216
H  35.506  41.396  35.052
H  42.371  75.804  52.719
H  36.486  41.678  33.933
H  71.011  50.106  31.380
H  69.860  49.241  30.801
H  72.384  68.069  52.022
H  47.979  75.672  43.778
H  54.832  64.820  55.819
H  42.743  55.962  70.356
H  35.211  58.603  71.044
H  32.690  48.716  48.711
H  43.206  37.893  59.654
H  67.319  61.258  54.754
H  71.415  66.936  52.440
H  66.743  62.636  54.389
H  35.495  44.909  74.569
H  29.194  59.081  61.456
H  61.609  57.992  53.089
H  60.601  59.023  52.636
H  28.299  59.862  60.475
H  76.058  43.512  40.753
H  75.688  44.949  40.514
H  31.540  48.533  47.722
H  49.313  65.923  51.858
H  64.186  64.273  42.275
H  34.846  43.637  73.996
H  65.498  34.215  60.502
H  42.262  63.907  38.840
H  54.853  72.160  45.714
H  37.167  56.993  72.121
H  36.486  55.650  71.768
H  27.628  44.562  46.931
H  59.457  46.036  59.213
H  67.746  64.114  62.256
H  66.917  65.221  61.532
H  49.131  76.517  43.207
H  36.125  55.165  35.791
H  35.485  53.839  36.198
H  44.855  22.132  54.010
H  41.281  65.018  38.455
H  66.266  61.547  58.137
H  43.611  51.557  66.397
H  36.474  56.156  64.655
H  37.371  57.239  65.296
H  46.989  62.444  46.932
H  45.857  61.422  47.185
H  52.447  48.570  32.902
H  62.275  37.783  37.976
H  63.092  36.620  37.430
H  51.066  47.999  32.599
H  53.696  71.225  45.323
H  66.111  60.183  58.889
H  64.509  33.248  61.171
H  65.503  65.010  42.467
H  65.778  37.152  47.056
H  47.653  74.792  41.224
H  53.968  45.566  60.422
H  53.252  44.784  59.310
H  46.360  74.155  40.723
H  35.978  62.035  45.110
H  35.292  60.736  44.665
H  70.595  46.778  45.188
H  63.372  67.819  46.429
H  59.711  34.442  50.285
H  59.834  32.929  50.016
H  24.637  39.780  49.349
H  34.200  35.325  45.881
H  56.469  62.993  38.564
H  36.977  42.468  66.786
H  36.851  43.796  67.573
H  41.190  39.941  68.703
H  42.224  38.850  68.578
H  27.634  57.301  55.724
H  36.081  39.904  59.058
H  37.475  40.471  59.428
H  27.678  56.505  54.392
H  33.310  35.400  47.116
H  46.572  55.881  74.650
H  25.867  40.579  49.759
H  50.503  63.207  52.919
H  50.020  62.163  51.843
H  66.465  35.777  47.160
H  37.360  27.562  61.639
H  37.484  28.382  60.345
H  62.887  68.383  47.782
H  50.438  35.513  54.394
H  49.597  36.760  54.670
H  50.759  65.548  52.191
H  42.435  39.036  58.995
H  42.560  66.645  68.087
H  38.140  52.865  65.717
H  54.096  50.060  64.003
H  58.628  58.782  67.667
H  65.061  59.797  64.659
H  66.247  58.961  65.153
H  57.540  57.798  68.096
H  43.547  46.177  75.546
H  44.516  45.036  75.149
H  49.805  66.054  45.244
H  48.485  66.600  44.755
H  47.628  55.760  62.526
H  37.924  52.411  64.277
H  47.640  54.237  62.578
H  70.312  45.276  45.030
H  55.117  42.158  43.584
H  48.382  54.608  29.652
H  39.179  38.601  43.185
H  75.244  37.762  53.327
H  26.912  61.483  61.368
H  43.903  37.565  53.925
H  60.894  36.287  69.470
H  28.272  61.863  61.952
H  22.597  55.127  45.484
H  22.787  53.724  46.048
H  57.694  70.956  67.550
H  56.981  70.614  68.867
H  47.485  35.538  59.412
H  71.226  48.447  65.836
H  61.850  32.217  60.544
H  69.759  48.679  66.150
H  42.550  37.230  53.270
H  36.811  38.283  69.791
H  37.812  34.591  50.078
H  37.549  38.329  68.470
H  60.657  37.586  72.290
H  60.647  66.554  67.357
H  62.020  67.129  67.613
H  60.609  36.951  73.675
H  50.433  45.839  64.216
H  51.199  46.472  65.360
H  47.204  37.175  58.948
H  47.565  66.294  49.524
H  59.138  58.489  26.354
H  40.068  56.129  47.816
H  49.668  22.882  52.860
H  49.167  24.249  53.414
H  51.799  72.363  57.796
H  49.899  59.910  41.942
H  50.007  61.420  41.722
H  51.261  71.048  58.332
H  51.865  53.222  24.198
H  50.790  52.598  23.307
H  53.967  65.907  35.760
H  53.899  64.473  36.147
H  40.200  55.730  46.360
H  72.957  61.724  61.445
H  57.985  57.674  25.733
H  73.272  60.305  61.957
H  46.049  73.103  55.853
H  47.011  72.135  56.569
H  42.099  48.757  65.644
H  43.234  49.767  65.467
H  25.203  58.589  41.280
H  51.063  21.901  50.671
H  50.272  20.916  51.534
H  26.223  59.287  40.315
H  36.678  49.463  29.542
H  36.819  49.104  31.026
H  46.970  64.960  49.971
H  37.434  33.192  49.624
H  69.428  42.415  68.687
H  58.861  60.028  71.255
H  44.759  60.765  59.943
H  35.448  49.434  41.884
H  66.412  34.592  38.373
H  65.310  35.265  39.198
H  54.953  64.327  49.356
H  43.944  77.387  51.370
H  35.331  43.993  26.843
H  33.906  43.416  26.728
H  55.619  56.584  26.633
H  49.410  38.686  30.503
H  45.590  39.815  32.863
H  59.463  66.482  54.826
H  59.062  66.191  53.400
H  45.732  41.043  33.758
H  47.500  60.951  39.963
H  48.891  60.961  39.344
H  34.170  59.953  31.835
H  32.725  59.955  32.407
H  72.299  58.454  44.196
H  59.838  49.112  53.362
H  50.047  37.806  31.621
H  62.494  31.617  61.796
H  55.912  57.639  25.542
H  58.577  69.620  61.168
H  29.637  42.583  53.613
H  30.092  43.217  54.936
H  42.549  77.970  51.148
H  58.913  64.098  28.863
H  45.173  59.803  61.063
H  32.225  51.458  52.650
H  32.874  52.837  52.486
H  41.581  43.601  39.046
H  70.273  33.629  52.911
H  68.766  33.710  52.731
H  70.046  43.433  69.645
H  41.504  42.950  40.431
H  65.802  61.163  42.388
H  57.856  64.974  55.949
H  56.957  66.123  55.510
H  40.058  33.358  48.469
H  54.605  65.535  50.193
H  39.412  33.039  49.826
H  58.868  64.180  30.404
H  45.651  62.603  43.779
H  46.267  61.784  44.880
H  57.478  68.568  60.989
H  66.224  62.511  42.973
H  69.972  38.623  62.677
H  32.969  50.430  62.365
H  53.454  37.278  65.293
H  39.251  57.654  58.130
H  38.926  58.369  56.795
H  61.187  57.526  43.133
H  43.793  31.475  38.129
H  45.012  32.370  38.485
H  56.890  51.108  72.555
H  56.919  51.605  71.139
H  42.208  35.005  48.484
H  53.429  35.917  63.668
H  41.980  33.934  49.562
H  59.996  58.223  43.866
H  51.977  26.368  51.247
H  48.178  61.550  72.957
H  40.445  37.112  64.814
H  39.014  37.552  64.506
H  54.453  24.787  45.848
H  57.517  54.051  68.421
H  57.182  55.503  67.990
H  55.933  24.496  45.823
H  52.540  35.230  62.614
H  35.933  42.203  56.560
H  36.588  41.975  57.941
H  49.229  60.519  72.558
H  48.751  46.713  28.875
H  34.823  31.397  59.127
H  33.941  55.928  46.209
H  39.264  71.430  60.510
H  28.010  32.930  53.682
H  39.798  49.750  72.388
H  39.789  48.784  73.601
H  26.769  33.184  54.524
H  37.170  70.478  45.529
H  61.970  26.108  46.398
H  71.165  53.895  61.034
H  70.051  53.714  60.053
H  74.305  53.760  55.796
H  33.977  30.757  60.267
H  65.406  55.858  32.031
H  72.958  53.043  55.670
H  46.794  65.649  32.059
H  48.300  65.678  31.818
H  62.234  61.771  40.993
H  63.454  61.351  41.816
H  48.071  46.518  27.547
H  46.610  30.192  52.956
H  62.698  26.377  47.713
H  40.451  65.468  30.430
H  53.417  26.888  51.257
H  64.592  54.643  32.608
H  46.797  25.214  53.209
H  44.790  30.771  31.106
H  50.626  60.010  35.005
H  72.638  57.077  41.521
H  72.119  57.049  40.049
H  69.114  59.668  48.937
H  26.481  66.698  45.960
H  26.077  65.365  46.653
H  70.086  60.811  48.618
H  47.734  37.293  72.269
H  49.235  37.248  72.396
H  48.204  66.163  41.758
H  46.717  66.373  41.547
H  73.832  44.103  57.891
H  31.582  59.898  37.494
H  30.143  46.897  46.819
H  31.222  61.287  36.908
H  60.400  47.678  40.048
H  61.647  46.801  40.257
H  56.269  65.368  64.615
H  54.789  65.765  64.527
H  36.447  36.322  28.364
H  51.690  76.798  41.934
H  51.662  75.718  43.040
H  36.839  37.793  28.641
H  29.138  47.916  46.285
H  66.805  61.296  52.293
H  66.837  59.915  51.628
H  59.695  68.849  40.090
H  50.737  59.431  36.431
H  44.613  29.459  30.338
H  70.843  45.901  49.187
H  69.798  44.773  49.149
H  64.633  51.374  40.906
H  63.455  52.266  41.231
H  47.176  23.847  52.835
H  68.262  53.949  40.433
H  68.282  53.761  41.950
H  37.735  48.533  43.866
H  75.099  44.360  57.017
H  37.843  49.918  43.223
H  35.062  40.460  40.822
H  35.777  39.253  40.255
H  33.406  31.010  49.109
H  50.849  71.496  50.856
H  50.696  72.634  49.893
H  34.798  30.368  49.250
H  59.616  67.339  38.059
H  60.820  67.270  37.140
H  55.593  63.550  68.027
H  55.804  64.535  69.181
H  58.877  68.049  41.137
H  58.499  49.674  52.794
H  47.672  53.373  30.219
H  70.785  58.609  44.038
H  57.127  71.060  57.328
H  35.625  40.471  51.376
H  35.652  41.075  50.003
H  66.057  39.466  55.476
H  68.711  44.805  56.444
H  69.775  44.670  57.575
H  46.939  63.301  30.105
H  46.435  64.713  30.096
H  70.432  64.449  39.714
H  44.427  59.031  47.703
H  43.478  60.125  48.240
H  52.007  68.533  42.710
H  69.373  63.402  39.433
H  53.174  69.523  42.884
H  41.586  66.024  61.527
H  47.651  51.185  36.966
H  57.243  70.105  46.295
H  31.356  55.277  48.757
H  30.658  55.823  47.510
H  58.397  70.825  45.578
H  70.140  41.643  59.251
H  68.683  42.108  59.211
H  32.919  59.708  29.749
H  57.691  34.636  54.534
H  33.155  61.237  29.913
H  64.736  38.724  55.700
H  31.358  45.208  28.498
H  42.321  56.639  53.950
H  41.872  57.986  53.398
H  50.099  50.789  60.624
H  31.925  64.893  42.826
H  31.886  66.242  43.572
H  65.181  44.462  53.443
H  66.439  43.558  53.317
H  60.431  44.902  72.925
H  45.964  29.843  38.699
H  59.514  58.625  71.187
H  41.010  59.770  68.247
H  57.067  63.234  72.467
H  39.937  60.250  67.247
H  42.914  74.480  50.411
H  42.289  73.504  51.400
H  39.600  36.847  26.680
H  38.297  37.500  27.176
H  57.619  54.464  43.663
H  51.073  37.821  28.024
H  52.424  37.198  28.462
H  56.718  55.685  43.698
H  31.055  44.876  29.947
H  61.229  66.533  62.674
H  49.393  49.391  60.676
H  47.076  50.039  36.136
H  34.938  41.644  59.734
H  51.774  58.662  23.417
H  52.724  57.968  22.418
H  39.843  75.064  51.634
H  56.834  38.562  44.720
H  61.267  51.722  54.660
H  45.077  61.999  31.921
H  46.495  61.817  32.514
H  62.246  51.546  55.787
H  38.062  39.495  43.742
H  65.443  36.437  31.400
H  49.055  54.779  36.678
H  34.991  54.299  65.444
H  45.152  26.800  47.187
H  41.098  32.046  54.391
H  41.995  31.367  55.419
H  69.144  46.925  63.231
H  70.294  46.014  62.782
H  62.086  55.147  46.945
H  46.699  75.631  57.150
H  74.825  38.507  54.633
H  57.401  73.162  63.619
H  57.351  72.520  62.203
H  35.897  53.979  64.229
H  34.497  42.485  60.918
H  44.227  48.705  63.100
H  48.434  53.968  37.850
H  42.967  54.879  57.666
H  56.960  34.217  53.244
H  41.734  54.169  58.241
H  70.501  59.558  54.535
H  71.508  58.601  53.866
H  59.055  63.510  68.733
H  55.657  70.320  42.370
H  56.165  69.341  43.422
H  58.643  63.635  70.204
H  36.511  67.535  48.430
H  45.490  48.136  63.725
H  36.861  68.997  48.074
H  29.138  42.475  41.066
H  71.495  52.617  63.334
H  72.884  51.977  63.195
H  57.608  39.474  43.752
H  40.521  76.246  52.367
H  61.655  55.252  45.478
H  66.323  31.507  37.567
H  65.243  32.608  37.507
H  67.105  68.601  37.995
H  66.328  69.889  37.606
H  30.111  41.494  40.368
H  67.197  40.665  35.921
H  68.196  39.587  35.447
H  64.484  54.165  53.407
H  52.719  67.823  35.310
H  55.516  32.348  60.797
H  62.298  62.637  58.855
H  61.220  63.042  59.892
H  47.623  35.135  54.958
H  39.064  40.372  56.061
H  40.055  27.190  47.862
H  59.417  70.141  38.046
H  55.846  41.055  36.277
H  34.490  49.089  30.071
H  51.383  68.566  35.114
H  41.952  49.983  30.963
H  65.511  31.718  41.830
H  66.229  30.431  42.278
H  27.066  37.787  42.741
H  59.383  31.960  47.889
H  60.773  31.437  47.587
H  28.015  38.777  42.050
H  61.639  59.945  28.631
H  61.286  59.421  30.047
H  54.954  42.265  36.012
H  31.725  55.827  42.288
H  41.088  51.271  30.835
H  63.735  64.723  71.420
H  54.883  31.292  61.694
H  34.684  31.930  35.211
H  29.237  52.572  66.390
H  29.562  52.298  64.935
H  35.127  48.352  42.953
H  60.989  35.855  70.964
H  59.022  69.059  37.016
H  58.359  63.335  73.277
H  67.902  44.079  58.775
H  40.289  39.523  55.724
H  58.216  30.122  43.712
H  58.389  51.550  33.830
H  33.453  32.843  35.176
H  57.195  52.208  33.054
H  74.205  43.334  48.552
H  74.079  41.833  48.466
H  29.397  55.517  42.321
H  28.907  54.678  41.115
H  42.220  29.008  54.714
H  67.194  43.839  60.134
H  42.532  28.342  56.044
H  39.865  27.948  49.160
H  48.101  60.296  45.847
H  47.999  59.272  44.708
H  59.199  30.171  42.538
H  52.182  50.808  22.230
H  51.347  51.574  21.205
H  63.744  63.208  71.119
H  38.819  72.672  54.660
H  40.309  72.289  54.587
H  64.703  69.129  57.346
H  33.397  46.582  44.576
H  33.180  46.663  43.046
H  63.919  70.296  56.795
H  60.067  51.636  58.718
H  58.818  51.505  59.607
H  41.662  25.628  54.937
H  41.147  26.406  53.738
H  59.199  60.568  29.945
H  59.812  46.285  72.708
H  39.763  60.700  74.403
H  51.459  60.230  32.851
H  49.969  60.576  32.682
H  63.144  49.368  69.676
H  62.100  49.163  68.590
H  41.009  69.287  38.156
H  29.255  43.929  30.371
H  29.674  42.558  30.907
H  40.597  70.725  37.746
H  65.438  55.351  53.649
H  44.924  29.004  37.914
H  59.862  61.332  28.774
H  63.236  42.646  35.723
H  49.613  40.515  37.255
H  73.486  43.999  55.082
H  74.542  44.586  54.180
H  26.145  53.595  62.353
H  24.645  53.303  62.255
H  31.518  56.874  43.395
H  32.564  49.446  33.914
H  32.943  48.456  32.806
H  47.806  35.261  56.462
H  38.241  60.791  74.682
H  50.604  39.732  38.143
H  35.975  45.961  44.484
H  26.974  39.215  62.380
H  25.929  38.821  61.346
H  49.707  39.562  61.832
H  30.197  49.715  34.977
H  30.157  50.877  33.969
H  49.911  38.272  60.981
H  52.454  61.653  28.142
H  53.536  60.546  28.187
H  27.913  45.644  39.709
H  26.886  44.528  39.559
H  63.240  43.585  34.508
H  37.272  46.359  45.234
H  56.491  72.455  57.615
H  62.702  59.463  68.807
H  35.802  54.202  74.272
H  30.571  45.773  56.229
H  42.252  64.652  45.888
H  43.243  63.769  45.103
H  42.726  66.544  29.063
H  70.159  32.422  55.098
H  71.017  31.238  55.589
H  41.508  67.449  29.094
H  57.054  60.121  52.090
H  55.884  60.947  51.609
H  33.132  46.726  56.314
H  69.342  62.720  42.049
H  38.517  30.110  55.155
H  50.932  32.898  29.089
H  63.210  47.300  33.186
H  68.193  61.864  42.544
H  50.481  36.565  64.151
H  51.350  37.356  63.170
H  67.166  60.700  61.303
H  68.086  61.386  62.271
H  66.694  51.744  42.106
H  54.073  56.065  23.489
H  53.799  56.662  24.866
H  66.422  50.527  43.060
H  63.238  47.342  34.703
H  40.707  42.287  47.706
H  37.919  29.315  56.347
H  51.065  33.383  71.674
H  57.146  68.333  64.510
H  25.471  42.358  42.215
H  26.966  42.526  42.010
H  56.507  33.991  49.520
H  44.723  62.506  37.903
H  45.643  61.437  38.410
H  57.584  34.009  50.580
H  58.042  63.155  33.004
H  45.467  61.636  51.953
H  48.368  54.689  32.652
H  31.956  47.283  57.071
H  48.831  55.930  31.837
H  42.902  54.014  60.088
H  43.574  53.817  61.485
H  47.556  51.385  39.302
H  49.616  60.073  55.831
H  50.111  58.744  55.239
H  45.406  23.406  51.288
H  44.443  22.222  50.978
H  31.779  33.028  46.945
H  60.914  24.030  48.608
H  50.386  34.721  71.963
H  48.767  52.173  38.820
H  58.149  68.902  65.516
H  36.629  26.804  42.222
H  40.226  43.702  47.304
H  73.599  38.818  47.175
H  67.693  48.719  64.663
H  27.828  58.826  50.138
H  59.593  66.112  47.597
H  60.059  64.700  47.559
H  36.255  36.099  66.969
H  35.638  37.401  67.403
H  34.538  41.916  65.918
H  32.050  50.132  64.819
H  31.475  51.340  65.577
H  53.751  34.808  72.806
H  34.329  41.312  67.304
H  66.013  48.877  60.624
H  27.743  58.602  51.637
H  66.237  48.102  59.345
H  63.824  62.573  56.281
H  47.139  41.647  67.856
H  47.641  40.344  67.315
H  63.440  61.345  57.076
H  59.745  58.418  55.161
H  59.027  57.258  54.455
H  38.639  45.933  70.109
H  72.434  37.842  46.959
H  35.818  27.297  43.395
H  63.858  52.088  33.763
H  58.323  27.626  55.725
H  52.137  42.229  68.841
H  52.997  41.477  67.819
H  50.988  32.399  27.633
H  63.435  40.798  60.152
H  63.680  42.298  59.884
H  65.582  65.961  48.310
H  64.444  66.945  48.623
H  38.651  73.173  49.470
H  42.546  38.707  74.103
H  41.787  37.456  74.581
H  62.847  34.164  58.362
H  38.397  73.226  47.975
H  43.374  60.033  68.706
H  54.161  64.612  66.291
H  52.952  64.070  67.046
H  54.791  33.923  64.252
H  28.814  42.462  51.392
H  29.511  41.847  50.212
H  54.337  33.098  63.065
H  25.960  41.385  60.994
H  26.101  42.163  59.636
H  58.085  28.955  55.042
H  43.697  58.557  68.676
H  69.115  57.532  54.355
H  60.187  48.745  43.949
H  59.036  48.438  44.951
H  58.198  50.809  31.585
H  36.860  39.556  72.186
H  36.928  40.418  70.936
H  30.179  39.362  57.906
H  51.364  50.408  70.871
H  30.057  62.714  35.358
H  39.493  73.951  38.167
H  39.701  73.240  36.786
H  28.814  62.521  34.506
H  60.870  35.900  57.647
H  67.471  61.005  66.300
H  59.705  35.882  56.686
H  47.874  32.519  53.216
H  36.319  51.461  35.637
H  42.820  52.020  53.751
H  41.493  52.489  53.195
H  69.429  34.632  42.241
H  70.924  34.776  42.506
H  49.478  47.125  31.659
H  49.846  40.825  74.610
H  64.766  39.765  31.566
H  68.304  67.893  48.383
H  48.766  32.811  52.015
H  66.964  68.625  48.076
H  66.916  61.020  64.865
H  35.852  55.419  47.752
H  48.258  34.902  42.469
H  49.617  29.264  63.337
H  36.644  31.258  33.714
H  50.925  28.549  63.013
H  33.623  39.470  50.398
H  32.544  40.548  50.409
H  61.680  51.438  50.043
H  72.253  35.870  39.736
H  71.907  34.396  39.994
H  61.519  50.386  48.946
H  57.153  49.865  31.028
H  65.113  74.018  53.272
H  70.110  54.318  62.980
H  69.523  55.194  61.903
H  27.428  60.197  55.499
H  26.366  60.446  54.401
H  50.088  49.580  70.698
H  30.959  38.094  57.570
H  50.248  45.848  31.165
H  46.453  31.451  70.471
H  46.529  32.547  71.538
H  36.483  54.068  48.077
H  66.156  72.953  52.899
H  64.145  39.901  32.977
H  47.641  69.898  65.689
H  49.087  70.377  65.708
H  72.352  39.320  56.790
H  66.012  47.027  52.272
H  67.100  47.530  53.251
H  53.860  68.123  57.665
H  52.839  67.032  57.370
H  63.677  36.580  40.960
H  31.383  31.629  47.489
H  62.593  35.536  41.290
H  71.617  65.268  41.235
H  51.877  58.538  67.161
H  60.932  44.704  56.306
H  52.424  57.337  67.939
H  56.855  42.933  61.074
H  39.181  45.904  29.084
H  31.591  50.786  28.058
H  32.645  51.272  27.069
H  38.966  45.626  30.564
H  60.245  23.885  47.187
H  39.629  44.068  50.474
H  46.908  62.008  51.532
H  71.212  54.404  56.280
H  58.207  62.377  31.690
H  57.602  41.670  60.565
H  60.569  43.220  56.077
H  70.985  39.847  56.278
H  36.167  47.287  39.822
H  45.900  31.812  34.140
H  46.098  30.870  35.363
H  72.820  52.673  50.185
H  61.680  42.124  26.308
H  60.337  42.216  27.025
H  74.042  52.183  49.433
H  49.405  58.421  27.883
H  50.263  57.197  27.520
H  64.461  35.862  55.632
H  63.591  34.800  56.177
H  59.194  32.132  51.777
H  72.016  49.471  54.755
H  72.364  50.083  56.105
H  59.175  33.308  52.745
H  30.475  55.678  51.142
H  30.998  57.133  50.952
H  49.745  40.583  76.120
H  66.743  54.991  60.924
H  72.402  55.274  56.589
H  69.253  58.247  53.017
H  72.160  66.684  41.016
H  38.213  44.607  50.715
H  37.268  46.193  39.783
H  38.105  46.117  71.525
H  47.896  36.396  42.578
H  40.954  33.215  39.260
H  67.582  47.569  65.673
H  49.952  35.896  66.537
H  37.578  47.993  53.428
H  36.239  48.797  53.405
H  50.935  34.789  66.192
H  42.596  60.206  66.667
H  41.626  61.289  66.096
H  57.028  46.723  68.910
H  34.741  46.993  47.246
H  49.129  41.691  32.819
H  47.819  41.254  32.252
H  74.773  41.201  46.677
H  41.164  28.853  67.170
H  61.731  38.535  46.761
H  39.316  71.519  45.044
H  39.566  73.006  45.269
H  67.304  41.987  49.575
H  66.437  42.259  50.783
H  41.585  46.357  35.790
H  68.039  39.349  66.746
H  68.192  38.273  65.612
H  41.647  47.881  35.931
H  39.886  29.673  66.987
H  50.466  54.019  34.098
H  32.376  32.036  38.576
H  75.316  40.186  47.703
H  59.264  69.241  68.777
H  29.827  59.672  43.022
H  28.640  59.302  43.938
H  33.264  47.285  46.813
H  75.279  51.518  44.345
H  76.443  51.451  43.365
H  60.028  35.658  47.705
H  35.536  29.682  56.102
H  42.503  43.679  74.380
H  35.487  38.230  54.062
H  54.078  33.697  71.771
H  59.893  68.670  67.493
H  64.466  40.833  54.361
H  67.268  59.551  42.671
H  63.565  41.866  53.760
H  63.654  62.165  52.425
H  64.746  63.236  52.263
H  38.886  62.137  30.709
H  40.024  63.149  30.986
H  74.549  50.556  57.108
H  35.030  38.071  55.497
H  75.704  51.358  56.483
H  55.533  46.759  69.207
H  66.014  58.906  42.090
H  53.498  74.507  48.955
H  35.351  44.161  63.999
H  41.960  75.740  56.688
H  60.286  43.597  41.008
H  60.274  44.833  41.864
H  55.789  37.284  73.572
H  55.098  38.614  74.014
H  33.394  45.730  29.410
H  33.507  64.340  45.588
H  34.172  63.834  46.873
H  33.301  47.243  29.240
H  32.466  47.449  54.539
H  31.834  48.833  54.685
H  56.910  38.052  30.215
H  32.028  64.475  47.332
H  31.430  68.541  42.637
H  46.879  44.843  40.694
H  38.403  52.345  57.982
H  41.188  57.684  30.645
H  39.969  58.585  30.507
H  38.652  53.834  57.533
H  42.629  45.218  65.755
H  42.955  46.715  66.112
H  37.331  48.058  64.904
H  38.395  48.624  63.932
H  36.605  63.958  50.470
H  33.150  33.338  38.425
H  56.455  63.339  65.280
H  56.222  39.275  30.786
H  50.187  24.226  40.488
H  51.165  24.924  39.530
H  41.628  76.795  55.635
H  36.001  45.233  41.147
H  35.521  46.060  42.338
H  43.103  41.374  56.992
H  44.453  42.100  56.945
H  64.380  40.966  35.509
H  41.354  42.616  74.420
H  50.892  54.744  32.818
H  57.434  62.391  64.595
H  62.159  38.214  45.337
H  44.398  37.222  36.961
H  35.564  42.727  64.519
H  73.652  36.553  45.078
H  45.010  57.447  22.520
H  45.871  57.793  23.693
H  73.994  36.324  43.605
H  68.552  66.043  42.114
H  69.383  67.191  41.495
H  61.422  37.474  59.332
H  59.938  37.195  59.477
H  43.624  38.378  36.327
H  52.770  73.174  48.709
H  56.529  39.947  49.390
H  42.068  51.222  69.688
H  41.908  51.775  63.140
H  38.564  44.991  24.236
H  42.496  33.346  38.981
H  33.790  31.155  46.736
H  54.247  71.440  38.861
H  53.322  38.573  63.664
H  53.031  39.693  64.646
H  52.594  48.446  35.247
H  61.806  47.763  60.535
H  61.758  47.745  58.982
H  42.828  50.613  62.667
H  38.710  51.010  73.889
H  28.834  35.544  46.028
H  43.123  64.346  48.777
H  43.909  65.604  49.148
H  28.874  36.301  47.353
H  55.618  71.813  39.443
H  35.067  31.471  45.923
H  45.464  55.691  62.364
H  44.778  57.081  62.335
H  67.326  58.964  62.313
H  36.580  64.454  37.916
H  37.187  51.194  74.042
H  37.187  63.637  39.046
H  51.538  71.390  47.196
H  45.557  56.696  72.237
H  41.164  65.747  48.942
H  43.585  43.828  35.662
H  70.512  35.713  35.143
H  39.342  76.105  54.886
H  38.339  75.034  54.444
H  70.204  41.717  49.401
H  63.797  71.764  47.603
H  62.833  72.558  48.476
H  69.212  42.538  48.626
H  44.543  34.196  44.746
H  46.837  57.228  72.824
H  43.332  35.103  45.046
H  32.261  42.474  46.267
H  32.408  38.513  48.788
H  69.237  36.365  35.765
H  40.352  65.898  47.612
H  32.893  38.959  47.443
H  39.580  32.345  61.261
H  38.386  33.298  61.135
H  67.631  30.776  50.531
H  68.600  29.880  49.819
H  50.045  71.646  47.526
H  30.984  43.281  46.048
H  66.498  57.681  62.423
H  68.921  46.363  41.578
H  67.397  46.516  41.781
H  69.021  33.227  49.134
H  47.730  38.318  31.700
H  27.502  55.482  51.651
H  43.833  42.385  35.996
H  65.479  41.659  34.690
H  30.644  64.170  46.814
H  57.209  35.629  32.671
H  35.353  28.236  56.576
H  22.104  42.258  50.540
H  23.395  41.534  50.116
H  67.934  33.951  48.344
H  68.338  50.024  60.781
H  60.299  60.406  44.095
H  71.657  63.001  48.606
H  70.252  63.138  47.958
H  61.305  60.112  45.227
H  55.626  41.730  33.417
H  54.133  41.543  33.190
H  58.382  36.597  32.602
H  61.364  36.364  47.724
H  57.164  40.369  50.715
H  43.367  50.524  70.020
H  69.309  50.844  59.924
H  46.776  38.770  30.580
H  44.360  48.264  57.270
H  45.275  48.115  56.040
H  43.393  64.939  37.029
H  42.693  65.404  35.755
H  37.231  62.677  49.997
H  51.506  49.497  35.315
H  47.846  70.724  61.306
H  48.911  70.835  60.181
H  28.393  56.274  50.699
H  43.898  42.997  37.963
H  45.220  43.749  37.885
H  73.778  56.795  54.404
H  47.243  58.943  61.569
H  46.898  57.632  60.835
H  73.588  55.544  53.631
H  41.064  75.264  44.437
H  40.815  74.630  45.830
H  43.761  36.976  28.693
H  42.317  37.323  29.150
H  45.098  35.586  46.353
H  62.140  54.959  29.996
H  63.365  54.640  30.771
H  44.722  37.111  46.401
H  36.798  64.528  44.779
H  35.541  63.797  44.339
H  39.018  43.568  24.610
H  63.790  60.488  68.524
H  40.596  40.545  33.545
H  52.724  41.000  24.880
H  61.111  37.691  49.391
H  64.532  45.735  30.758
H  63.779  47.091  30.873
H  48.342  63.419  60.653
H  45.755  69.388  38.188
H  44.988  68.640  37.103
H  47.270  64.206  59.901
H  49.982  39.529  26.744
H  48.989  39.084  27.829
H  63.161  43.923  54.284
H  60.126  63.101  54.063
H  64.084  43.505  55.425
H  22.414  51.696  51.245
H  21.157  50.799  51.236
H  31.319  45.788  36.093
H  63.489  37.271  50.097
H  64.725  36.592  50.666
H  50.890  56.434  31.120
H  50.297  57.671  30.400
H  39.670  53.728  75.293
H  52.152  71.982  39.837
H  51.601  72.469  38.483
H  30.579  44.504  36.444
H  40.653  52.552  75.505
H  61.235  63.635  54.949
H  45.890  56.438  53.517
H  47.260  56.865  38.430
H  65.427  68.607  49.798
H  42.342  48.194  60.299
H  43.108  47.481  61.443
H  34.087  40.927  27.125
H  35.466  41.394  26.688
H  45.437  58.416  38.402
H  56.469  37.762  33.921
H  55.671  38.058  32.607
H  67.241  49.980  58.644
H  46.392  57.058  52.201
H  60.566  38.865  50.211
H  66.285  30.363  46.088
H  67.206  29.280  46.687
H  37.539  30.988  60.180
H  38.165  38.053  40.643
H  37.840  39.535  40.454
H  36.922  30.386  58.935
H  63.657  33.341  45.518
H  64.053  33.117  44.058
H  45.480  40.299  71.053
H  46.128  38.951  71.262
H  68.146  48.959  57.996
H  46.268  55.758  38.809
H  46.510  26.612  47.895
H  36.679  52.214  34.325
H  48.332  60.585  70.182
H  45.665  52.184  28.691
H  31.541  60.928  59.885
H  34.902  71.263  53.245
H  46.446  51.606  27.475
H  55.928  31.945  29.755
H  54.512  31.622  29.282
H  29.218  61.027  57.689
H  28.206  62.075  57.271
H  63.067  37.293  65.520
H  53.395  27.867  31.455
H  52.075  38.519  40.428
H  62.179  38.550  65.464
H  31.508  62.012  58.805
H  57.330  51.419  47.869
H  35.664  57.088  54.258
H  56.677  50.026  47.949
H  63.374  55.166  48.809
H  66.715  37.339  56.900
H  66.746  36.511  55.653
H  64.511  56.122  48.424
H  41.758  72.482  61.335
H  50.899  39.289  41.019
H  56.900  42.708  40.575
H  34.770  47.795  62.637
H  41.026  53.225  26.009
H  39.364  33.508  65.525
H  44.468  36.601  48.880
H  43.097  36.244  49.518
H  58.095  71.622  36.508
H  42.649  70.591  64.898
H  42.095  71.973  65.150
H  56.819  71.592  37.413
H  53.057  28.180  59.219
H  54.370  28.943  59.362
H  47.438  73.962  59.776
H  36.298  47.956  62.710
H  46.242  74.626  60.438
H  40.030  34.852  65.320
H  54.708  28.641  31.274
H  55.483  28.759  48.747
H  58.056  44.167  27.074
H  58.011  42.657  27.220
H  36.842  47.279  37.293
H  36.501  45.810  37.532
H  39.520  53.146  26.108
H  34.704  45.069  37.095
H  34.469  43.652  36.609
H  56.430  28.673  49.931
H  66.562  69.513  50.310
H  44.494  59.556  37.903
H  26.834  58.058  57.716
H  46.016  45.797  29.476
H  40.952  71.475  43.574
H  54.490  45.949  64.050
H  53.093  46.390  63.621
H  51.689  32.758  54.172
H  51.731  31.458  55.059
H  35.536  57.802  32.343
H  29.711  38.039  60.683
H  30.174  39.127  61.673
H  37.064  57.966  32.489
H  46.795  44.576  28.983
H  34.749  64.201  40.752
H  31.784  42.569  67.217
H  31.017  42.692  65.909
H  28.253  58.188  65.652
H  56.165  37.094  36.055
H  57.247  38.075  36.480
H  55.324  31.642  40.252
H  31.235  41.520  54.600
H  69.890  52.078  61.887
H  71.171  50.660  66.772
H  59.463  71.361  66.488
H  33.720  65.314  40.599
H  59.866  70.560  65.270
H  42.416  71.108  43.294
H  42.836  49.783  77.983
H  29.201  46.480  56.432
H  28.396  50.953  51.329
H  46.552  27.014  55.256
H  29.864  51.257  50.900
H  30.234  64.383  43.987
H  58.369  30.826  34.509
H  56.939  31.047  34.035
H  34.734  62.801  49.160
H  34.307  61.523  48.450
H  65.575  34.089  35.840
H  44.005  49.826  77.033
H  37.186  53.573  74.096
H  64.103  34.336  35.850
H  30.955  53.679  44.836
H  31.553  54.084  46.223
H  25.485  43.441  63.384
H  60.950  27.259  59.607
H  28.457  49.748  59.002
H  27.636  48.434  59.144
H  27.891  57.124  66.688
H  30.435  56.800  55.556
H  31.819  56.332  56.069
H  40.458  70.614  60.975
H  48.277  25.505  44.262
H  63.609  59.837  73.565
H  62.335  58.997  73.782
H  60.146  51.169  30.968
H  61.449  51.360  30.122
H  42.136  33.606  61.313
H  71.257  63.047  41.515
H  72.427  62.123  41.654
H  64.240  37.939  30.282
H  64.091  36.815  29.229
H  73.881  37.579  57.089
H  58.321  35.791  37.826
H  74.568  38.930  56.819
H  41.058  33.956  60.277
H  46.460  65.987  61.153
H  58.885  49.827  70.901
H  71.091  50.475  33.652
H  72.490  51.089  33.431
H  26.457  57.412  34.551
H  62.315  44.463  45.428
H  61.688  43.115  45.799
H  26.696  57.347  36.074
H  57.637  36.615  38.915
H  70.696  61.150  51.241
H  71.902  60.501  50.488
H  60.303  50.385  70.941
H  51.625  78.417  48.880
H  50.169  78.749  49.175
H  68.572  52.097  62.638
H  58.554  36.380  72.848
H  57.952  36.340  74.235
H  63.905  61.071  61.235
H  45.041  70.741  44.420
H  44.444  69.637  43.546
H  64.356  61.801  59.987
H  71.391  51.174  65.354
H  49.632  41.629  56.575
H  34.909  56.317  68.317
H  34.987  56.573  66.806
H  27.645  62.857  59.341
H  60.850  59.440  38.362
H  61.191  57.970  38.643
H  27.401  64.291  59.762
H  51.779  34.893  29.407
H  50.397  35.335  29.935
H  60.796  52.404  68.971
H  60.738  50.915  68.879
H  27.927  59.216  57.646
H  48.459  25.337  45.788
H  50.489  40.389  56.447
H  56.164  32.877  40.421
H  46.969  66.772  59.962
H  42.623  71.385  60.677
H  53.057  42.468  24.615
H  54.252  62.347  55.893
H  49.570  61.519  70.291
H  56.547  26.899  34.488
H  31.560  56.316  36.691
H  31.246  57.483  35.744
H  49.711  76.158  60.124
H  30.020  67.243  46.656
H  28.868  67.615  47.617
H  48.185  76.054  60.401
H  30.946  32.030  61.893
H  30.983  33.046  63.024
H  70.557  53.597  39.918
H  55.142  26.526  34.886
H  70.135  53.377  38.455
H  61.693  45.807  32.985
H  47.486  48.617  21.562
H  61.791  34.430  50.603
H  62.649  35.499  51.330
H  21.913  56.277  48.547
H  22.838  57.336  49.166
H  73.813  64.534  43.064
H  64.773  34.132  53.388
H  64.190  33.776  51.959
H  72.727  64.125  44.064
H  37.081  57.162  39.553
H  55.145  60.949  60.132
H  47.375  30.155  68.856
H  37.436  34.961  52.339
H  60.970  64.954  69.541
H  61.948  65.951  70.164
H  67.297  55.455  52.399
H  67.391  56.974  52.481
H  26.368  65.832  53.200
H  33.011  40.367  52.558
H  33.876  39.183  52.943
H  34.298  51.897  32.078
H  47.221  50.089  21.203
H  64.008  39.823  57.322
H  64.054  41.400  57.336
H  36.994  34.520  53.769
H  36.584  52.644  61.407
H  34.774  50.168  56.693
H  26.528  50.982  59.766
H  25.720  52.336  59.719
H  35.861  50.632  57.651
H  33.628  39.146  65.963
H  33.688  37.639  66.402
H  75.120  57.480  47.410
H  73.776  58.158  47.780
H  47.724  31.533  68.251
H  38.065  52.570  61.076
H  50.842  65.318  37.041
H  56.684  60.957  60.282
H  71.182  56.234  35.730
H  56.751  43.027  69.598
H  32.335  65.683  36.174
H  31.286  64.710  35.617
H  62.001  42.381  38.978
H  49.803  34.775  69.354
H  51.304  34.793  69.491
H  27.863  43.237  63.074
H  28.978  43.988  62.270
H  37.737  44.475  46.644
H  32.610  50.603  50.688
H  62.160  43.373  40.120
H  31.480  49.697  51.179
H  36.910  32.750  33.311
H  56.542  44.190  70.551
H  67.789  55.806  60.132
H  39.434  41.493  33.251
H  46.551  28.645  67.022
H  68.445  49.192  48.864
H  69.778  48.469  48.871
H  47.374  27.365  66.773
H  42.038  32.114  43.553
H  41.121  31.075  44.101
H  38.861  45.284  45.963
H  71.426  54.802  36.156
H  52.525  58.524  43.634
H  37.405  57.023  29.532
H  63.612  52.134  53.375
H  29.133  47.500  53.752
H  28.140  48.682  54.017
H  65.070  51.718  53.138
H  50.374  74.335  38.830
H  48.887  74.286  39.203
H  42.630  59.702  71.521
H  42.659  61.015  70.751
H  37.371  56.661  40.968
H  61.031  44.622  32.224
H  37.315  55.517  29.311
H  57.447  65.194  67.684
H  63.733  33.142  59.040
H  53.161  59.861  44.009
H  29.284  36.909  58.604
H  28.908  35.455  58.360
H  30.295  48.110  58.757
H  31.338  47.321  59.507
H  51.239  25.407  34.100
H  47.985  45.601  54.550
H  46.893  44.626  54.077
H  52.626  25.697  34.699
H  44.138  46.145  30.003
H  36.583  57.972  58.388
H  35.344  57.146  58.854
H  50.226  66.622  36.554
H  34.564  49.125  59.141
H  40.021  51.888  62.283
H  56.301  65.962  66.982
H  50.835  58.954  39.378
H  41.315  54.520  54.604
H  39.542  61.644  37.988
H  40.326  60.605  37.176
H  50.328  51.439  64.950
H  29.915  62.878  55.636
H  71.725  53.241  67.261
H  34.017  47.771  58.666
H  71.296  54.266  68.351
H  70.678  65.709  59.089
H  25.749  52.281  56.126
H  54.063  40.874  50.508
H  52.586  40.472  50.673
H  26.931  53.045  55.514
H  60.272  64.369  61.284
H  61.358  65.319  60.693
H  64.289  58.671  38.602
H  63.252  58.641  37.468
H  39.713  56.420  55.783
H  70.335  65.107  60.445
H  56.497  32.928  65.337
H  39.768  51.460  63.752
H  45.180  62.225  72.157
H  35.759  58.621  54.487
H  23.199  55.425  42.762
H  24.486  56.248  42.628
H  30.982  62.651  54.553
H  56.863  62.986  45.378
H  51.757  57.907  40.023
H  66.899  29.176  53.338
H  65.377  29.175  53.417
H  28.517  42.147  35.445
H  76.119  39.800  50.563
H  44.290  62.316  70.914
H  77.411  40.545  50.976
H  63.500  52.409  58.184
H  62.110  52.135  57.711
H  65.000  57.135  64.698
H  63.644  56.562  64.293
H  43.823  34.119  51.102
H  49.077  52.035  64.371
H  44.081  32.894  50.163
H  57.930  62.214  46.182
H  58.712  63.181  55.701
H  58.678  63.547  57.186
H  29.915  42.558  34.902
H  55.203  32.215  65.655
H  40.334  55.779  57.054
H  35.528  55.179  62.246
H  41.051  31.016  37.294
H  54.096  29.155  61.787
H  40.536  65.855  71.546
H  41.755  66.798  71.872
H  34.739  50.393  32.223
H  54.084  45.906  25.505
H  40.586  73.940  57.846
H  38.022  29.731  50.012
H  44.284  50.760  22.947
H  65.143  51.803  32.993
H  40.476  30.813  38.683
H  69.061  42.171  38.146
H  58.784  40.491  45.601
H  60.274  40.258  45.951
H  60.823  72.570  39.712
H  33.018  46.597  50.514
H  33.778  46.745  49.202
H  59.974  72.334  38.457
H  52.032  38.956  43.563
H  53.201  38.012  43.345
H  43.038  49.869  23.029
H  26.324  64.479  53.942
H  69.331  43.683  38.049
H  55.369  28.391  61.267
H  57.459  36.053  44.431
H  56.164  35.454  45.004
H  36.839  54.373  62.255
H  50.650  56.745  77.220
H  50.831  55.705  78.333
H  40.583  55.579  53.791
H  35.983  72.349  52.942
H  37.995  28.927  48.742
H  44.091  46.186  31.519
H  33.987  54.436  51.685
H  55.551  45.501  25.378
H  47.544  41.131  27.191
H  56.786  70.242  39.935
H  57.336  69.467  41.137
H  46.391  41.732  28.009
H  70.437  57.497  39.100
H  71.088  58.288  37.910
H  51.394  53.463  65.368
H  51.151  53.707  63.885
H  57.205  45.438  58.138
H  32.672  55.223  51.436
H  57.629  44.273  59.042
H  39.908  75.275  57.588
H  71.724  52.986  42.404
H  70.328  52.958  41.875
H  55.304  63.224  56.598
H  62.172  40.825  56.023
H  42.679  36.280  57.752
H  45.557  29.085  52.866
H  71.203  50.220  45.967
H  72.616  49.910  46.369
H  64.688  67.083  41.750
H  41.954  36.336  27.026
H  42.314  47.153  69.197
H  36.831  47.649  51.309
H  61.791  52.111  62.705
H  60.807  42.507  63.601
H  58.994  47.244  67.087
H  63.763  35.566  60.162
H  63.238  67.384  42.042
H  63.649  36.359  58.844
H  58.757  54.333  61.204
H  44.684  27.750  42.194
H  40.566  66.965  37.842
H  41.188  66.953  36.431
H  44.932  26.327  41.669
H  57.050  25.276  36.529
H  55.933  25.848  37.394
H  60.091  43.681  62.847
H  43.722  28.236  45.452
H  40.483  63.264  67.431
H  57.534  54.831  61.970
H  71.219  51.230  59.301
H  43.209  42.258  24.036
H  63.614  47.979  55.184
H  65.297  42.224  67.152
H  65.991  41.350  68.217
H  57.089  61.687  62.259
H  41.106  39.180  29.779
H  29.221  44.022  42.897
H  28.176  44.317  41.815
H  41.110  35.049  26.934
H  38.011  52.122  32.753
H  39.306  52.241  31.920
H  55.518  69.240  57.155
H  43.898  43.628  24.185
H  67.285  37.651  40.774
H  54.802  70.386  56.417
H  31.886  59.461  56.889
H  30.860  58.426  57.252
H  62.643  72.925  54.014
H  63.302  72.981  52.626
H  58.808  46.263  42.981
H  61.861  49.129  45.162
H  63.209  49.074  45.878
H  59.197  46.472  41.496
H  64.883  47.543  54.412
H  66.974  38.492  41.965
H  62.447  43.592  43.067
H  71.128  49.720  59.091
H  44.971  54.423  36.575
H  49.290  58.260  24.819
H  46.389  38.011  40.699
H  42.887  58.830  44.928
H  44.124  59.518  45.514
H  45.747  38.543  42.012
H  63.766  32.515  49.193
H  63.783  33.879  49.748
H  39.731  31.905  32.474
H  34.296  36.319  57.001
H  25.608  51.930  65.424
H  49.611  59.136  26.012
H  26.206  52.762  64.286
H  33.336  45.583  33.982
H  36.859  45.766  53.231
H  39.495  67.976  44.504
H  39.055  68.487  43.098
H  41.084  45.205  68.130
H  39.992  44.340  67.486
H  46.322  33.873  67.773
H  37.362  54.583  27.057
H  38.882  54.748  27.032
H  45.538  32.808  68.578
H  65.606  54.958  28.548
H  42.002  63.132  67.793
H  56.127  45.331  74.655
H  39.780  32.545  33.841
H  45.926  53.534  37.409
H  63.121  64.406  35.351
H  63.164  63.510  36.602
H  35.830  36.189  56.921
H  49.944  32.295  68.293
H  51.429  32.015  68.436
H  44.380  26.925  44.988
H  57.594  46.794  66.680
H  29.948  62.573  52.536
H  67.494  63.338  34.140
H  55.780  46.438  73.625
H  51.986  37.396  65.694
H  37.815  53.840  36.182
H  38.065  53.819  37.676
H  25.674  65.714  50.177
H  57.262  65.442  42.740
H  58.491  66.253  42.252
H  59.733  48.494  65.281
H  61.175  48.165  65.704
H  71.809  53.021  33.791
H  67.627  61.823  34.303
H  72.993  52.549  34.649
H  26.551  66.887  50.677
H  65.596  56.496  28.655
H  61.875  44.958  43.507
H  50.963  39.416  24.468
H  42.542  59.501  36.766
H  61.696  62.183  43.409
H  34.156  65.566  52.100
H  39.828  48.749  30.970
H  39.143  50.078  31.459
H  41.966  64.810  63.390
H  42.417  66.230  63.593
H  58.813  49.891  48.459
H  56.534  49.371  35.851
H  56.725  50.915  35.553
H  37.608  62.909  68.892
H  59.570  48.753  49.099
H  41.716  23.543  53.513
H  34.079  66.166  53.517
H  41.861  22.845  52.155
H  49.225  49.992  74.048
H  41.625  57.942  40.673
H  42.836  58.272  41.543
H  49.642  49.323  72.713
H  52.417  69.742  37.036
H  53.673  69.604  37.893
H  29.841  41.769  61.900
H  42.970  60.576  35.737
H  31.157  41.172  62.384
H  36.648  59.434  56.296
H  48.661  67.145  38.204
H  54.513  56.205  39.138
H  54.442  56.476  40.640
H  52.933  58.748  28.775
H  62.061  45.604  59.074
H  61.469  44.306  59.667
H  68.201  35.096  57.220
H  69.714  35.055  57.191
H  37.935  42.887  44.374
H  68.705  44.489  32.328
H  69.830  44.277  31.305
H  48.347  49.374  24.631
H  37.418  44.289  44.206
H  47.843  48.954  32.932
H  34.910  52.506  66.652
H  33.505  52.421  67.235
H  34.715  45.070  48.348
H  25.627  59.962  44.710
H  24.238  59.633  45.220
H  33.255  44.689  48.182
H  66.651  62.312  49.897
H  67.754  61.421  49.250
H  48.634  68.684  38.231
H  48.585  49.707  34.066
H  59.460  49.119  77.088
H  58.811  55.850  51.362
H  60.462  62.998  43.607
H  47.550  51.781  62.904
H  37.519  65.056  60.096
H  57.321  55.706  51.787
H  50.140  47.812  29.373
H  66.335  47.711  72.272
H  73.830  41.867  36.159
H  72.585  41.991  35.283
H  42.577  39.402  29.429
H  31.445  47.521  52.392
H  32.548  48.560  52.585
H  47.834  51.817  61.405
H  63.702  73.341  40.504
H  33.082  35.462  65.167
H  69.929  54.062  34.886
H  69.181  52.912  35.544
H  32.247  35.112  63.934
H  66.219  48.309  73.703
H  51.370  47.617  30.294
H  57.008  65.590  45.023
H  57.767  65.101  46.280
H  58.400  48.006  77.028
H  50.568  37.970  24.859
H  63.995  71.818  40.559
H  37.572  66.060  58.972
H  45.996  40.667  60.741
H  60.637  53.609  36.501
H  65.215  50.292  67.336
H  42.021  47.518  67.734
H  48.693  72.477  65.355
H  24.915  47.398  61.759
H  24.286  48.606  62.402
H  57.638  53.741  49.085
H  58.073  34.877  61.086
H  57.817  36.384  60.951
H  58.736  53.818  47.973
H  49.067  55.556  65.407
H  59.967  52.860  37.630
H  49.537  54.929  64.050
H  30.642  34.530  61.460
H  46.999  44.568  26.680
H  49.098  73.977  65.292
H  66.767  50.324  67.414
H  47.746  44.955  25.393
H  60.604  44.399  53.969
H  59.876  43.895  52.742
H  63.951  58.342  53.321
H  65.486  58.372  53.161
H  45.207  39.817  61.760
H  30.404  34.971  59.989
H  55.143  40.755  68.536
H  41.033  69.349  43.080
H  54.906  41.159  69.997
H  32.135  35.741  44.640
H  42.581  36.394  46.738
H  26.772  64.159  40.507
H  27.978  63.736  39.671
H  33.563  68.074  54.337
H  34.645  67.757  55.337
H  48.507  71.617  50.881
H  35.542  69.555  43.510
H  34.593  68.476  43.948
H  48.330  70.176  51.355
H  32.327  35.090  43.237
H  44.071  57.381  30.717
H  64.111  70.788  37.255
H  63.917  72.257  37.642
H  52.465  41.466  72.739
H  45.855  42.872  67.587
H  45.406  43.466  68.971
H  44.189  52.476  63.244
H  44.077  34.814  71.619
H  33.032  61.850  64.231
H  51.647  39.915  54.909
H  39.863  64.724  43.716
H  43.398  56.470  31.745
H  38.603  65.592  43.795
H  41.309  37.253  46.685
H  27.370  59.738  47.673
H  43.671  37.940  33.868
H  43.147  42.773  59.075
H  46.860  42.015  62.471
H  43.679  44.194  59.147
H  46.780  23.935  43.368
H  71.990  56.627  59.716
H  71.179  56.074  58.573
H  30.208  39.795  64.396
H  28.784  40.314  64.482
H  63.366  58.670  42.664
H  28.466  60.750  47.896
H  68.831  48.717  46.778
H  62.450  59.760  43.142
H  65.993  66.608  54.249
H  66.284  65.360  55.098
H  56.336  66.246  34.755
H  70.521  32.315  42.160
H  41.048  39.766  65.777
H  40.068  39.282  66.854
H  52.361  40.725  74.081
H  30.713  46.054  62.154
H  31.099  44.730  61.494
H  70.275  48.382  46.540
H  43.184  37.108  32.710
H  36.560  40.494  64.391
H  34.794  57.282  38.933
H  35.040  56.937  29.237
H  57.706  30.180  66.939
H  58.054  31.398  66.085
H  35.506  56.748  27.805
H  42.208  71.879  49.859
H  43.030  71.589  48.584
H  60.232  50.821  24.316
H  60.856  51.640  23.154
H  50.007  68.349  64.974
H  30.985  52.612  63.628
H  35.756  44.124  69.732
H  49.478  68.984  63.680
H  56.745  38.678  66.943
H  56.088  39.615  65.933
H  48.499  38.574  66.223
H  47.331  37.670  65.742
H  51.704  67.746  37.788
H  50.065  49.871  29.086
H  49.223  51.034  28.573
H  52.802  66.684  37.830
H  31.033  54.108  63.818
H  42.268  48.747  37.620
H  50.659  61.308  59.489
H  34.942  58.744  39.373
H  35.299  45.300  68.828
H  50.739  60.061  60.356
H  67.433  42.685  35.905
H  67.458  43.085  34.424
H  62.728  53.372  68.398
H  64.568  43.850  70.778
H  65.605  43.392  69.747
H  63.701  54.425  67.857
H  51.364  38.651  54.125
H  38.327  41.117  61.376
H  35.818  46.924  29.238
H  35.733  46.095  27.951
H  32.996  60.388  63.719
H  44.125  33.554  31.646
H  42.951  73.362  36.154
H  44.716  33.534  30.238
H  55.782  48.865  24.299
H  55.623  50.167  25.058
H  56.356  48.878  26.986
H  55.960  50.219  27.593
H  27.307  53.586  50.432
H  36.109  41.058  63.053
H  39.713  41.784  61.301
H  45.212  53.568  63.620
H  42.664  72.406  37.285
H  61.959  64.311  57.619
H  60.893  65.344  57.258
H  28.464  35.180  41.386
H  64.480  30.716  51.894
H  43.724  73.199  39.208
H  44.514  74.206  38.421
H  53.262  60.467  68.793
H  52.771  61.319  67.650
H  41.408  28.897  33.105
H  63.279  75.337  45.020
H  62.000  75.522  45.901
H  41.868  29.341  31.664
H  50.669  33.008  36.135
H  62.363  57.506  44.556
H  49.631  33.308  37.236
H  57.889  60.372  62.309
H  56.902  65.787  33.398
H  44.822  63.579  34.968
H  52.426  49.590  77.718
H  58.836  42.179  32.629
H  57.665  41.564  31.898
H  53.201  50.908  77.677
H  47.750  54.365  60.145
H  49.310  54.492  59.975
H  46.311  61.054  68.950
H  60.839  52.912  61.793
H  46.247  61.497  67.491
H  63.683  57.855  45.200
H  68.720  35.874  55.290
H  56.413  46.674  60.543
H  33.168  73.324  49.944
H  33.822  72.466  51.034
H  55.519  46.623  59.319
H  58.347  63.778  37.009
H  59.779  64.293  37.054
H  35.507  48.457  66.502
H  34.911  49.407  67.535
H  35.797  47.146  50.306
H  31.286  61.759  52.406
H  65.303  29.959  50.816
H  31.989  46.235  34.228
H  38.442  42.609  52.293
H  38.649  41.508  53.319
H  41.774  68.015  42.999
H  52.098  68.862  59.662
H  35.338  35.181  32.939
H  34.675  35.927  34.088
H  51.347  68.465  58.419
H  64.311  50.649  60.412
H  64.214  51.386  61.751
H  69.438  36.109  53.949
H  38.459  45.148  53.388
H  44.971  62.970  33.578
H  22.008  44.375  52.905
H  21.610  44.436  51.436
H  50.051  38.766  70.769
H  54.823  36.938  58.117
H  48.530  36.611  29.125
H  31.949  40.362  56.384
H  33.007  39.246  56.553
H  54.255  36.991  56.718
H  60.371  23.648  51.839
H  59.839  24.913  52.550
H  38.700  69.912  41.322
H  39.863  70.827  41.670
H  67.660  54.382  54.518
H  48.482  76.813  45.731
H  49.375  73.698  48.613
H  47.604  78.063  45.739
H  46.475  22.751  42.429
H  52.032  32.322  48.591
H  51.552  31.009  48.054
H  47.627  43.235  62.009
H  69.306  31.558  42.677
H  28.815  35.126  39.898
H  64.150  41.482  42.871
H  65.013  40.351  42.278
H  48.989  74.542  49.840
H  67.491  54.054  56.030
H  54.248  35.311  54.108
H  58.786  25.234  38.402
H  48.138  31.677  34.454
H  66.379  49.605  50.409
H  48.646  33.051  34.850
H  30.811  32.061  41.242
H  30.088  33.191  42.010
H  57.329  42.462  36.962
H  41.331  27.185  39.489
H  41.166  28.516  40.219
H  58.567  42.305  37.863
H  59.624  55.797  37.858
H  60.706  55.704  38.887
H  40.397  71.119  51.000
H  39.843  72.425  51.535
H  67.477  48.829  51.162
H  47.594  36.029  28.023
H  42.935  35.832  71.810
H  51.189  38.522  71.774
H  30.806  50.778  58.881
H  29.780  51.195  57.822
H  36.161  75.212  50.966
H  37.266  74.443  50.279
H  53.933  35.474  52.653
H  58.371  26.269  39.448
H  72.064  60.721  45.078
H  46.650  22.616  46.158
H  45.596  21.863  45.363
H  72.985  61.785  45.635
H  56.248  51.895  29.866
H  62.611  50.768  39.103
H  75.116  42.036  41.680
H  74.191  41.293  42.637
H  32.714  44.290  36.535
H  64.538  29.161  58.188
H  43.785  26.439  52.890
H  40.004  33.203  45.934
H  32.230  56.063  30.966
H  36.497  60.947  55.971
H  55.681  51.304  31.201
H  48.169  63.972  28.176
H  46.282  28.789  48.791
H  47.169  27.824  49.604
H  49.097  63.629  68.830
H  61.753  36.200  55.407
H  60.660  36.184  54.311
H  47.817  62.781  68.912
H  35.600  65.725  42.614
H  36.657  64.613  42.395
H  33.730  56.126  31.293
H  61.742  62.626  35.470
H  47.937  62.593  27.576
H  76.072  52.132  39.334
H  61.791  52.028  38.803
H  47.568  21.941  53.194
H  43.336  26.617  57.704
H  42.048  25.899  57.283
H  70.971  62.856  45.823
H  70.122  57.609  41.639
H  40.871  34.411  46.420
H  55.636  52.776  40.559
H  33.274  51.292  48.735
H  65.559  28.385  59.065
H  71.803  54.611  53.754
H  62.774  32.001  57.463
H  47.076  21.673  51.783
H  63.398  32.238  56.140
H  62.636  50.015  34.376
H  61.457  49.349  35.148
H  64.048  46.701  47.701
H  63.656  45.587  48.666
H  71.348  43.698  58.470
H  34.738  51.526  49.090
H  71.644  45.153  58.942
H  43.872  26.790  54.381
H  39.026  68.145  32.838
H  40.390  67.625  33.356
H  71.636  53.099  53.699
H  58.391  52.196  74.044
H  24.781  52.432  51.201
H  76.265  53.046  40.584
H  32.675  35.931  67.722
H  68.519  57.784  37.527
H  69.007  56.673  36.522
H  48.659  38.854  63.629
H  46.121  37.069  32.999
H  45.779  35.594  32.648
H  47.472  39.729  62.805
H  33.986  44.316  71.715
H  33.467  45.440  72.637
H  59.462  48.369  24.151
H  31.238  36.257  67.222
H  58.615  48.706  22.914
H  63.764  58.529  58.499
H  49.475  31.859  40.488
H  57.591  53.770  30.904
H  57.974  54.626  32.076
H  64.712  47.754  42.589
H  63.724  48.862  42.910
H  60.966  64.091  30.490
H  54.909  54.840  33.560
H  56.076  54.265  32.811
H  62.266  64.025  29.721
H  48.298  66.421  62.993
H  25.778  52.024  52.271
H  63.773  46.826  63.544
H  54.984  49.183  37.398
H  60.314  62.264  25.638
H  59.238  62.436  26.711
H  68.199  42.953  54.798
H  68.395  44.090  53.772
H  60.274  62.246  35.641
H  67.901  44.934  45.156
H  67.650  46.200  45.982
H  32.436  42.925  37.235
H  48.400  31.309  41.428
H  35.328  36.954  64.281
H  34.519  36.254  63.287
H  53.759  49.929  36.874
H  61.126  39.599  52.138
H  41.052  76.758  49.224
H  40.266  63.606  63.600
H  41.656  62.895  63.606
H  42.131  77.705  48.743
H  61.688  65.219  38.459
H  61.263  65.573  39.901
H  62.494  57.668  29.313
H  63.268  56.618  28.524
H  63.197  46.422  64.910
H  59.748  39.020  52.368
H  57.926  50.759  74.350
H  42.514  69.743  50.841
H  34.581  55.142  44.070
H  55.239  60.131  49.366
H  41.598  44.932  41.430
H  61.809  70.926  36.831
H  68.856  57.569  40.755
H  40.326  45.533  42.015
H  55.649  58.780  63.409
H  55.722  59.699  62.190
H  46.500  60.260  28.417
H  47.682  59.864  27.518
H  62.867  60.890  63.257
H  65.717  44.962  46.188
H  42.732  72.285  44.969
H  61.856  60.027  63.973
H  61.921  69.475  37.198
H  68.520  46.830  58.409
H  62.711  55.528  24.534
H  67.399  46.122  59.105
H  74.992  54.177  62.823
H  41.394  56.351  59.360
H  40.050  55.643  59.345
H  74.139  55.031  63.800
H  47.555  54.642  66.543
H  41.623  72.524  46.008
H  47.289  53.141  66.672
H  49.643  72.228  41.207
H  64.976  61.762  35.389
H  45.760  44.945  39.665
H  62.150  63.074  48.679
H  61.966  64.480  49.244
H  58.944  28.746  45.882
H  63.159  29.575  54.792
H  63.302  28.245  55.521
H  57.746  29.664  46.154
H  51.328  40.156  52.397
H  49.943  40.654  52.030
H  37.618  47.329  31.224
H  48.693  71.488  42.135
H  38.430  47.411  32.491
H  44.350  24.355  42.932
H  64.400  44.131  46.299
H  44.621  52.823  74.653
H  28.606  61.798  50.426
H  29.736  60.783  50.245
H  39.471  50.664  53.508
H  40.498  50.849  52.333
H  65.854  62.908  35.771
H  40.345  60.201  46.117
H  41.773  60.308  45.595
H  45.610  53.740  73.964
H  45.046  25.102  38.994
H  43.631  24.718  39.462
H  56.642  59.751  49.777
H  30.688  36.049  53.342
H  37.871  52.264  72.012
H  72.733  52.208  57.433
H  70.661  63.051  44.307
H  60.842  57.001  63.285
H  62.152  56.604  62.660
H  43.353  31.464  62.455
H  27.500  63.421  52.457
H  61.023  51.083  52.238
H  59.724  51.332  51.452
H  44.271  32.309  51.966
H  55.528  69.782  62.443
H  53.526  61.239  52.272
H  62.536  49.966  62.603
H  62.312  48.868  63.629
H  52.859  61.710  50.947
H  34.490  41.897  46.798
H  34.941  43.096  45.946
H  42.651  40.434  55.114
H  41.929  39.498  54.070
H  41.828  68.818  51.840
H  33.885  56.419  43.562
H  55.578  70.957  61.442
H  43.444  31.744  53.132
H  31.524  34.812  53.690
H  63.810  58.301  50.323
H  61.260  55.063  24.631
H  45.654  47.805  31.561
H  45.370  49.339  31.552
H  28.084  63.958  51.126
H  26.232  63.108  50.072
H  71.801  53.200  58.118
H  59.713  54.045  71.215
H  59.327  52.645  70.798
H  59.914  46.360  53.590
H  60.165  64.478  45.380
H  59.520  65.241  44.247
H  58.540  47.048  53.724
H  41.008  33.277  57.944
H  41.365  32.010  58.738
H  43.317  63.704  29.764
H  42.628  64.061  31.090
H  37.778  37.931  55.052
H  43.926  30.687  63.603
H  37.193  39.263  54.580
H  25.188  63.211  51.190
H  36.791  69.369  33.894
H  36.690  69.027  32.390
H  62.333  58.545  50.506
H  38.209  25.502  46.206
H  41.917  48.930  39.100
H  37.592  26.300  47.341
H  49.496  74.841  46.558
H  60.647  31.101  40.211
H  36.170  71.377  35.413
H  37.611  71.576  35.873
H  51.914  40.732  22.481
H  51.256  42.012  22.981
H  57.262  66.824  36.505
H  60.907  40.913  53.719
H  55.873  67.221  37.037
H  59.938  42.534  59.971
H  57.493  71.802  32.291
H  72.686  40.134  38.303
H  58.152  71.988  33.661
H  42.894  34.405  32.996
H  55.361  73.599  35.002
H  42.790  62.102  61.236
H  41.273  62.464  61.237
H  55.015  72.201  34.477
H  67.122  51.344  48.691
H  30.344  63.106  50.342
H  24.222  51.736  58.562
H  49.234  44.695  37.361
H  53.825  48.045  31.333
H  41.514  34.779  32.529
H  34.948  51.094  28.388
H  73.052  39.473  36.984
H  39.700  65.489  28.242
H  42.416  50.984  47.896
H  74.771  44.772  43.957
H  57.669  33.003  32.338
H  57.407  33.759  31.048
H  75.469  45.841  44.815
H  35.296  35.912  54.745
H  34.138  35.010  54.423
H  61.939  62.617  27.954
H  62.363  61.472  27.055
H  66.995  51.561  30.719
H  59.541  32.081  39.880
H  39.822  35.894  72.225
H  67.816  50.521  29.928
H  49.591  71.636  62.785
H  50.460  70.588  62.041
H  68.598  44.006  42.198
H  43.418  68.268  70.587
H  48.934  44.804  35.888
H  26.393  60.851  57.552
H  61.071  42.174  60.965
H  30.015  64.019  49.179
H  40.846  64.469  28.103
H  40.731  37.142  72.260
H  42.599  52.382  47.277
H  33.665  50.943  29.190
H  55.061  29.632  34.153
H  55.416  43.068  23.201
H  55.062  41.824  24.050
H  60.122  52.270  42.716
H  35.662  53.576  32.845
H  34.306  53.633  33.570
H  60.522  52.383  41.264
H  64.218  41.417  46.196
H  62.722  41.089  46.228
H  74.602  47.057  49.981
H  67.719  69.429  58.119
H  47.942  71.941  68.096
H  51.400  58.729  28.515
H  56.164  56.133  74.825
H  69.050  69.779  58.784
H  24.690  61.550  53.172
H  24.357  63.046  53.555
H  57.925  23.157  51.342
H  57.698  23.848  49.996
H  56.522  57.134  58.279
H  70.633  65.936  48.338
H  70.664  66.186  49.849
H  55.746  57.898  59.376
H  55.371  57.337  74.493
H  25.109  59.973  57.344
H  47.612  70.487  68.388
H  72.152  40.652  49.882
H  53.897  30.489  34.479
H  42.095  38.232  48.585
H  40.634  38.330  49.026
H  41.854  23.621  46.015
H  47.311  27.823  64.323
H  47.703  27.082  63.024
H  42.039  24.350  44.672
H  53.771  49.547  31.171
H  23.776  52.660  57.400
H  54.987  53.839  37.506
H  73.356  46.253  50.411
H  54.387  52.451  37.159
H  33.165  67.759  34.828
H  34.274  66.757  34.469
H  45.525  49.741  61.114
H  50.916  28.999  44.243
H  51.300  28.771  42.770
H  42.194  68.491  59.763
H  41.007  69.393  59.452
H  61.142  42.379  53.182
H  66.092  51.952  47.765
H  71.749  39.783  48.694
H  45.389  50.790  62.242
H  31.617  40.947  31.221
H  30.831  39.621  31.213
H  43.774  30.688  67.976
H  67.398  69.773  60.611
H  50.862  31.054  38.093
H  50.925  32.177  39.112
H  57.524  37.101  54.490
H  66.333  49.664  32.156
H  65.677  49.002  33.397
H  47.975  69.537  40.885
H  46.618  68.833  41.030
H  58.775  49.683  42.447
H  39.834  38.744  60.245
H  56.309  36.709  55.348
H  39.765  40.057  59.463
H  51.139  63.808  27.587
H  66.642  71.035  61.046
H  44.800  68.314  71.333
H  67.556  32.273  45.232
H  71.684  59.207  48.488
H  56.668  27.834  58.691
H  56.142  26.758  59.578
H  72.766  59.967  47.772
H  54.964  29.805  51.643
H  53.445  29.667  51.423
H  60.217  50.171  42.416
H  61.002  53.779  29.038
H  63.916  60.837  39.513
H  36.266  46.764  57.315
H  64.287  54.234  37.912
H  67.904  51.985  66.519
H  69.424  51.771  66.430
H  63.494  55.052  36.877
H  42.595  30.614  29.325
H  41.190  31.095  29.564
H  54.010  44.162  67.913
H  54.538  43.069  68.851
H  48.296  65.036  62.360
H  62.746  57.486  59.002
H  36.624  47.742  58.443
H  38.078  51.668  70.630
H  48.077  50.143  23.332
H  65.284  60.859  40.192
H  57.745  68.159  67.814
H  56.212  68.186  68.033
H  40.469  45.096  55.203
H  40.902  44.677  53.826
H  49.065  64.167  49.475
H  53.482  72.180  42.368
H  54.868  72.751  42.059
H  49.396  63.952  50.953
H  55.092  53.566  41.780
H  61.325  54.494  27.715
H  66.936  32.095  43.839
H  42.090  57.079  50.169
H  72.847  45.413  42.364
H  71.409  45.722  42.717
H  53.252  27.831  34.109
H  50.685  25.451  45.746
H  27.204  64.590  48.681
H  26.537  47.871  67.100
H  27.154  47.919  65.676
H  28.162  65.716  49.013
H  62.436  31.315  53.939
H  63.187  32.655  53.854
H  38.546  49.703  55.737
H  60.213  45.036  66.757
H  45.121  77.445  56.727
H  42.074  47.751  73.923
H  40.967  46.856  74.481
H  43.910  45.601  68.628
H  44.548  46.847  69.208
H  55.069  67.445  59.256
H  69.825  43.078  42.084
H  44.282  31.203  69.314
H  57.798  73.043  59.493
H  56.508  73.686  60.023
H  60.287  46.081  65.651
H  75.472  56.195  38.334
H  74.911  57.484  38.973
H  37.267  48.848  55.845
H  43.128  57.976  49.418
H  62.073  27.884  49.463
H  50.457  64.498  26.393
H  61.274  26.724  50.007
H  69.055  38.126  45.950
H  70.443  38.632  46.188
H  69.788  60.672  56.413
H  59.877  59.384  56.912
H  61.351  59.819  56.674
H  68.722  59.585  56.561
H  50.216  34.768  57.135
H  50.598  35.512  58.403
H  44.098  63.742  63.104
H  43.754  62.933  64.336
H  33.747  48.617  41.172
H  32.604  49.387  40.479
H  50.174  26.858  45.458
H  53.429  28.151  35.605
H  56.376  68.222  59.520
H  68.378  31.540  55.727
H  67.058  30.892  55.213
H  32.859  28.897  53.171
H  32.628  28.121  54.487
H  49.116  74.929  45.096
H  26.100  54.407  49.965
H  46.240  36.122  71.421
H  42.078  72.204  56.393
H  51.569  39.131  57.699
H  44.402  65.421  70.662
H  53.180  52.758  63.336
H  51.695  23.861  56.236
H  39.778  50.120  68.280
H  69.700  46.563  35.464
H  69.259  46.137  34.042
H  77.793  51.797  51.277
H  61.517  60.743  53.508
H  62.166  61.290  54.750
H  51.188  37.923  56.905
H  61.022  43.983  37.551
H  55.407  38.900  54.437
H  36.921  38.219  63.828
H  38.098  38.637  62.962
H  54.058  38.243  53.999
H  41.259  49.831  68.409
H  52.448  22.539  56.063
H  39.558  38.568  36.396
H  38.565  37.505  35.974
H  68.024  48.824  55.839
H  29.748  49.212  55.495
H  62.356  44.464  36.949
H  29.154  50.631  55.451
H  49.735  76.568  48.815
H  45.592  53.243  60.856
H  35.241  27.818  48.358
H  30.733  40.873  43.937
H  33.217  68.319  59.016
H  38.835  71.040  47.373
H  37.699  70.922  48.415
H  58.653  76.468  54.131
H  39.684  61.552  34.277
H  40.870  60.565  34.401
H  57.676  75.688  53.227
H  45.626  44.662  77.969
H  45.104  53.662  59.429
H  46.256  45.916  77.360
H  34.876  48.180  54.879
H  61.351  32.273  45.064
H  32.295  68.333  57.786
H  33.753  28.197  48.127
H  60.875  31.211  44.067
H  52.410  40.162  29.596
H  51.589  38.953  29.972
H  38.017  60.464  58.570
H  37.751  60.667  60.110
H  48.209  76.714  48.837
H  34.830  46.644  54.727
H  65.004  67.773  39.134
H  66.538  48.480  56.006
H  66.225  46.288  43.551
H  40.014  37.982  68.915
H  40.377  36.470  68.833
H  29.827  68.747  53.527
H  39.637  46.296  62.978
H  32.155  41.368  44.091
H  68.723  62.084  46.479
H  39.748  49.077  23.910
H  36.460  33.525  43.911
H  47.415  43.386  70.693
H  52.541  35.653  56.535
H  30.504  67.765  54.482
H  52.745  36.078  55.081
H  53.400  21.596  45.312
H  54.422  72.468  37.243
H  55.172  60.949  40.758
H  56.693  60.745  40.611
H  53.070  72.904  36.659
H  69.628  46.221  47.319
H  68.311  46.351  48.084
H  36.580  32.123  43.273
H  62.528  42.945  58.095
H  46.721  47.963  71.391
H  54.411  22.693  44.884
H  67.077  47.557  43.448
H  42.689  61.539  31.664
H  46.531  54.767  71.139
H  37.032  74.382  59.168
H  38.468  73.860  59.137
H  42.037  66.998  45.736
H  78.646  52.492  50.206
H  47.658  50.214  76.598
H  47.972  49.859  78.058
H  40.387  47.532  63.424
H  57.493  35.580  57.324
H  58.325  34.403  56.788
H  55.650  71.323  31.689
H  43.099  61.241  33.087
H  36.293  68.208  41.993
H  54.425  72.148  32.073
H  70.764  55.665  65.216
H  71.835  54.699  64.778
H  34.785  34.241  58.475
H  35.873  33.488  57.730
H  39.687  60.459  52.006
H  65.767  67.172  56.738
H  66.593  68.171  55.880
H  40.535  61.675  51.622
H  46.583  55.929  70.177
H  37.378  67.132  42.009
H  45.763  65.496  69.973
H  53.540  53.992  64.119
H  47.276  51.082  67.183
H  32.913  30.598  51.477
H  31.664  30.945  52.328
H  37.568  56.073  47.893
H  34.846  54.084  58.937
H  36.099  53.342  59.334
H  38.194  56.951  46.843
H  50.403  49.361  22.436
H  50.581  48.854  20.980
H  68.435  58.443  65.360
H  68.925  59.586  64.480
H  39.797  64.579  33.935
H  58.109  67.843  30.451
H  56.999  67.939  29.366
H  39.943  59.307  32.374
H  27.982  67.551  56.895
H  28.537  67.988  55.529
H  69.248  37.534  40.642
H  70.121  36.297  40.521
H  31.542  65.463  53.493
H  62.490  63.415  69.746
H  62.085  62.340  68.750
H  31.642  65.599  54.973
H  51.856  41.132  36.936
H  60.810  40.740  24.689
H  38.532  59.482  32.885
H  50.750  71.144  31.566
H  33.508  36.865  58.722
H  32.047  36.455  58.459
H  33.504  42.161  53.763
H  33.983  43.249  54.729
H  63.415  47.196  50.778
H  39.438  62.593  59.940
H  39.307  64.102  59.948
H  64.760  47.445  50.092
H  47.917  28.271  60.384
H  50.957  37.109  49.627
H  48.137  54.299  40.015
H  52.115  29.457  57.014
H  41.919  73.742  39.654
H  39.810  71.283  34.568
H  40.700  71.950  35.599
H  40.893  72.615  39.673
H  64.954  67.813  37.104
H  63.538  67.514  36.568
H  46.751  51.413  64.942
H  46.297  49.979  65.283
H  52.173  36.627  48.875
H  51.323  71.992  32.702
H  53.131  30.590  56.791
H  40.753  65.177  32.856
H  51.742  35.999  67.673
H  59.757  70.551  35.343
H  47.321  50.216  70.606
H  66.133  67.270  40.068
H  42.197  25.850  46.718
H  39.664  29.101  42.872
H  40.009  28.363  41.596
H  43.265  68.644  39.200
H  44.202  67.886  40.174
H  46.830  51.891  31.905
H  60.536  40.292  74.338
H  61.420  41.350  73.653
H  64.958  56.688  67.379
H  46.097  53.034  31.216
H  64.254  30.680  60.094
H  42.490  26.390  48.132
H  65.219  31.855  60.102
H  32.239  45.320  38.716
H  63.633  65.212  40.172
H  63.363  63.742  40.362
H  33.674  45.130  39.121
H  43.578  64.335  60.220
H  44.184  65.660  60.659
H  48.665  51.696  67.272
H  46.015  50.307  71.423
H  23.797  40.171  51.759
H  33.233  59.383  43.223
H  53.176  35.613  68.029
H  58.506  69.775  34.999
H  53.347  40.950  36.595
H  46.741  54.119  40.594
H  40.733  28.887  57.267
H  40.177  30.125  56.606
H  44.880  50.964  74.062
H  46.181  50.928  74.881
H  26.392  40.323  42.996
H  56.565  50.164  40.641
H  55.760  50.536  39.335
H  26.447  39.940  44.481
H  56.678  54.936  46.658
H  56.783  56.479  46.482
H  73.609  45.303  40.244
H  74.360  46.585  40.707
H  51.109  26.957  35.959
H  65.778  57.040  60.059
H  66.814  58.025  60.563
H  49.619  27.190  36.141
H  45.582  44.685  62.412
H  46.641  45.275  61.515
H  52.509  65.572  70.694
H  52.256  64.051  70.803
H  44.194  62.100  55.054
H  50.189  37.328  42.075
H  45.312  61.109  54.627
H  58.661  75.010  50.914
H  37.607  70.560  62.811
H  47.803  64.195  36.548
H  49.835  42.242  68.178
H  25.518  53.897  53.320
H  26.180  54.628  54.493
H  47.047  63.318  37.603
H  42.220  64.567  42.214
H  40.843  64.135  41.784
H  62.344  26.105  41.399
H  63.598  26.424  40.527
H  48.892  73.676  56.521
H  29.614  39.382  38.612
H  35.160  25.894  53.027
H  28.292  39.915  38.132
H  54.420  25.869  65.102
H  37.136  54.243  44.209
H  36.311  54.249  45.459
H  58.190  67.902  34.589
H  56.967  69.110  54.664
H  28.309  37.861  39.725
H  25.990  53.685  46.287
H  27.165  52.798  46.688
H  34.484  27.240  52.795
H  27.127  36.903  39.490
H  50.121  74.569  56.312
H  39.229  58.226  53.910
H  64.513  51.084  57.070
H  56.568  47.495  30.485
H  68.261  43.695  39.915
H  67.612  45.051  39.755
H  64.213  35.494  43.042
H  27.402  60.586  63.942
H  28.174  61.759  64.522
H  65.199  34.941  44.110
H  38.304  58.705  73.182
H  39.121  57.896  74.142
H  53.557  51.832  28.985
H  35.089  46.716  35.600
H  64.844  49.840  57.900
H  50.229  43.732  68.041
H  71.041  46.275  40.504
H  37.420  71.998  63.348
H  61.818  48.885  23.949
H  61.934  47.340  23.864
H  25.128  40.845  46.986
H  24.024  39.857  46.574
H  52.130  52.275  28.643
H  38.154  57.219  54.271
H  33.867  47.638  35.342
H  56.909  47.977  29.101
H  71.835  42.765  37.337
H  46.652  45.558  70.579
H  63.389  52.114  66.303
H  33.936  43.806  56.998
H  38.984  52.392  55.794
H  39.617  53.665  55.221
H  47.210  42.691  30.558
H  46.491  41.418  31.012
H  66.727  40.068  48.077
H  55.989  73.436  54.672
H  55.854  71.916  54.562
H  67.818  39.444  48.966
H  62.828  51.412  67.521
H  41.300  36.045  58.451
H  48.305  33.049  56.894
H  58.023  46.851  64.153
H  45.587  66.413  72.414
H  47.008  66.775  72.158
H  41.456  66.359  31.258
H  70.591  44.804  40.641
H  34.297  57.386  46.581
H  38.289  69.693  44.869
H  64.593  44.365  42.170
H  63.900  45.718  41.956
H  48.228  32.085  55.678
H  71.989  44.276  37.493
H  33.253  44.854  56.137
H  61.136  55.153  41.087
H  45.531  45.016  71.457
H  62.096  37.546  52.518
H  59.567  67.612  35.221
H  63.009  36.762  53.504
H  55.864  26.293  64.904
H  53.732  63.005  47.024
H  54.854  62.186  47.680
H  55.430  48.178  33.012
H  55.619  46.702  33.350
H  30.939  49.195  29.567
H  61.789  54.454  42.353
H  47.709  56.787  24.860
H  31.491  47.740  29.492
H  36.301  54.310  52.192
H  36.944  54.004  50.829
H  30.758  53.239  49.038
H  57.609  70.218  55.486
H  45.788  58.384  56.444
H  44.363  58.500  55.930
H  59.409  46.405  63.688
H  51.854  54.238  40.777
H  52.880  53.351  40.008
H  47.047  55.610  24.177
H  67.473  67.482  63.405
H  67.091  66.015  63.553
H  66.959  39.393  46.006
H  26.768  62.302  46.933
H  36.737  34.260  48.101
H  45.228  45.982  57.453
H  45.440  44.498  57.078
H  35.356  34.886  48.009
H  36.683  51.353  38.037
H  35.553  52.325  38.378
H  63.895  41.092  70.448
H  48.049  38.418  23.608
H  40.887  64.818  56.818
H  25.744  62.020  45.889
H  41.773  65.316  57.964
H  50.897  45.943  25.189
H  69.426  71.027  43.607
H  49.054  27.136  47.194
H  48.969  28.575  47.683
H  66.755  42.793  42.433
H  66.330  43.859  43.472
H  66.265  57.517  31.336
H  27.177  36.682  57.017
H  28.339  37.651  56.749
H  65.421  58.766  31.645
H  32.316  58.030  38.575
H  31.823  58.724  39.826
H  38.487  61.069  55.605
H  65.407  41.410  70.418
H  58.192  76.375  50.345
H  62.680  49.765  57.766
H  62.223  49.219  56.413
H  48.609  39.356  24.683
H  36.317  66.254  35.703
H  36.410  66.443  34.222
H  63.504  44.147  58.054
H  48.843  43.543  70.168
H  72.702  36.624  53.353
H  54.933  25.340  43.265
H  39.781  60.381  55.271
H  63.960  57.832  67.479
H  73.907  62.452  48.906
H  74.312  60.986  48.749
H  43.127  35.075  42.721
H  39.385  72.126  56.846
H  39.328  70.960  57.850
H  34.423  70.332  39.745
H  34.574  71.657  38.997
H  42.834  54.622  74.606
H  55.752  25.997  42.108
H  42.320  56.092  74.495
H  43.036  34.168  41.544
H  31.264  61.783  65.985
H  53.215  54.648  37.306
H  32.494  60.963  66.382
H  37.226  39.981  35.287
H  38.610  40.585  35.224
H  70.894  41.815  40.875
H  72.219  42.570  40.894
H  48.575  47.445  25.979
H  33.704  57.932  35.380
H  34.160  56.689  36.139
H  47.134  47.271  25.453
H  54.297  30.091  54.231
H  53.921  28.656  53.855
H  26.142  44.983  48.658
H  40.430  47.784  24.420
H  29.249  53.018  48.855
H  65.451  39.748  45.918
H  28.399  55.492  39.236
H  70.801  65.837  43.515
H  69.408  66.014  44.155
H  28.976  56.694  39.939
H  44.590  32.028  55.304
H  45.492  32.451  54.111
H  50.268  25.729  61.265
H  49.842  27.133  60.875
H  42.893  66.376  46.849
H  62.776  55.826  39.300
H  62.820  57.211  40.022
H  24.975  45.706  48.058
H  57.444  40.789  47.697
H  51.888  25.720  59.338
H  52.542  25.881  57.949
H  56.675  40.220  46.502
H  39.404  35.241  59.137
H  39.142  34.722  57.747
H  45.769  69.734  49.924
H  44.310  70.127  49.841
H  68.372  60.786  45.760
H  72.838  36.265  54.792
H  51.866  44.786  25.562
H  68.923  69.873  44.470
H  62.109  47.853  48.583
H  61.311  48.201  47.352
H  53.341  56.102  36.877
H  37.627  45.650  42.315
H  69.038  54.210  29.420
H  68.241  55.248  28.586
H  38.390  46.878  42.822
H  37.736  39.246  50.363
H  38.226  40.014  51.592
H  52.399  43.735  71.189
H  51.145  43.219  70.462
H  45.266  47.755  70.943
H  62.291  42.352  55.866
H  66.522  44.672  62.271
H  48.001  29.122  61.688
H  44.644  51.991  38.315
H  72.407  38.389  61.379
H  66.644  54.498  48.013
H  58.907  34.368  65.873
H  32.129  54.202  35.622
H  29.308  49.185  48.514
H  28.444  50.385  49.007
H  62.484  25.076  50.243
H  39.222  44.732  73.269
H  30.905  38.535  43.727
H  44.403  53.104  39.331
H  29.543  37.827  43.747
H  50.814  47.679  61.660
H  47.439  73.429  51.253
H  27.422  33.009  43.209
H  26.922  33.779  44.424
H  46.026  73.914  51.472
H  52.215  31.468  34.824
H  52.926  32.784  35.177
H  72.435  36.978  41.494
H  71.434  37.707  42.383
H  65.254  53.611  66.233
H  49.860  46.486  61.549
H  64.088  35.931  47.075
H  72.628  37.939  62.832
H  58.760  59.554  53.416
H  50.830  24.759  52.484
H  39.184  62.370  41.333
H  40.129  61.129  41.082
H  40.531  44.759  74.115
H  44.828  66.710  68.251
H  59.849  33.613  64.972
H  37.594  44.105  35.752
H  37.537  42.650  36.236
H  54.283  48.246  76.819
H  25.443  46.216  39.391
H  59.186  60.973  53.008
H  24.959  47.309  38.405
H  29.482  57.987  47.798
H  29.558  56.914  48.903
H  58.556  43.103  54.630
H  58.961  41.637  54.588
H  40.948  54.046  60.776
H  62.433  24.560  51.688
H  39.714  53.812  61.631
H  45.578  66.430  66.974
H  49.989  52.154  36.695
H  50.470  50.734  37.167
H  54.871  49.071  75.671
H  42.347  43.897  52.214
H  62.779  35.549  46.367
H  50.764  72.565  55.213
H  35.661  41.606  69.278
H  36.374  40.518  68.446
H  47.319  63.241  54.815
H  27.793  55.458  62.495
H  26.380  55.840  62.117
H  66.960  36.553  44.726
H  38.834  52.839  52.773
H  71.053  61.289  54.482
H  66.475  41.984  61.907
H  27.064  46.226  44.185
H  45.830  63.019  54.599
H  23.626  39.162  52.900
H  66.901  60.307  36.780
H  35.159  40.800  37.621
H  35.809  39.466  38.029
H  58.798  52.924  40.579
H  44.740  69.254  54.380
H  45.054  70.700  54.839
H  59.481  53.603  39.388
H  38.415  60.019  39.767
H  37.073  59.335  39.795
H  28.537  46.405  44.644
H  67.991  60.536  37.848
H  65.187  52.532  67.278
H  49.268  41.392  23.734
H  65.948  40.011  38.220
H  51.856  71.515  54.990
H  49.088  60.032  58.190
H  49.070  61.539  57.958
H  33.219  53.145  35.732
H  36.252  36.885  71.612
H  66.694  40.829  60.898
H  66.326  42.026  45.727
H  46.351  67.775  65.052
H  38.971  54.380  52.748
H  35.855  50.246  62.714
H  48.330  41.178  22.537
H  64.002  55.637  45.457
H  36.383  50.855  64.053
H  36.614  59.259  50.597
H  35.962  59.006  51.966
H  39.377  33.204  44.051
H  38.159  33.292  44.952
H  63.152  59.761  46.517
H  45.093  68.599  64.801
H  63.106  61.267  46.333
H  72.450  61.105  55.058
H  66.568  38.992  39.215
H  65.481  56.150  45.404
H  65.806  37.404  33.290
H  66.288  38.491  34.297
H  38.327  28.327  37.715
H  42.189  60.382  40.761
H  40.965  33.323  30.967
H  61.888  40.253  35.941
H  62.968  40.239  36.990
H  23.187  48.363  46.357
H  44.211  72.975  57.230
H  45.191  73.620  58.258
H  21.775  48.449  45.762
H  32.418  68.502  40.246
H  32.771  69.512  39.112
H  43.664  60.271  40.394
H  39.229  48.691  70.402
H  47.042  60.311  42.570
H  48.834  60.416  49.259
H  47.887  61.533  48.754
H  47.539  61.741  42.420
H  35.173  51.232  71.103
H  34.420  51.051  69.770
H  42.581  47.267  33.571
H  43.157  48.242  32.593
H  36.652  54.234  68.020
H  33.689  57.382  53.247
H  40.613  49.315  70.105
H  32.500  56.395  53.366
H  67.177  63.874  50.855
H  51.017  29.402  39.402
H  62.605  42.986  47.641
H  62.245  41.941  48.701
H  41.670  73.621  55.995
H  73.257  52.073  60.400
H  72.927  53.410  59.790
H  26.368  52.833  35.404
H  25.507  51.565  35.343
H  45.329  37.151  72.109
H  43.375  31.286  45.288
H  44.536  31.238  44.280
H  65.876  64.582  50.415
H  59.353  59.460  64.673
H  58.401  58.542  65.397
H  40.233  44.295  34.658
H  39.205  45.384  34.412
H  63.019  48.416  39.814
H  41.624  28.836  38.312
H  42.732  28.941  37.219
H  63.856  47.174  39.441
H  41.523  71.066  32.512
H  40.320  70.190  32.177
H  50.389  28.182  40.083
H  39.646  34.004  30.563
H  36.954  54.686  66.599
H  43.649  77.198  57.093
H  36.993  63.876  67.871
H  43.530  43.888  53.182
H  59.740  54.258  68.782
H  62.139  74.895  52.071
H  37.594  36.551  72.318
H  59.523  54.072  67.253
H  50.005  72.305  35.473
H  50.157  72.810  36.926
H  52.534  63.233  63.432
H  53.677  63.931  64.174
H  57.542  47.839  72.833
H  32.255  51.307  36.476
H  46.849  62.164  35.397
H  57.537  47.737  71.304
H  61.057  75.968  52.333
H  61.890  31.980  50.734
H  50.495  25.914  53.470
H  61.826  32.656  52.105
H  68.427  53.541  48.259
H  36.674  37.056  49.858
H  35.553  36.761  48.848
H  68.385  53.198  46.790
H  37.994  29.753  38.061
H  45.916  60.972  35.203
H  53.951  45.946  66.823
H  53.777  46.886  68.009
H  49.208  46.238  74.749
H  33.649  49.357  61.503
H  44.082  35.899  69.594
H  36.642  40.017  32.851
H  35.803  38.753  32.926
H  58.726  44.435  29.221
H  49.625  67.571  50.352
H  48.499  68.280  49.559
H  57.754  44.698  30.362
H  44.467  39.751  73.131
H  43.610  40.971  72.757
H  21.201  47.039  51.856
H  22.548  46.963  51.102
H  34.368  33.433  49.140
H  44.087  35.306  68.193
H  31.008  52.222  36.453
H  34.661  32.694  47.820
H  37.252  57.512  68.169
H  38.280  57.514  69.307
H  49.530  43.314  75.589
H  49.802  43.115  77.082
H  49.805  47.568  74.190
H  52.348  69.243  50.584
H  52.571  70.349  51.602
H  39.719  46.253  49.043
H  67.859  43.989  62.612
H  43.456  55.268  38.535
H  31.996  50.649  38.308
H  24.237  58.840  52.333
H  25.500  59.724  52.347
H  66.856  36.312  50.829
H  44.788  38.772  64.453
H  48.404  25.418  56.983
H  51.287  67.582  52.476
H  50.239  68.662  52.323
H  44.415  40.051  63.711
H  70.655  46.351  51.771
H  69.223  46.459  52.291
H  25.302  58.021  38.749
H  59.789  41.998  47.893
H  46.832  23.944  48.982
H  52.821  33.554  26.619
H  53.867  34.634  26.881
H  46.805  22.559  48.377
H  64.010  74.716  46.920
H  58.393  59.678  75.257
H  57.578  58.490  74.678
H  65.428  74.138  46.825
H  40.629  67.133  51.605
H  39.594  67.988  52.389
H  60.488  41.218  49.013
H  48.318  24.123  57.786
H  48.013  34.647  72.272
H  26.712  57.517  38.429
H  56.184  77.453  48.839
H  64.440  45.738  52.216
H  28.818  57.177  37.315
H  45.522  40.656  55.410
H  46.668  41.257  54.597
H  58.962  42.347  42.068
H  40.130  70.827  63.256
H  40.994  69.585  63.440
H  57.798  41.531  42.731
H  74.360  49.000  43.231
H  47.265  33.918  73.406
H  73.907  47.499  43.233
H  26.121  46.248  54.484
H  71.912  37.754  38.225
H  55.699  25.462  47.878
H  49.873  35.858  61.944
H  48.472  35.728  61.397
H  66.385  34.932  51.322
H  58.470  44.806  47.839
H  59.274  44.924  46.561
H  41.191  46.436  51.885
H  39.691  46.144  51.976
H  24.616  46.550  54.333
H  30.036  44.002  47.614
H  60.513  48.991  37.917
H  29.228  54.169  54.200
H  57.100  35.635  65.248
H  54.795  68.761  69.834
H  54.667  68.734  71.383
H  60.138  27.658  39.133
H  61.553  27.701  39.661
H  28.258  60.506  38.181
H  50.674  21.571  48.139
H  49.487  39.890  68.301
H  27.817  61.487  39.340
H  67.318  55.055  35.291
H  57.757  37.661  46.759
H  66.892  55.331  33.820
H  38.574  51.746  36.905
H  48.819  36.853  68.089
H  42.465  73.817  53.863
H  43.324  72.624  53.787
H  47.795  35.729  67.860
H  43.443  73.984  48.020
H  43.877  75.470  47.928
H  50.311  40.090  67.034
H  43.102  34.768  53.697
H  59.474  41.461  24.940
H  38.097  50.557  36.074
H  61.475  48.038  37.259
H  58.682  38.334  45.782
H  30.411  40.932  67.108
H  28.887  55.387  53.374
H  33.618  48.853  44.523
H  71.848  31.214  50.936
H  70.470  30.581  51.209
H  32.699  49.665  45.437
H  66.176  49.187  41.238
H  65.515  48.773  39.938
H  39.228  56.995  32.234
H  39.305  55.793  31.307
H  59.109  30.449  49.179
H  56.830  34.888  66.552
H  63.807  49.461  50.461
H  60.397  30.721  49.901
H  40.593  68.863  48.995
H  41.530  67.659  49.252
H  55.891  33.933  55.747
H  55.288  35.227  56.291
H  62.326  28.559  44.667
H  23.356  47.670  40.478
H  49.803  36.435  40.900
H  51.891  22.346  48.668
H  31.744  40.445  66.562
H  63.843  50.812  51.186
H  31.023  43.166  48.472
H  57.611  77.950  48.777
H  46.796  49.394  29.475
H  76.458  41.071  44.396
H  76.166  40.345  43.076
H  65.632  62.888  66.812
H  65.098  61.471  66.926
H  62.109  44.443  65.582
H  66.244  52.219  45.243
H  64.719  52.497  45.268
H  62.055  44.160  64.078
H  35.396  64.678  61.478
H  35.334  65.415  62.815
H  32.564  51.791  43.590
H  50.393  26.506  42.253
H  34.078  52.339  39.766
H  53.590  39.762  52.945
H  56.960  29.417  60.089
H  51.530  59.744  58.088
H  50.622  58.793  57.319
H  53.341  44.446  64.583
H  52.181  43.832  63.788
H  48.275  43.222  56.714
H  64.223  52.482  55.848
H  65.660  53.029  55.554
H  51.936  26.557  42.339
H  47.581  41.837  56.758
H  65.110  53.504  30.682
H  32.687  50.848  42.374
H  42.468  54.234  38.993
H  52.856  35.811  59.662
H  53.152  35.077  58.340
H  52.071  52.118  36.177
H  52.889  51.070  35.512
H  38.513  47.032  49.430
H  25.404  56.678  53.627
H  25.849  58.012  54.320
H  67.994  37.180  43.784
H  56.743  30.896  59.774
H  44.717  72.192  64.932
H  66.527  54.076  30.558
H  68.060  47.456  68.902
H  67.538  48.549  67.958
H  32.719  30.060  56.041
H  43.202  70.970  46.298
H  44.642  70.514  46.466
H  33.042  28.728  56.729
H  62.780  63.880  46.398
H  63.882  64.019  47.398
H  25.808  49.439  36.505
H  24.422  49.651  37.129
H  44.713  71.368  63.652
H  61.644  45.301  48.936
H  61.673  45.830  47.522
H  27.402  50.657  53.825
H  72.541  36.619  37.384
H  69.040  60.075  51.719
H  33.371  28.407  40.338
H  32.900  45.399  63.081
H  32.124  44.997  64.343
H  47.562  27.304  45.045
H  46.377  27.678  44.154
H  54.082  57.565  27.572
H  59.356  46.069  51.639
H  58.733  47.467  51.407
H  68.827  60.966  52.964
H  55.016  57.834  28.757
H  37.146  60.944  65.558
H  29.454  58.326  38.089
H  22.752  49.049  40.941
H  63.637  46.902  52.798
H  38.242  62.328  66.498
H  38.863  62.266  65.080
H  60.829  28.652  44.277
H  65.976  71.896  55.505
H  66.532  70.596  56.114
H  47.568  50.346  30.346
H  55.287  26.726  47.121
H  47.627  63.459  33.624
H  47.442  64.628  34.588
H  33.635  61.754  58.424
H  28.230  51.954  53.607
H  58.542  66.538  61.768
H  63.281  28.723  52.045
H  61.793  28.274  51.998
H  58.856  67.204  63.095
H  69.116  50.760  45.122
H  69.369  51.846  46.139
H  72.435  38.771  43.967
H  73.456  39.219  45.026
H  34.582  53.041  41.048
H  54.587  40.747  52.404
H  65.532  54.333  46.961
H  66.233  41.988  44.219
H  32.202  60.352  43.884
H  34.723  28.056  40.944
H  37.527  59.542  65.079
H  49.016  25.402  38.545
H  48.647  26.809  38.888
H  34.166  69.224  46.911
H  44.664  63.364  50.646
H  45.109  62.605  49.383
H  33.492  70.449  47.561
H  34.781  61.449  57.487
H  31.215  49.336  38.499
H  36.423  45.801  61.891
H  51.172  45.437  22.982
H  43.990  40.839  42.687
H  38.853  27.536  57.495
H  47.310  27.700  57.949
H  60.317  34.874  31.961
H  57.794  56.710  65.789
H  58.934  55.790  66.208
H  73.298  33.688  46.608
H  70.751  38.273  65.042
H  55.385  56.922  33.060
H  54.355  57.345  34.111
H  68.051  35.843  39.082
H  39.690  26.865  58.548
H  51.981  71.496  34.953
H  72.746  38.786  51.471
H  51.753  65.886  39.768
H  51.650  64.620  40.578
H  40.356  66.490  59.526
H  71.334  36.881  64.698
H  39.168  54.094  45.500
H  72.915  40.198  52.048
H  39.508  67.727  59.089
H  69.252  38.318  37.561
H  69.613  36.888  37.990
H  53.072  70.529  35.343
H  61.549  46.064  35.045
H  57.074  57.931  44.326
H  50.429  37.806  44.638
H  70.625  47.450  54.027
H  33.966  50.819  46.963
H  41.946  42.428  70.527
H  41.238  43.552  69.736
H  63.284  55.431  50.768
H  63.324  55.536  52.313
H  64.967  28.463  48.092
H  45.513  68.202  34.789
H  46.231  59.462  32.228
H  36.691  68.099  44.731
H  49.622  36.517  44.573
H  36.568  66.551  44.689
H  44.828  60.102  32.469
H  62.438  55.412  74.470
H  60.940  55.105  74.421
H  64.538  50.017  64.891
H  35.829  32.344  52.573
H  36.693  32.550  51.366
H  68.721  30.162  47.646
H  69.100  31.615  47.531
H  48.433  26.886  58.600
H  55.838  58.753  44.773
H  65.203  51.379  65.322
H  41.023  30.543  69.152
H  60.075  46.349  34.868
H  40.019  53.421  44.457
H  65.837  38.601  66.987
H  41.302  36.724  36.363
H  32.462  39.381  42.535
H  51.225  56.390  64.409
H  67.930  40.296  42.027
H  67.148  40.256  43.304
H  57.733  44.696  68.040
H  56.428  44.688  67.222
H  46.764  43.489  33.628
H  47.508  44.165  34.789
H  65.857  37.982  68.421
H  70.077  46.021  37.897
H  71.549  46.251  38.270
H  35.207  59.209  66.491
H  37.724  65.775  29.773
H  37.962  64.275  29.908
H  49.531  66.974  28.848
H  36.496  58.921  61.688
H  36.107  57.422  61.714
H  65.224  62.033  47.854
H  29.077  65.253  53.359
H  28.457  66.486  53.999
H  33.456  39.238  41.341
H  71.851  33.651  47.064
H  41.561  54.969  30.485
H  42.256  59.222  73.850
H  75.109  35.365  51.779
H  61.073  36.199  32.249
H  50.539  57.761  64.429
H  40.811  35.488  37.106
H  38.786  69.047  39.012
H  54.222  77.856  45.943
H  54.788  78.700  47.079
H  75.750  45.395  60.025
H  42.066  55.203  67.874
H  41.252  54.363  66.881
H  42.915  55.465  29.986
H  76.514  46.464  60.827
H  72.481  33.443  49.734
H  57.406  62.480  49.619
H  38.049  70.188  38.344
H  35.653  59.988  67.736
H  61.935  50.682  64.957
H  46.887  55.414  30.727
H  45.809  55.948  29.760
H  58.188  62.298  50.911
H  63.152  51.353  64.353
H  43.744  58.865  74.168
H  73.878  33.566  49.143
H  65.201  60.544  48.100
H  41.735  31.889  69.055
H  28.959  57.411  34.370
H  37.768  52.630  47.068
H  37.600  51.258  47.728
H  48.219  25.397  60.700
H  37.472  62.979  56.891
H  36.031  63.511  56.992
H  46.916  24.602  60.479
H  54.478  65.562  39.353
H  53.677  64.312  38.900
H  45.162  40.779  58.241
H  51.889  77.429  46.542
H  61.110  51.434  35.122
H  61.542  30.393  56.091
H  58.684  39.080  57.765
H  65.743  39.898  29.365
H  30.186  54.613  56.296
H  31.392  53.892  55.646
H  53.606  53.045  74.535
H  48.748  33.883  59.185
H  47.756  32.696  59.249
H  46.811  25.938  37.342
H  48.709  35.506  38.888
H  47.759  35.942  39.975
H  60.571  30.602  57.303
H  35.904  50.791  60.211
H  66.169  43.554  38.093
H  65.095  43.116  37.026
H  50.083  41.361  35.232
H  49.966  53.802  57.547
H  66.693  27.137  45.488
H  61.568  34.267  48.076
H  62.138  33.166  47.178
H  63.930  73.106  50.253
H  60.774  72.415  62.014
H  59.503  72.286  61.171
H  62.836  72.080  50.598
H  57.825  47.177  32.677
H  61.849  51.697  36.444
H  58.924  46.181  32.269
H  38.865  40.351  68.150
H  53.759  53.248  73.017
H  51.927  43.949  37.178
H  49.476  60.002  30.730
H  44.355  63.122  67.534
H  44.418  64.248  68.522
H  54.094  74.710  51.455
H  35.319  40.366  43.258
H  35.845  39.186  44.059
H  54.575  76.134  51.631
H  46.748  47.824  61.950
H  34.306  49.337  47.187
H  66.742  38.737  29.328
H  34.938  51.646  60.999
H  34.151  47.327  52.234
H  69.306  55.964  43.363
H  68.065  55.713  42.475
H  59.429  38.675  54.204
H  33.244  54.634  48.448
H  50.804  43.302  36.378
H  45.063  62.151  41.532
H  70.536  50.922  55.367
H  47.614  27.372  41.474
H  37.667  28.303  51.776
H  58.553  45.953  70.761
H  45.331  39.308  58.680
H  70.678  59.118  46.296
H  69.384  58.659  46.951
H  30.603  47.924  33.344
H  66.696  54.699  26.925
H  67.307  53.453  27.571
H  43.377  71.051  52.237
H  39.105  28.506  52.242
H  44.444  71.677  51.369
H  71.637  48.062  53.020
H  29.162  58.653  35.220
H  51.189  63.651  49.276
H  66.394  38.890  58.859
H  58.722  44.585  71.417
H  69.549  50.491  56.463
H  40.615  32.428  70.823
H  41.315  33.802  70.665
H  33.963  53.731  49.458
H  48.141  60.148  29.966
H  57.073  64.547  52.629
H  58.438  63.918  52.859
H  59.687  38.328  56.914
H  65.153  37.963  59.001
H  50.375  77.790  46.468
H  52.635  64.193  49.134
H  33.301  46.199  52.851
H  46.830  28.486  40.873
H  45.868  62.635  40.290
H  61.567  46.832  29.764
H  57.200  59.581  57.940
H  35.423  53.626  28.175
H  34.805  54.602  27.151
H  57.731  61.008  57.561
H  47.318  41.604  76.280
H  46.194  41.555  77.344
H  60.338  45.936  30.106
H  39.692  56.352  39.440
H  40.865  55.838  38.526
H  68.105  34.946  40.317
H  45.327  69.244  33.714
H  71.268  44.043  64.734
H  41.584  55.344  41.043
H  31.797  59.547  51.680
H  69.098  57.604  61.866
H  56.454  35.862  50.954
H  54.740  33.661  47.232
H  54.310  35.013  46.706
H  64.570  26.034  44.109
H  29.193  50.312  45.043
H  30.297  49.748  45.905
H  63.858  26.721  45.275
H  45.670  57.203  49.170
H  70.358  57.484  60.981
H  40.320  23.551  48.166
H  57.203  36.387  28.265
H  64.515  43.777  48.411
H  37.112  32.596  65.651
H  75.744  47.038  48.288
H  74.680  46.238  47.532
H  38.229  59.484  67.648
H  62.086  55.486  60.107
H  60.576  55.575  59.852
H  62.061  49.252  42.224
H  63.511  62.393  49.915
H  34.210  53.128  46.656
H  44.517  56.188  49.001
H  27.702  49.106  44.306
H  70.283  29.927  45.193
H  69.565  31.285  45.126
H  47.600  54.063  27.594
H  48.926  24.249  62.570
H  49.930  25.148  63.333
H  48.215  39.204  74.551
H  46.943  55.128  26.766
H  54.045  64.795  45.086
H  55.018  64.838  46.263
H  47.299  39.755  73.450
H  42.642  55.525  42.144
H  50.751  38.284  35.182
H  58.492  36.232  27.468
H  41.627  22.809  48.483
H  55.941  66.379  48.014
H  55.092  67.486  47.439
H  48.687  65.937  29.658
H  31.216  59.644  50.280
H  42.015  46.333  25.535
H  40.591  45.727  25.547
H  56.321  36.032  52.492
H  26.678  48.367  43.369
H  51.295  39.654  35.651
H  28.463  50.350  65.261
H  35.446  52.327  46.302
H  36.526  33.900  65.136
H  36.806  73.816  55.757
H  44.175  73.535  43.551
H  36.427  32.520  62.592
H  35.375  32.377  61.525
H  45.610  73.113  43.284
H  48.583  39.682  39.108
H  48.359  38.891  37.787
H  66.795  46.234  70.182
H  72.095  41.811  53.824
H  37.980  34.051  38.847
H  59.573  28.904  53.214
H  72.107  42.774  64.509
H  48.213  29.812  54.300
H  49.748  29.918  54.153
H  46.143  47.286  65.674
H  66.971  46.282  35.837
H  66.771  44.827  35.431
H  47.102  47.580  66.804
H  58.004  59.099  39.096
H  56.494  58.908  39.164
H  51.774  28.200  52.834
H  44.524  65.052  52.841
H  72.402  40.461  54.490
H  61.105  60.977  65.757
H  53.699  57.166  60.892
H  75.614  38.866  45.025
H  54.833  57.557  61.821
H  60.150  61.552  64.720
H  46.779  77.484  42.843
H  45.840  76.569  42.021
H  61.586  47.835  42.566
H  22.377  47.662  57.928
H  22.161  47.099  56.508
H  64.744  44.527  40.087
H  66.911  33.143  65.683
H  68.112  33.569  64.866
H  60.650  29.860  52.667
H  38.622  58.245  66.816
H  64.494  42.639  49.428
H  75.795  37.503  45.713
H  38.680  60.481  27.821
H  28.154  43.739  49.311
H  27.875  42.292  48.844
H  57.436  55.478  76.501
H  40.208  60.309  27.936
H  62.023  34.014  64.827
H  62.304  35.522  64.642
H  58.405  56.479  75.849
H  66.708  45.374  71.414
H  27.263  49.977  66.116
H  64.177  61.066  50.327
H  66.201  68.728  52.703
H  52.625  58.463  25.904
H  62.455  53.841  35.370
H  60.414  74.447  44.130
H  59.333  75.286  44.780
H  61.693  55.177  35.328
H  62.661  41.173  63.848
H  62.453  41.870  65.204
H  30.480  39.328  47.421
H  29.150  40.053  47.584
H  58.252  38.065  48.920
H  58.890  39.283  48.180
H  56.254  39.019  52.307
H  56.305  62.782  54.564
H  56.996  61.737  53.655
H  44.656  41.005  53.392
H  57.614  51.948  37.912
H  54.824  44.487  62.342
H  57.263  53.060  36.922
H  43.599  68.162  53.017
H  55.988  37.966  51.201
H  60.208  77.087  47.011
H  39.689  42.961  40.973
H  43.626  40.315  52.447
H  38.693  42.291  40.014
H  33.384  60.613  38.737
H  65.675  43.456  64.637
H  40.105  33.539  41.742
H  33.231  62.144  38.374
H  43.167  66.811  53.558
H  51.582  61.372  70.603
H  52.235  62.121  71.789
H  56.226  44.032  62.668
H  48.744  33.121  30.529
H  50.014  33.173  31.369
H  45.591  42.033  24.949
H  33.100  39.528  37.031
H  66.472  43.869  65.881
H  33.593  38.070  37.080
H  47.044  41.711  24.454
H  56.732  47.954  45.766
H  57.559  46.665  45.704
H  30.706  35.841  63.338
H  48.243  52.351  75.440
H  47.821  52.207  73.978
H  60.288  75.596  47.310
H  59.206  53.488  63.885
H  29.741  34.802  63.936
H  60.587  54.079  64.100
H  50.088  72.909  52.734
H  70.028  46.595  66.673
H  33.725  53.151  62.237
H  74.128  36.495  51.483
H  40.082  29.196  46.433
H  54.874  37.428  24.394
H  54.749  36.413  25.523
H  43.863  28.440  40.016
H  44.071  74.550  41.402
H  45.488  46.340  37.086
H  73.290  54.993  50.028
H  74.785  54.848  49.729
H  43.570  75.872  42.043
H  44.075  55.815  34.455
H  42.656  35.911  35.127
H  43.792  54.325  34.593
H  38.255  49.075  57.661
H  38.725  65.082  50.118
H  44.716  46.142  38.421
H  38.374  62.608  45.471
H  50.062  61.993  36.343
H  64.437  43.201  39.430
H  37.039  32.890  39.026
H  67.635  68.219  52.910
H  23.865  50.132  56.697
H  23.014  51.239  56.106
H  37.726  50.502  57.432
H  44.185  35.947  34.984
H  41.354  28.353  46.413
H  51.832  45.432  67.443
H  66.159  71.964  49.940
H  66.431  73.413  49.485
H  42.466  63.933  70.428
H  58.559  64.098  39.952
H  58.911  65.528  39.582
H  41.677  62.649  70.608
H  71.447  46.006  66.559
H  33.852  53.951  63.557
H  46.127  54.220  33.015
H  67.046  58.650  35.476
H  65.790  59.319  34.829
H  56.237  60.571  66.281
H  42.560  37.713  70.384
H  42.158  38.895  71.277
H  57.733  60.504  66.030
H  41.841  32.114  32.699
H  39.256  33.185  40.505
H  43.234  32.133  33.310
H  45.160  53.035  33.268
H  38.214  65.469  51.535
H  30.133  48.698  32.122
H  43.857  26.922  40.049
H  51.834  44.322  66.456
H  67.716  43.781  30.045
H  50.617  54.889  68.078
H  51.400  53.556  67.994
H  66.331  44.056  29.425
H  77.313  47.776  50.473
H  59.700  71.403  43.229
H  58.906  72.542  43.766
H  38.990  32.980  52.491
H  40.006  34.030  52.095
H  51.799  43.745  31.281
H  50.298  43.472  31.255
H  66.906  37.940  37.033
H  49.715  22.238  46.101
H  48.973  22.657  47.340
H  58.583  38.893  29.207
H  41.427  74.787  42.110
H  66.706  51.620  54.453
H  26.723  48.779  61.747
H  45.246  45.537  34.881
H  34.061  69.147  56.833
H  44.928  47.011  34.605
H  41.880  29.992  60.571
H  46.761  32.645  50.978
H  46.206  33.669  51.947
H  41.374  31.046  61.571
H  46.159  62.334  58.125
H  68.229  51.457  54.351
H  44.998  62.974  58.833
H  58.025  39.917  28.253
H  24.005  45.194  50.809
H  33.127  53.842  60.186
H  35.184  32.885  55.214
H  36.495  32.312  54.775
H  56.045  58.902  72.120
H  57.965  26.532  46.489
H  58.591  26.877  47.887
H  50.819  27.403  65.274
H  57.480  58.328  72.074
H  40.904  55.354  64.126
H  26.627  48.866  47.736
H  76.102  48.714  50.471
H  65.638  60.407  44.627
H  55.761  57.604  23.037
H  40.034  36.424  33.926
H  41.851  31.406  40.379
H  41.745  31.092  41.853
H  40.726  37.753  34.267
H  60.553  37.771  63.262
H  60.410  39.195  63.767
H  24.269  43.297  49.249
H  53.665  51.835  57.698
H  24.346  45.127  52.304
H  42.152  55.676  63.334
H  48.329  58.442  40.609
H  56.835  58.084  36.755
H  54.032  67.518  68.280
H  47.489  52.666  33.780
H  61.999  68.654  39.560
H  61.911  70.135  40.017
H  27.454  50.111  61.485
H  58.286  58.530  36.621
H  70.554  37.162  58.774
H  70.141  38.602  58.550
H  48.611  35.894  31.264
H  62.285  43.720  61.548
H  62.401  60.753  59.443
H  48.933  52.218  33.549
H  25.227  48.991  59.379
H  31.818  40.833  47.495
H  46.854  39.592  36.333
H  47.667  40.809  36.853
H  32.963  41.186  48.419
H  49.698  35.326  32.161
H  72.023  39.980  40.791
H  44.826  25.590  35.941
H  60.690  42.647  66.372
H  60.821  41.122  66.306
H  69.783  42.175  65.122
H  23.760  48.919  59.798
H  54.110  66.743  69.572
H  66.786  48.627  44.971
H  64.828  65.447  35.311
H  60.500  72.840  41.779
H  32.851  64.437  49.675
H  31.880  65.374  50.426
H  61.970  72.526  41.804
H  36.703  24.244  49.862
H  37.554  24.325  48.554
H  51.378  56.541  61.813
H  69.162  38.192  54.917
H  67.726  38.409  54.511
H  41.013  66.784  55.275
H  65.206  65.543  33.825
H  44.312  55.079  72.817
H  55.440  65.849  61.564
H  56.613  64.922  61.788
H  57.678  53.352  22.904
H  65.770  66.730  44.420
H  64.433  66.265  43.932
H  35.086  50.221  54.891
H  41.437  65.506  54.518
H  66.730  49.970  45.690
H  51.907  55.745  60.598
H  34.190  50.725  53.517
H  58.418  53.429  24.271
H  47.721  57.069  40.932
H  51.479  26.935  47.222
H  49.249  61.157  25.171
H  46.390  59.462  75.156
H  59.501  52.373  25.639
H  59.952  53.659  26.346
H  52.392  69.085  32.154
H  68.772  30.107  52.545
H  69.177  31.295  53.389
H  53.720  69.797  31.855
H  45.430  58.381  75.611
H  31.701  56.985  45.341
H  32.416  58.300  45.499
H  52.677  32.458  67.004
H  23.548  53.982  55.072
H  27.531  45.373  65.391
H  40.952  57.356  33.940
H  56.592  48.731  43.081
H  29.488  47.656  35.985
H  25.532  55.132  44.320
H  26.356  56.418  44.156
H  47.126  46.617  51.207
H  49.585  73.062  44.031
H  48.509  72.684  45.052
H  73.133  51.716  51.934
H  68.977  48.439  44.328
H  51.948  43.829  54.900
H  62.583  29.772  48.753
H  44.054  25.804  43.303
H  48.148  71.291  39.557
H  45.397  41.840  65.015
H  48.715  70.938  38.140
H  50.067  52.801  73.622
H  33.692  40.442  61.891
H  33.333  39.199  61.080
H  24.573  55.737  48.041
H  73.150  60.648  52.916
H  72.563  61.936  52.391
H  57.759  36.676  70.644
H  53.342  33.158  65.809
H  56.032  74.577  49.138
H  49.086  46.900  65.907
H  22.455  43.453  47.698
H  42.450  61.847  44.205
H  44.372  52.076  76.682
H  68.168  49.207  43.269
H  40.680  56.528  51.883
H  40.342  58.021  51.639
H  51.464  44.560  21.776
H  34.814  47.154  70.947
H  34.811  48.590  70.340
H  48.932  48.387  66.289
H  43.470  54.633  27.093
H  42.114  54.022  27.489
H  73.235  51.365  53.440
H  64.910  62.259  69.288
H  46.378  45.713  43.710
H  29.628  47.328  60.817
H  34.457  43.521  67.736
H  34.128  44.158  66.376
H  63.931  38.681  35.416
H  46.729  31.459  31.670
H  46.431  32.930  31.526
H  52.932  36.673  35.152
H  39.882  38.882  52.229
H  65.426  61.310  70.378
H  54.512  58.363  23.449
H  26.714  50.308  47.167
H  39.830  45.101  59.765
H  49.299  27.538  65.200
H  39.325  43.924  60.615
H  52.709  26.161  47.677
H  49.707  33.746  64.987
H  49.537  33.104  66.365
H  49.824  61.935  26.345
H  43.763  28.223  32.782
H  45.115  28.930  32.485
H  39.594  57.914  34.430
H  29.315  48.538  61.711
H  67.664  68.508  42.391
H  67.857  68.083  43.850
H  33.381  29.475  45.320
H  31.949  30.040  45.175
H  53.299  44.550  54.905
H  41.519  37.525  43.986
H  40.362  38.257  44.695
H  52.583  52.127  47.506
H  46.954  37.876  56.105
H  72.810  41.229  44.341
H  72.330  42.116  43.141
H  45.589  38.002  55.455
H  40.375  40.319  52.146
H  52.279  35.376  35.600
H  63.289  37.369  35.064
H  25.617  43.146  50.009
H  30.896  48.252  35.916
H  62.352  36.099  28.159
H  62.011  41.561  51.314
H  62.738  40.704  50.266
H  62.492  37.271  27.214
H  40.325  30.413  63.430
H  50.877  44.490  61.569
H  49.424  44.220  61.164
H  30.003  53.743  38.802
H  73.491  40.437  40.670
H  44.447  63.625  53.368
H  49.442  30.560  28.382
H  69.302  40.908  65.854
H  52.018  76.122  50.279
H  59.466  38.447  70.534
H  55.710  57.995  52.041
H  54.589  58.647  52.828
H  45.663  54.912  68.185
H  44.627  55.751  67.441
H  64.976  30.810  48.766
H  46.392  45.229  31.960
H  38.960  47.412  35.847
H  47.840  45.435  31.519
H  77.720  43.368  47.114
H  66.501  30.804  48.793
H  62.975  50.148  27.825
H  63.886  32.896  67.351
H  33.848  43.048  33.478
H  32.390  43.559  33.418
H  38.348  50.891  25.511
H  45.444  75.345  55.092
H  53.304  76.692  49.649
H  55.942  29.058  40.481
H  56.141  31.994  48.240
H  38.754  39.856  69.609
H  62.246  51.442  27.544
H  56.862  59.292  34.324
H  77.074  41.995  46.725
H  44.414  74.334  55.563
H  53.386  61.701  39.404
H  37.130  44.877  59.521
H  35.888  45.705  59.865
H  51.919  62.060  39.244
H  46.278  72.447  38.701
H  47.272  73.499  38.230
H  55.255  60.721  68.257
H  69.189  44.835  60.921
H  36.044  28.876  45.961
H  66.651  29.073  40.031
H  60.708  39.013  69.878
H  41.892  60.270  63.694
H  68.109  29.528  40.196
H  50.277  31.683  56.647
H  50.185  32.032  58.113
H  55.154  59.277  67.770
H  46.774  53.458  35.343
H  48.191  54.270  34.783
H  72.031  47.702  43.862
H  46.021  27.198  37.703
H  47.649  69.061  43.285
H  48.216  48.055  61.603
H  40.480  60.775  63.533
H  70.629  49.676  51.145
H  56.122  59.393  32.969
H  42.863  74.404  58.156
H  51.770  69.355  39.535
H  51.197  70.459  38.645
H  51.381  49.506  60.624
H  28.225  48.598  63.504
H  52.627  49.594  61.524
H  56.813  34.716  63.400
H  38.131  45.743  65.042
H  43.426  26.499  37.566
H  37.849  44.260  64.859
H  42.490  25.389  37.075
H  31.743  28.429  49.697
H  53.597  30.838  38.436
H  35.768  50.423  50.599
H  29.483  47.840  63.955
H  61.814  46.989  62.821
H  37.745  50.180  24.304
H  48.599  41.677  34.950
H  28.937  35.378  54.579
H  28.365  34.869  55.890
H  33.588  65.415  56.711
H  35.077  65.672  56.471
H  65.873  26.685  46.704
H  54.486  32.064  38.096
H  58.320  39.099  55.231
H  29.330  34.509  43.675
H  52.681  30.260  60.725
H  43.189  75.582  59.016
H  54.769  31.325  48.045
H  57.264  39.633  61.995
H  55.769  39.874  62.167
H  71.018  36.930  44.165
H  55.119  27.768  40.531
H  37.618  56.424  75.475
H  69.682  36.293  44.432
H  38.017  55.869  74.108
H  32.974  39.482  44.732
H  30.120  35.747  43.178
H  33.527  38.093  44.329
H  71.323  63.392  57.561
H  71.750  62.850  56.234
H  49.066  59.214  51.729
H  64.415  33.574  66.080
H  76.699  53.890  44.084
H  75.689  54.029  42.955
H  56.095  34.319  62.113
H  51.755  30.340  61.956
H  58.298  55.462  40.662
H  56.799  55.685  40.660
H  49.093  58.680  53.179
H  36.828  63.725  63.506
H  70.251  43.853  60.445
H  69.449  50.140  50.319
H  43.463  56.302  72.446
H  47.559  54.164  72.702
H  70.912  48.702  44.080
H  47.170  52.867  71.933
H  46.883  73.546  53.476
H  55.616  62.946  74.004
H  69.676  57.309  50.086
H  68.301  56.642  50.192
H  60.023  57.513  40.661
H  29.796  36.832  49.638
H  41.918  46.293  38.955
H  31.075  36.320  49.010
H  58.558  57.972  40.667
H  48.310  39.121  53.853
H  49.222  40.309  54.283
H  56.551  26.100  44.493
H  40.739  55.755  28.545
H  39.351  55.572  29.117
H  34.230  49.738  64.872
H  34.156  51.256  64.946
H  38.142  63.928  64.297
H  55.167  27.090  53.398
H  56.339  27.460  45.160
H  49.971  63.979  41.339
H  43.705  26.010  34.935
H  57.280  41.920  71.639
H  55.023  34.061  69.353
H  53.678  33.335  69.316
H  63.220  44.691  62.335
H  39.092  47.829  34.373
H  36.821  64.022  70.456
H  45.180  66.889  42.518
H  71.838  43.961  44.443
H  70.631  43.144  43.903
H  37.906  65.016  69.956
H  57.824  50.500  64.898
H  58.522  41.025  71.494
H  49.428  46.546  34.921
H  50.360  47.710  34.607
H  61.265  57.373  66.019
H  61.700  58.196  67.244
H  54.633  26.021  62.297
H  42.757  44.994  39.004
H  54.190  26.899  61.072
H  43.920  67.657  42.839
H  42.904  68.547  47.897
H  44.387  68.706  47.501
H  61.704  59.568  58.717
H  58.168  51.976  65.025
H  48.925  62.851  41.159
H  55.234  27.637  51.960
H  45.376  73.275  53.451
H  62.173  43.683  69.643
H  66.550  48.705  35.423
H  62.316  45.077  70.362
H  65.305  48.239  36.189
H  29.304  54.013  43.762
H  29.080  52.817  42.820
H  71.327  53.113  51.332
H  30.587  56.998  67.728
H  29.881  56.153  68.795
H  40.032  56.224  61.661
H  71.148  54.620  51.090
H  33.355  34.956  50.046
H  34.908  70.395  56.496
H  23.054  41.364  44.194
H  23.363  41.823  45.648
H  40.195  60.791  70.405
H  73.992  46.462  61.629
H  73.394  46.797  60.277
H  41.868  73.468  42.736
H  39.892  61.904  69.424
H  35.686  27.411  45.837
H  34.819  35.280  50.214
H  41.077  57.169  62.248
H  45.683  41.618  37.718
H  70.167  50.764  69.230
H  69.452  51.491  70.383
H  55.074  62.107  72.832
H  44.725  58.423  33.667
H  35.871  51.763  30.438
H  49.119  68.990  42.807
H  51.858  77.090  54.401
H  52.629  75.811  54.760
H  69.504  53.822  53.134
H  36.987  34.582  55.947
H  38.208  35.341  55.457
H  68.540  53.336  52.049
H  37.246  72.854  56.877
H  37.351  52.125  30.536
H  59.630  56.264  46.694
H  43.531  58.363  34.620
H  59.251  56.581  45.231
H  58.652  56.322  59.919
H  43.611  51.543  31.327
H  44.704  51.093  30.318
H  44.109  58.114  52.885
H  58.408  57.745  59.430
H  57.237  44.447  34.398
H  57.696  45.899  34.294
H  44.405  59.306  51.981
H  49.594  30.874  29.885
H  50.758  66.313  49.156
H  31.756  58.076  31.499
H  30.753  59.119  30.930
H  51.333  73.073  42.114
H  61.617  41.632  68.711
H  36.468  47.953  33.312
H  53.079  45.037  52.579
H  62.911  62.911  64.416
H  32.226  70.781  58.578
H  34.723  63.772  55.132
H  34.927  62.272  55.016
H  46.756  65.514  52.288
H  35.206  48.147  37.719
H  70.817  63.223  53.707
H  34.205  47.465  38.669
H  39.282  50.094  34.050
H  37.765  50.132  34.062
H  46.601  44.922  59.190
H  59.134  70.028  48.354
H  47.735  43.944  59.413
H  61.054  52.461  72.590
H  50.926  41.265  28.428
H  51.160  42.452  29.428
H  64.097  63.032  65.355
H  61.095  53.225  73.914
H  47.209  65.133  53.663
H  29.481  38.165  53.849
H  69.294  63.144  54.065
H  38.749  34.251  34.442
H  34.688  50.464  36.585
H  62.523  54.312  33.303
H  62.346  53.247  32.157
H  47.920  44.794  63.973
H  54.274  44.108  52.733
H  26.742  55.370  56.721
H  35.152  36.464  41.831
H  42.820  30.393  57.097
H  35.081  47.831  32.693
H  53.016  32.293  45.881
H  51.001  74.071  40.979
H  53.225  33.182  44.620
H  54.254  45.112  23.278
H  33.572  37.147  42.093
H  68.725  62.476  36.835
H  69.562  61.889  35.709
H  54.478  53.588  24.932
H  44.087  30.891  57.832
H  54.857  53.644  23.446
H  55.945  60.766  55.828
H  40.350  40.082  38.771
H  40.344  41.622  38.691
H  62.292  40.390  69.368
H  44.836  40.521  35.568
H  29.915  38.295  52.388
H  33.352  32.040  63.389
H  67.117  34.458  54.768
H  29.308  53.401  29.907
H  29.747  51.910  29.928
H  35.481  34.420  61.061
H  44.210  77.926  47.325
H  43.050  77.507  46.446
H  66.155  33.472  55.492
H  69.277  50.492  39.661
H  67.914  49.867  39.327
H  35.554  35.883  61.493
H  55.674  24.782  57.917
H  33.421  54.828  70.378
H  32.830  55.241  71.746
H  24.255  52.754  43.714
H  24.171  51.304  44.167
H  58.120  42.548  45.926
H  73.046  48.817  51.453
H  39.115  65.433  66.152
H  72.472  48.772  50.041
H  56.813  43.226  46.253
H  35.055  53.257  43.541
H  56.985  25.099  57.245
H  33.557  53.482  43.302
H  58.256  71.130  48.953
H  31.089  28.893  48.405
H  42.510  69.722  30.791
H  52.638  33.450  60.765
H  59.472  42.849  44.231
H  54.754  48.518  60.891
H  62.453  65.076  63.630
H  39.700  66.700  66.786
H  52.229  56.204  38.866
H  50.698  56.265  39.111
H  62.833  64.059  62.526
H  47.506  44.880  72.947
H  48.933  44.777  72.420
H  49.813  54.577  24.417
H  45.837  30.393  41.748
H  45.892  77.866  52.322
H  49.815  56.089  24.184
H  31.905  39.801  59.521
H  32.907  40.516  58.657
H  47.318  78.447  52.146
H  55.486  47.024  36.320
H  56.898  47.349  36.853
H  54.533  48.117  62.333
H  38.463  36.754  61.339
H  37.795  37.953  60.674
H  45.068  30.494  40.445
H  45.093  39.184  34.819
H  34.020  49.489  37.562
H  52.006  61.635  47.319
H  35.202  56.330  33.686
H  59.668  50.544  46.024
H  72.355  50.053  35.196
H  68.301  37.062  48.765
H  73.529  49.994  36.120
H  60.447  50.219  47.306
H  70.507  47.877  42.263
H  69.485  48.155  41.172
H  51.049  31.804  44.219
H  60.503  49.496  32.740
H  33.969  55.702  34.310
H  60.316  48.109  32.136
H  36.977  51.515  55.781
H  43.704  70.079  41.074
H  43.058  41.919  62.954
H  41.576  41.887  62.610
H  47.841  45.248  47.992
H  37.338  51.727  41.636
H  65.202  45.615  55.572
H  66.421  46.363  56.085
H  61.319  55.515  68.660
H  36.130  52.696  56.672
H  51.638  51.105  33.412
H  62.710  56.206  68.638
H  52.122  30.837  43.682
H  44.845  66.412  37.642
H  52.510  48.334  28.115
H  48.942  56.730  61.067
H  49.442  57.186  59.704
H  28.827  53.049  62.582
H  70.159  54.758  46.550
H  71.225  53.702  46.247
H  37.908  54.288  59.510
H  48.925  50.805  58.329
H  36.490  67.373  66.096
H  35.403  68.424  66.122
H  45.704  65.163  37.458
H  26.959  65.426  56.128
H  34.080  58.847  62.661
H  34.809  58.540  63.964
H  50.393  50.562  34.024
H  55.599  68.712  34.486
H  54.424  67.831  34.123
H  50.847  63.372  38.625
H  45.822  64.346  56.878
H  46.871  64.885  57.854
H  50.614  53.850  47.392
H  49.393  63.061  38.438
H  42.295  70.625  41.232
H  57.807  27.816  41.865
H  30.975  45.387  53.882
H  38.730  52.095  42.148
H  60.812  39.562  44.417
H  61.259  40.664  43.429
H  47.384  46.208  63.959
H  38.172  72.230  42.784
H  37.451  73.277  43.689
H  50.690  28.691  49.741
H  68.517  50.096  35.820
H  67.374  50.958  35.330
H  54.909  52.948  34.879
H  34.129  33.286  63.752
H  33.014  71.093  59.870
H  27.315  34.177  47.287
H  67.942  62.505  56.728
H  59.402  47.105  36.910
H  25.367  54.682  57.025
H  47.625  59.193  76.965
H  48.928  59.962  76.762
H  58.614  45.765  36.826
H  53.702  53.315  34.007
H  50.649  62.155  47.766
H  69.735  60.372  39.115
H  68.754  59.431  39.822
H  67.476  63.841  57.369
H  62.730  65.376  42.633
H  62.180  64.814  43.926
H  56.094  32.600  58.561
H  32.205  44.485  53.523
H  49.369  54.202  48.566
H  60.155  36.301  51.298
H  58.754  36.665  51.822
H  57.952  26.353  41.457
H  60.666  35.286  44.634
H  62.131  35.276  44.123
H  41.879  51.946  35.059
H  52.901  54.050  51.497
H  32.970  66.995  63.294
H  51.494  51.815  76.299
H  28.728  41.535  43.210
H  28.814  40.032  43.431
H  50.618  29.962  50.568
H  60.120  58.293  61.030
H  60.371  59.678  61.649
H  52.032  51.026  24.793
H  53.324  51.788  25.157
H  47.915  34.546  63.879
H  48.066  35.594  64.966
H  54.556  32.537  58.415
H  76.291  56.039  55.864
H  75.893  56.011  54.379
H  42.307  68.541  31.733
H  54.302  50.815  71.946
H  28.695  33.572  47.056
H  57.532  30.658  64.211
H  45.466  59.981  43.947
H  62.028  50.614  25.716
H  63.087  50.114  24.755
H  61.200  41.172  59.006
H  35.873  61.290  33.138
H  44.196  60.564  43.310
H  34.980  60.479  34.005
H  60.687  40.172  57.931
H  30.249  70.262  46.417
H  31.219  69.907  47.548
H  57.328  53.286  54.752
H  38.910  65.392  38.559
H  43.127  72.532  41.359
H  34.712  51.517  44.394
H  67.133  39.624  69.427
H  68.456  40.224  68.973
H  66.772  35.476  61.225
H  30.247  37.987  41.286
H  54.777  56.216  64.992
H  29.775  39.411  41.438
H  43.925  58.939  63.962
H  35.256  50.120  44.418
H  64.282  69.666  43.948
H  60.150  61.383  70.042
H  44.287  66.209  63.700
H  69.185  44.158  52.073
H  66.664  64.917  44.081
H  70.105  66.438  56.170
H  36.238  45.068  31.180
H  34.962  45.948  31.187
H  70.202  65.000  55.607
H  47.384  63.974  64.480
H  46.459  64.200  63.351
H  56.086  59.243  55.916
H  26.543  36.679  60.168
H  46.564  44.346  48.580
H  42.997  45.893  62.845
H  25.991  37.864  59.330
H  49.808  24.760  47.797
H  44.355  61.629  62.809
H  43.477  60.403  62.556
H  44.851  67.454  63.030
H  68.858  43.060  51.053
H  58.324  65.153  58.484
H  59.726  65.141  59.132
H  43.489  46.411  64.184
H  35.707  43.275  42.612
H  35.793  42.214  43.714
H  41.919  53.009  33.949
H  56.215  41.244  63.595
H  49.567  71.018  56.924
H  60.695  60.976  68.672
H  56.095  23.737  54.758
H  55.793  23.152  56.135
H  46.154  24.600  58.560
H  32.289  63.984  52.357
H  66.546  36.668  36.267
H  45.457  43.281  60.592
H  52.536  26.942  56.150
H  54.026  59.662  72.764
H  37.051  31.196  57.107
H  54.033  67.493  66.122
H  32.626  51.442  34.256
H  38.580  30.461  34.568
H  35.570  31.600  57.007
H  36.061  72.172  40.954
H  38.511  66.582  39.423
H  38.711  48.566  29.393
H  37.979  29.161  35.146
H  54.220  60.288  71.364
H  37.279  71.276  40.551
H  57.239  67.030  57.423
H  52.256  26.070  54.911
H  44.346  42.292  60.978
H  52.706  67.035  65.522
H  33.042  63.473  53.578
H  37.997  45.400  56.107
H  34.141  51.076  34.320
H  46.752  37.409  53.399
H  46.449  38.915  53.400
H  57.787  68.386  56.944
H  56.551  37.768  58.250
H  56.037  37.761  59.667
H  38.950  49.448  28.189
H  67.990  35.290  60.334
H  49.133  71.950  58.069
H  44.659  24.248  58.601
H  39.144  48.484  50.313
H  37.028  44.745  57.148
H  63.183  39.016  54.066
H  65.767  64.068  46.468
H  50.231  67.038  41.266
H  51.039  67.985  40.381
H  65.704  65.538  46.200
H  51.022  54.628  43.149
H  51.380  56.031  43.646
H  39.804  48.679  51.634
H  54.123  56.567  63.662
H  30.436  41.757  37.092
H  29.635  42.082  38.378
H  61.816  38.433  54.327
H  55.130  41.822  62.652
H  67.821  64.306  43.272
H  37.593  44.890  27.864
H  45.279  24.326  46.998
H  44.923  24.429  45.460
H  64.890  56.119  26.086
H  30.317  61.316  45.185
H  31.436  62.248  44.688
H  63.467  55.914  26.535
H  55.637  39.655  38.615
H  47.077  70.527  36.570
H  43.279  57.552  64.108
H  61.316  36.999  66.872
H  71.013  30.962  53.509
H  60.472  35.737  66.916
H  37.882  65.973  56.299
H  38.631  65.154  57.352
H  69.457  64.310  49.930
H  47.961  69.271  36.466
H  45.994  63.558  27.636
H  49.992  51.533  76.149
H  53.526  44.064  22.376
H  40.130  34.731  34.923
H  37.736  44.106  38.466
H  54.521  44.975  70.153
H  69.337  62.797  50.275
H  51.924  62.319  41.645
H  71.969  32.189  53.480
H  55.249  38.537  37.654
H  56.734  68.336  32.414
H  57.936  69.074  32.861
H  56.831  31.433  63.076
H  31.086  36.641  35.281
H  32.579  36.583  34.854
H  42.006  38.539  38.208
H  67.206  38.496  60.623
H  68.122  37.614  59.751
H  67.766  45.359  64.531
H  27.903  64.312  45.833
H  54.405  63.120  41.706
H  69.263  45.052  64.418
H  56.789  46.030  28.243
H  71.623  47.924  32.988
H  72.979  48.609  33.201
H  59.222  31.545  45.622
H  58.311  32.721  45.626
H  51.195  33.984  60.619
H  59.971  44.298  44.226
H  28.883  65.218  46.574
H  45.654  62.073  27.634
H  55.625  63.529  40.880
H  40.694  37.788  37.965
H  52.483  63.325  42.655
H  53.143  45.616  70.410
H  49.484  68.768  61.296
H  45.130  72.957  46.192
H  46.301  73.833  46.648
H  35.266  40.466  54.756
H  32.087  54.479  27.264
H  35.734  41.663  53.905
H  77.208  43.523  44.138
H  77.195  44.401  42.875
H  60.700  46.727  44.888
H  49.329  64.500  56.954
H  50.663  63.852  56.509
H  75.637  43.229  45.612
H  62.206  46.920  44.957
H  63.799  50.431  44.362
H  43.090  69.794  35.408
H  52.811  39.065  48.467
H  44.592  72.022  41.158
H  54.079  39.889  48.418
H  55.201  50.859  54.477
H  50.141  66.055  33.077
H  50.434  64.542  33.059
H  48.332  24.701  47.850
H  37.715  44.779  26.340
H  64.501  51.277  43.295
H  38.948  44.670  39.257
H  53.918  38.851  67.262
H  54.106  37.597  68.171
H  50.822  68.086  61.145
H  68.655  49.341  53.944
H  47.511  47.814  73.553
H  46.877  49.221  73.576
H  49.822  77.487  51.411
H  53.406  39.465  46.018
H  53.761  38.006  46.089
H  50.152  78.639  52.347
H  46.030  58.247  66.063
H  69.077  48.887  52.565
H  44.564  57.947  66.404
H  30.398  45.859  48.708
H  31.664  46.658  48.448
H  42.921  69.526  36.874
H  45.797  72.378  49.384
H  45.168  71.437  48.323
H  61.343  34.238  28.988
H  60.308  34.203  27.853
H  33.103  53.363  27.643
H  74.745  42.514  44.605
H  59.176  38.020  67.419
H  58.127  37.168  68.131
H  65.614  69.038  43.503
H  55.919  44.845  27.791
H  51.465  53.292  74.000
H  27.860  51.871  62.735
H  52.149  49.728  28.634
H  56.301  76.783  46.359
H  51.510  56.220  47.540
H  25.803  57.724  59.646
H  27.201  57.768  60.339
H  46.548  49.637  27.125
H  27.415  58.759  45.846
H  27.691  57.413  45.175
H  47.916  49.043  27.444
H  49.951  68.748  47.935
H  61.714  73.220  45.575
H  64.970  57.361  56.556
H  49.342  69.926  48.686
H  33.085  41.487  35.322
H  33.684  40.819  34.076
H  46.135  59.236  40.306
H  72.638  44.702  62.971
H  72.594  46.223  63.240
H  45.142  58.127  40.663
H  66.020  56.856  37.484
H  54.767  58.601  65.258
H  56.165  58.000  65.403
H  65.025  57.028  36.366
H  48.985  54.156  56.113
H  35.873  42.137  51.936
H  30.310  67.143  51.836
H  74.770  54.906  58.923
H  56.605  66.588  40.714
H  69.555  60.229  43.896
H  56.735  66.406  39.192
H  56.104  50.009  66.867
H  32.885  35.300  60.988
H  37.573  41.764  37.980
H  33.166  36.790  61.063
H  57.621  51.303  56.187
H  54.556  45.332  50.422
H  55.699  46.162  49.787
H  74.455  57.345  58.893
H  54.112  74.433  46.581
H  69.767  51.902  48.598
H  53.693  75.867  46.880
H  53.055  42.725  57.229
H  22.289  54.252  57.465
H  22.735  55.411  56.589
H  51.572  42.982  57.296
H  40.591  62.639  45.896
H  41.612  62.262  46.973
H  74.551  57.243  60.411
H  75.159  53.456  58.591
H  71.114  51.512  47.976
H  56.488  34.868  37.419
H  61.369  71.890  46.268
H  65.410  56.495  57.728
H  36.150  66.497  50.878
H  39.225  66.750  35.260
H  38.664  66.759  36.627
H  35.126  67.434  50.220
H  55.358  46.976  65.462
H  30.412  50.520  41.535
H  29.746  50.557  40.133
H  66.505  58.474  38.540
H  24.368  63.340  48.250
H  23.870  62.189  49.131
H  27.806  53.888  60.178
H  61.963  65.933  46.305
H  34.049  58.906  56.459
H  55.156  48.397  66.011
H  63.188  65.862  45.360
H  53.528  59.851  63.296
H  52.757  58.613  63.724
H  49.975  54.650  50.880
H  50.391  62.922  43.455
H  51.501  62.125  44.202
H  69.107  41.962  62.014
H  27.501  55.304  59.577
H  34.150  57.417  56.823
H  73.731  59.973  58.411
H  56.921  51.306  66.978
H  50.069  73.777  60.394
H  74.492  59.163  57.337
H  70.665  61.182  43.425
H  41.581  57.748  46.114
H  42.634  56.665  46.448
H  50.154  50.221  56.366
H  55.708  69.313  50.084
H  38.168  36.204  47.833
H  54.215  69.536  49.818
H  72.005  49.265  41.605
H  52.530  37.291  52.546
H  51.111  72.868  59.771
H  52.229  37.984  51.208
H  54.874  39.783  25.929
H  53.791  38.723  26.224
H  63.838  25.565  55.045
H  39.661  35.836  47.551
H  70.596  48.643  38.220
H  71.111  48.404  39.655
H  46.266  35.084  35.707
H  36.894  68.025  36.978
H  37.726  69.184  36.574
H  46.278  33.566  35.803
H  71.742  50.759  41.263
H  41.644  24.496  50.740
H  42.973  23.912  50.203
H  29.179  66.481  51.057
H  40.097  47.400  39.313
H  71.297  59.101  64.518
H  51.949  59.187  61.884
H  66.495  54.647  57.941
H  65.851  53.786  58.995
H  34.286  66.995  47.654
H  73.743  63.826  40.468
H  74.050  62.380  39.989
H  61.142  53.621  48.423
H  74.530  41.566  57.343
H  71.027  60.478  65.110
H  49.142  55.735  41.721
H  46.944  69.982  63.647
H  75.105  40.778  58.482
H  75.681  46.534  55.289
H  76.864  45.862  54.587
H  46.441  42.362  36.556
H  62.486  53.182  48.911
H  56.040  46.167  62.629
H  52.043  29.440  32.741
H  71.397  47.460  68.695
H  70.067  47.928  69.293
H  47.183  71.486  63.881
H  57.527  45.946  62.232
H  39.212  47.266  40.558
H  59.294  56.171  69.621
H  50.583  66.715  47.677
H  62.509  65.586  55.209
H  45.424  49.949  33.323
H  61.950  66.933  54.799
H  69.747  54.129  44.021
H  67.806  70.702  41.999
H  67.537  70.635  40.485
H  51.981  29.438  53.745
H  57.242  62.309  69.697
H  56.894  61.127  70.547
H  59.808  57.397  68.889
H  42.127  53.146  31.683
H  28.268  40.729  55.048
H  29.429  40.430  54.126
H  45.806  49.227  34.611
H  34.784  42.140  28.777
H  34.484  43.594  29.166
H  62.743  41.841  41.265
H  51.589  61.882  36.450
H  43.383  53.957  32.042
H  61.499  41.945  42.100
H  50.594  58.497  62.032
H  38.574  64.086  45.788
H  24.327  50.075  48.587
H  22.980  50.214  49.346
H  61.454  27.753  36.600
H  64.616  27.537  49.247
H  60.746  48.028  62.447
H  34.704  49.312  50.347
H  53.292  53.579  53.778
H  55.926  33.806  38.380
H  49.295  33.489  61.751
H  53.989  28.407  44.990
H  40.790  62.383  28.967
H  54.877  29.565  45.319
H  50.297  32.652  62.548
H  51.059  70.756  42.945
H  61.507  74.830  41.284
H  40.484  62.155  27.468
H  49.867  30.310  42.744
H  49.372  29.307  41.706
H  32.629  47.344  61.959
H  50.772  52.009  51.230
H  65.062  67.018  58.976
H  66.112  68.145  59.314
H  33.112  46.708  60.661
H  63.269  31.155  47.814
H  64.366  31.803  46.951
H  60.104  75.098  40.728
H  45.328  35.759  50.958
H  56.174  33.180  42.648
H  55.363  33.394  43.934
H  57.433  54.711  38.464
H  60.998  29.210  36.601
H  57.073  56.188  38.222
H  51.271  29.705  34.024
H  50.201  56.673  41.144
H  34.511  66.564  46.196
H  37.224  34.765  59.808
H  69.539  52.689  44.386
H  34.277  62.770  60.597
H  34.233  61.395  61.260
H  57.824  31.062  37.217
H  57.536  32.615  36.959
H  36.892  36.242  59.590
H  38.321  61.619  71.914
H  37.091  62.364  72.462
H  62.199  38.487  57.207
H  47.575  70.171  45.907
H  51.254  70.407  41.474
H  46.490  71.217  46.097
H  63.243  37.520  56.626
H  51.441  51.329  30.354
H  51.373  49.881  30.843
H  46.102  37.047  51.313
H  55.226  54.562  54.825
H  53.193  49.809  72.128
H  55.894  54.620  63.544
H  55.857  54.724  70.659
H  42.777  26.635  41.876
H  25.371  38.961  54.666
H  26.567  38.444  53.858
H  66.964  62.948  60.382
H  25.239  48.054  57.243
H  24.778  46.689  56.766
H  68.229  62.692  59.577
H  42.080  46.284  27.794
H  54.364  44.697  36.047
H  54.356  44.314  37.543
H  36.836  63.413  59.194
H  41.555  45.752  29.121
H  58.942  45.108  75.462
H  53.957  69.945  67.952
H  35.577  54.749  55.015
H  56.038  70.229  58.979
H  65.837  62.615  38.773
H  35.585  37.103  37.842
H  35.933  37.377  36.383
H  57.259  70.873  59.621
H  72.839  65.283  47.930
H  74.008  55.244  40.503
H  59.628  45.376  76.793
H  74.882  55.732  41.634
H  36.014  62.118  59.178
H  41.420  26.529  42.530
H  56.521  50.124  33.666
H  23.865  51.070  41.073
H  62.057  67.503  32.506
H  77.214  53.334  48.994
H  77.570  54.628  48.238
H  63.281  68.267  31.996
H  67.241  52.638  69.364
H  67.304  53.922  70.161
H  53.402  49.243  46.890
H  53.673  62.695  29.569
H  50.327  56.688  48.750
H  48.852  32.028  43.524
H  51.774  52.657  32.289
H  49.689  42.985  73.465
H  47.600  44.341  50.797
H  46.951  59.359  49.110
H  32.618  43.874  30.650
H  60.414  67.578  60.228
H  55.085  69.675  66.962
H  45.234  70.625  66.569
H  40.482  57.700  28.117
H  39.137  57.870  27.402
H  54.458  62.777  30.895
H  55.005  50.290  33.736
H  72.443  65.332  46.428
H  72.119  43.915  52.319
H  29.154  51.415  46.987
H  62.507  25.088  43.570
H  29.724  52.504  46.031
H  31.460  61.652  39.663
H  26.443  51.634  44.414
H  27.898  52.026  44.480
H  30.138  60.877  39.465
H  74.737  56.836  52.196
H  76.245  56.663  52.044
H  61.623  26.321  43.835
H  51.129  54.516  55.491
H  27.007  64.613  57.442
H  50.112  30.281  46.656
H  29.413  50.517  37.249
H  36.839  55.384  59.539
H  47.535  50.527  57.283
H  57.844  76.732  46.343
H  65.023  53.722  61.105
H  64.362  54.568  60.023
H  62.392  26.052  54.787
H  63.718  65.651  57.506
H  63.347  67.073  57.083
H  65.621  27.942  42.661
H  73.172  42.843  51.858
H  45.338  74.076  62.610
H  35.155  30.752  41.932
H  45.727  39.735  26.701
H  38.708  76.595  49.901
H  39.509  75.455  49.258
H  52.648  54.026  57.390
H  46.143  39.258  25.310
H  47.073  74.564  48.811
H  47.463  75.155  47.433
H  65.857  63.553  39.991
H  27.750  45.092  56.611
H  26.309  45.285  57.103
H  46.330  72.925  62.609
H  60.426  68.546  61.401
H  49.902  45.634  50.832
H  77.555  46.933  42.310
H  28.852  51.948  37.191
H  49.540  31.737  46.812
H  44.861  51.942  26.186
H  44.259  50.909  25.256
H  64.262  28.566  42.932
H  33.651  31.092  42.167
H  59.850  69.948  52.911
H  59.285  68.571  53.406
H  37.158  54.687  54.558
H  22.460  51.714  41.216
H  58.369  38.992  64.352
H  57.715  40.191  65.096
H  61.519  47.968  26.837
H  41.327  53.794  50.992
H  41.923  54.849  51.904
H  60.056  47.486  27.006
H  45.690  43.364  74.383
H  47.129  43.581  74.759
H  42.038  54.729  24.747
H  42.274  54.278  23.289
H  37.084  72.295  38.186
H  37.369  73.678  38.729
H  44.477  37.350  61.986
H  30.811  35.098  46.402
H  67.656  40.454  64.422
H  30.673  34.024  45.335
H  38.984  42.043  70.356
H  38.233  42.390  69.016
H  51.241  55.819  51.121
H  38.444  40.549  37.580
H  57.243  54.916  64.239
H  45.084  35.777  62.436
H  53.543  51.039  54.470
H  51.400  62.419  33.967
H  66.814  41.731  64.320
H  52.812  73.066  53.418
H  66.588  59.612  39.563
H  73.411  48.269  39.497
H  54.384  55.105  70.944
H  70.256  41.790  34.670
H  69.775  41.430  36.049
H  41.849  44.299  27.097
H  42.280  43.178  26.104
H  41.361  49.451  58.659
H  45.338  54.146  23.341
H  44.905  54.498  21.913
H  40.134  48.522  58.649
H  53.551  71.658  60.140
H  70.382  42.189  62.815
H  53.589  70.701  58.930
H  71.013  51.270  37.245
H  69.659  50.594  37.371
H  64.167  52.745  72.698
H  35.254  71.600  42.710
H  34.052  72.526  42.772
H  63.412  51.509  73.165
H  36.096  59.447  48.430
H  48.233  30.786  63.679
H  74.188  49.529  39.098
H  22.847  46.835  48.092
H  48.525  31.273  62.234
H  31.197  63.904  32.969
H  30.837  62.643  32.146
H  23.628  47.824  48.939
H  48.831  29.861  51.828
H  59.231  40.066  40.678
H  54.609  62.221  34.996
H  55.564  63.421  35.235
H  44.356  71.714  67.227
H  55.020  59.976  35.794
H  62.797  70.120  59.112
H  61.835  70.921  58.244
H  42.940  50.436  32.886
H  42.449  48.355  71.686
H  49.616  28.498  51.838
H  43.163  47.021  71.903
H  68.597  64.776  37.599
H  53.605  59.826  35.253
H  67.157  64.419  37.307
H  47.318  67.210  34.679
H  53.210  52.340  31.838
H  47.620  59.123  47.743
H  50.391  42.334  72.292
H  42.796  57.895  61.272
H  43.143  56.492  60.849
H  76.178  47.635  42.414
H  43.497  50.915  34.225
H  59.726  39.428  41.949
H  43.920  49.421  27.205
H  44.820  49.798  28.408
H  55.788  60.195  24.350
H  57.054  59.321  24.538
H  53.860  72.780  52.358
H  50.676  48.379  46.100
H  50.770  60.620  73.760
H  51.513  59.410  74.302
H  41.164  39.268  61.707
H  52.765  61.781  33.966
H  42.674  39.422  61.623
H  34.721  68.792  60.923
H  58.253  40.531  68.881
H  59.657  40.851  68.303
H  34.882  70.282  61.238
H  40.853  36.630  31.454
H  43.164  61.616  29.704
H  42.771  60.142  29.905
H  40.125  37.942  31.274
H  34.757  43.301  52.545
H  33.960  44.090  31.392
H  33.619  66.114  62.255
H  48.178  66.822  35.922
H  47.721  31.593  44.430
H  47.955  52.993  58.512
H  34.872  58.502  48.237
H  34.876  45.666  61.892
H  50.251  60.141  45.955
H  35.448  72.467  55.185
H  52.415  54.216  30.304
H  35.828  46.605  64.359
H  35.444  45.881  65.659
H  55.569  30.186  42.677
H  40.257  40.262  41.930
H  52.963  55.023  31.485
H  41.370  40.305  40.865
H  54.950  31.332  43.482
H  63.742  38.286  60.087
H  38.248  59.504  36.677
H  77.095  55.901  41.688
H  73.835  42.846  39.148
H  49.343  46.398  49.360
H  52.919  41.713  41.530
H  70.170  59.765  61.781
H  53.197  56.160  29.223
H  54.220  55.035  29.170
H  70.994  60.629  62.712
H  54.911  42.863  31.560
H  64.245  39.283  49.849
H  65.390  40.245  49.700
H  55.232  42.313  30.162
H  38.234  39.375  26.670
H  59.563  55.438  35.102
H  76.895  55.836  40.158
H  54.391  49.416  51.382
H  72.243  57.005  49.244
H  32.039  56.378  40.346
H  30.880  55.825  39.515
H  72.416  56.448  47.836
H  66.920  56.514  69.972
H  66.895  56.202  68.473
H  53.268  48.160  50.930
H  28.734  47.063  48.417
H  30.189  38.680  66.952
H  27.878  46.510  49.539
H  61.052  32.228  67.768
H  27.442  45.309  34.190
H  74.569  43.932  38.415
H  62.366  38.598  60.629
H  65.355  66.774  62.881
H  64.508  65.862  61.979
H  46.243  60.582  25.232
H  51.581  51.984  62.291
H  52.549  52.176  61.104
H  60.566  33.545  68.362
H  62.539  38.374  31.710
H  61.751  37.755  30.500
H  28.961  52.798  39.413
H  53.982  49.542  68.592
H  59.157  56.800  35.726
H  39.091  64.910  41.491
H  70.560  35.669  50.928
H  69.230  35.146  50.406
H  58.136  69.739  51.526
H  60.656  56.716  56.984
H  62.074  56.504  56.411
H  57.106  68.658  51.304
H  33.232  46.870  65.029
H  65.055  45.730  58.472
H  63.649  61.410  43.929
H  33.267  57.953  51.322
H  36.020  69.720  58.312
H  35.869  49.044  35.430
H  58.070  65.475  71.583
H  57.877  66.714  72.508
H  60.003  58.137  74.449
H  46.153  32.999  46.372
H  47.041  33.909  45.532
H  37.283  48.506  35.659
H  69.590  64.988  64.301
H  60.984  57.817  73.225
H  68.918  65.809  65.400
H  50.020  28.705  31.798
H  36.746  29.393  40.045
H  39.583  28.944  61.055
H  38.675  68.991  57.213
H  28.437  64.566  61.830
H  37.714  65.038  40.819
H  53.848  49.993  48.961
H  39.599  28.206  62.408
H  53.042  53.536  27.403
H  53.713  54.837  27.060
H  47.138  68.454  70.213
H  28.684  54.384  36.189
H  30.108  54.878  36.088
H  53.001  40.641  42.625
H  32.011  47.760  65.112
H  29.688  63.925  61.272
H  38.321  58.342  37.651
H  51.307  68.646  56.203
H  51.945  69.925  56.794
H  29.073  38.447  65.928
H  46.701  50.786  53.286
H  38.851  55.262  66.999
H  39.911  56.385  67.039
H  41.038  49.931  63.283
H  52.339  35.926  25.145
H  51.712  36.934  26.057
H  41.149  48.885  62.172
H  40.194  69.031  57.302
H  28.431  46.494  58.760
H  33.192  33.226  52.128
H  53.334  48.380  69.425
H  76.800  47.177  39.974
H  75.729  47.441  38.907
H  26.217  44.528  42.675
H  63.211  47.160  57.219
H  63.444  45.762  56.616
H  51.506  69.786  53.838
H  76.972  51.963  54.099
H  76.794  50.529  53.634
H  52.651  68.783  54.019
H  28.107  41.690  57.604
H  36.698  68.856  59.337
H  49.643  22.600  56.571
H  26.895  41.164  56.856
H  64.671  45.368  33.911
H  26.975  60.978  51.412
H  47.193  69.349  71.469
H  65.838  33.547  46.175
H  59.234  33.791  58.322
H  59.337  34.808  59.456
H  62.600  47.126  71.465
H  58.610  58.929  45.105
H  51.718  56.906  25.129
H  50.077  22.117  57.942
H  58.068  60.362  44.844
H  26.379  43.846  44.044
H  47.423  40.954  59.476
H  31.602  59.493  68.870
H  69.221  34.805  46.521
H  53.605  50.084  44.471
H  45.171  66.747  46.265
H  45.435  65.291  46.618
H  45.264  35.273  56.312
H  25.458  36.155  46.301
H  26.811  36.736  45.909
H  45.688  35.746  57.707
H  41.442  58.356  58.211
H  48.741  41.067  60.261
H  40.917  59.325  57.156
H  70.155  56.794  56.253
H  65.789  46.386  33.688
H  29.118  64.992  56.461
H  38.992  67.350  48.862
H  31.355  44.657  41.666
H  38.354  67.433  50.217
H  36.789  39.828  27.009
H  67.281  54.045  65.257
H  67.348  52.643  64.632
H  53.960  51.722  46.512
H  71.269  56.963  55.242
H  33.890  34.482  52.720
H  64.063  46.977  70.930
H  34.576  40.472  30.936
H  48.834  47.054  23.722
H  57.594  49.276  58.379
H  65.136  69.570  40.379
H  64.969  70.064  41.777
H  57.749  47.769  58.383
H  40.604  57.232  37.286
H  40.752  58.449  36.423
H  42.624  65.667  43.672
H  57.165  73.749  39.229
H  58.108  72.793  39.958
H  52.722  33.143  56.562
H  52.417  51.219  43.850
H  49.442  49.764  63.024
H  44.796  60.307  25.637
H  28.785  45.868  34.504
H  46.323  45.926  74.009
H  49.190  52.283  53.824
H  37.790  38.320  31.722
H  38.630  38.795  32.938
H  45.276  46.670  73.198
H  38.466  56.829  50.860
H  37.443  57.399  51.863
H  50.835  49.164  63.292
H  34.053  41.613  31.863
H  52.356  32.939  58.015
H  66.138  42.533  55.811
H  51.046  50.925  45.946
H  39.904  35.999  40.803
H  41.387  35.631  40.597
H  40.682  52.672  41.493
H  38.909  54.424  49.042
H  33.305  56.148  65.832
H  33.144  56.870  64.476
H  42.168  52.448  41.146
H  30.560  37.523  46.432
H  31.962  37.495  45.829
H  49.153  45.666  23.147
H  40.840  53.384  29.313
H  52.129  55.760  26.085
H  66.621  32.755  47.253
H  27.981  61.141  52.540
H  44.011  65.988  44.283
H  30.603  45.840  42.273
H  32.038  53.486  37.884
H  47.690  63.457  71.087
H  32.873  54.726  38.164
H  51.973  49.533  44.120
H  66.229  43.719  56.840
H  66.112  40.324  53.247
H  50.810  27.399  31.763
H  44.394  51.119  44.418
H  65.636  44.363  50.287
H  78.270  48.581  46.613
H  47.568  41.825  38.806
H  48.041  57.224  26.810
H  54.696  61.745  65.599
H  37.476  41.227  43.030
H  57.337  52.036  61.188
H  58.274  51.583  62.317
H  54.950  48.625  53.523
H  44.637  64.230  41.317
H  51.787  75.185  52.117
H  64.066  37.445  44.388
H  43.418  64.895  40.605
H  32.130  37.970  64.546
H  31.805  37.888  63.037
H  54.823  36.294  62.187
H  24.378  42.738  54.580
H  24.962  43.653  55.675
H  50.594  74.395  51.570
H  52.379  54.432  49.065
H  58.321  51.516  69.226
H  56.900  51.911  68.854
H  48.005  64.875  46.149
H  55.861  37.385  61.805
H  37.083  26.130  52.168
H  65.344  37.596  45.184
H  25.817  48.716  54.706
H  72.657  52.427  39.493
H  48.884  42.458  38.363
H  39.490  68.694  54.937
H  28.344  42.670  33.368
H  48.611  72.510  52.735
H  28.009  43.799  32.432
H  60.728  64.639  41.996
H  48.003  41.425  72.457
H  47.340  42.774  72.655
H  59.328  64.072  42.170
H  66.855  37.523  48.597
H  54.918  51.799  60.936
H  33.785  58.706  50.112
H  52.037  56.878  49.085
H  70.778  62.184  59.576
H  70.831  60.922  58.693
H  65.866  66.674  50.900
H  73.046  34.164  53.265
H  72.383  34.390  51.902
H  65.615  66.011  52.318
H  40.491  50.337  36.111
H  41.785  49.924  35.312
H  55.278  53.291  60.720
H  50.459  52.859  48.848
H  38.031  24.933  52.235
H  53.264  61.961  65.275
H  54.069  36.824  71.626
H  35.019  66.208  59.186
H  35.611  62.491  66.975
H  58.542  43.047  65.002
H  34.221  62.014  67.378
H  58.181  57.800  49.607
H  59.644  58.039  49.979
H  60.058  57.569  24.059
H  48.544  46.982  52.149
H  66.220  55.013  49.927
H  55.358  36.476  70.854
H  67.025  53.716  50.068
H  37.851  43.164  61.846
H  36.457  43.307  62.409
H  65.909  51.603  71.113
H  44.382  32.167  41.199
H  45.033  32.664  42.495
H  71.422  42.665  47.736
H  71.977  43.582  48.833
H  34.992  63.043  31.276
H  33.563  63.263  30.771
H  48.348  39.444  56.977
H  65.751  50.301  71.991
H  47.869  66.069  47.087
H  60.124  65.301  34.750
H  51.636  74.849  61.864
H  46.908  68.053  52.322
H  38.365  42.163  42.177
H  47.756  56.848  28.269
H  45.685  68.884  51.930
H  44.437  75.637  52.834
H  60.856  64.360  72.766
H  53.801  40.222  60.722
H  60.194  65.397  71.901
H  45.858  76.060  53.108
H  37.067  49.577  71.596
H  51.720  73.354  62.203
H  37.171  48.031  71.324
H  70.570  33.381  58.374
H  70.315  33.211  59.900
H  32.024  59.063  54.504
H  36.514  71.601  50.538
H  42.965  39.184  44.827
H  42.735  39.591  46.296
H  30.881  60.110  54.575
H  42.387  36.913  63.742
H  42.630  38.383  64.033
H  61.113  66.369  34.192
H  47.184  52.867  56.939
H  52.887  70.318  64.354
H  51.746  71.259  64.037
H  71.983  51.072  39.230
H  51.604  69.680  46.402
H  47.735  56.175  47.042
H  46.313  56.171  46.492
H  52.594  69.549  45.254
H  26.542  49.413  41.147
H  27.135  50.417  42.117
H  46.675  32.274  39.957
H  33.826  38.989  29.067
H  58.644  26.876  53.115
H  59.376  49.214  68.125
H  52.595  48.024  59.437
H  64.424  29.439  36.683
H  33.061  43.564  40.950
H  34.562  43.753  41.106
H  70.851  59.373  41.265
H  70.261  60.715  41.630
H  38.923  43.450  54.797
H  57.289  48.345  62.588
H  56.611  49.634  63.056
H  37.392  43.289  54.923
H  67.971  37.405  63.117
H  48.132  51.368  46.555
H  64.727  29.462  38.180
H  67.799  36.005  63.629
H  30.790  34.350  50.401
H  53.751  48.180  58.428
H  66.811  44.710  51.193
H  44.923  36.219  64.961
H  34.344  64.290  34.023
H  27.863  60.935  35.966
H  26.714  60.711  36.991
H  45.157  35.846  66.415
H  47.663  31.394  39.189
H  44.412  51.328  46.152
H  58.601  60.261  42.466
H  59.500  61.230  41.645
H  31.761  33.386  49.710
H  35.925  28.411  39.245
H  55.953  61.390  44.464
H  37.403  67.457  63.610
H  37.396  66.006  64.049
H  55.554  60.919  43.049
H  69.857  37.316  52.298
H  35.555  72.222  49.564
H  70.898  37.801  53.319
H  47.524  53.087  44.861
H  38.889  47.071  26.248
H  39.153  48.537  26.570
H  64.670  47.221  26.690
H  42.257  44.665  33.543
H  50.215  43.669  33.878
H  49.348  44.884  33.552
H  46.886  50.707  44.499
H  46.219  61.436  56.403
H  47.169  60.263  56.699
H  63.518  46.426  27.325
H  37.809  56.020  57.177
H  36.386  55.459  57.024
H  77.547  47.246  46.868
H  25.489  50.222  54.642
H  40.747  69.456  54.576
H  53.324  55.168  56.242
H  50.695  53.560  39.015
H  57.347  27.878  37.982
H  52.304  60.136  41.387
H  41.155  50.188  75.126
H  42.459  50.875  75.375
H  53.533  59.289  41.015
H  54.583  35.983  40.275
H  45.521  58.399  70.404
H  44.263  58.099  71.195
H  54.947  37.435  39.925
H  35.643  42.046  71.648
H  36.699  42.601  70.662
H  58.577  28.692  37.637
H  61.112  47.047  50.886
H  61.533  45.722  51.497
H  45.187  57.594  44.719
H  31.194  52.787  40.351
H  45.347  48.603  67.695
H  43.984  49.197  67.641
H  31.207  52.994  41.855
H  34.669  64.753  58.896
H  66.514  46.092  67.278
H  60.145  49.789  66.948
H  58.379  27.055  51.618
H  65.261  45.913  66.452
H  35.564  64.585  33.131
H  53.671  38.961  59.128
H  43.819  73.531  60.306
H  42.715  74.482  60.764
H  53.368  38.016  60.295
H  64.649  38.776  52.094
H  64.171  40.222  52.057
H  44.827  49.777  45.469
H  50.764  54.693  28.753
H  51.205  53.796  37.606
H  50.128  53.306  28.916
H  46.189  58.322  45.642
H  36.732  57.931  44.311
H  36.176  56.683  44.974
H  31.332  59.346  67.386
H  45.154  56.394  64.713
H  38.237  35.797  45.045
H  37.134  35.130  45.885
H  58.822  39.672  31.155
H  60.354  39.742  31.414
H  43.871  62.630  25.195
H  32.126  27.506  47.114
H  33.287  26.888  46.312
H  27.778  48.670  56.974
H  27.380  47.403  56.286
H  26.455  53.097  42.214
H  67.038  30.942  58.426
H  26.622  52.266  40.943
H  43.083  62.297  26.473
H  59.602  50.677  39.580
H  58.338  74.032  46.522
H  68.439  31.948  60.248
H  68.314  30.772  61.202
H  47.289  53.238  25.000
H  34.453  43.769  58.956
H  33.007  44.253  58.961
H  46.640  51.963  24.508
H  65.699  31.197  57.678
H  54.812  64.189  52.653
H  55.225  63.267  51.494
H  57.071  74.065  45.652
H  48.752  59.589  37.226
H  64.352  39.366  64.774
H  55.500  42.970  54.802
H  51.028  40.413  63.708
H  59.603  39.311  59.852
H  61.776  62.485  33.417
H  60.704  63.564  33.438
H  58.158  38.859  60.106
H  32.573  61.382  55.803
H  65.033  52.402  27.128
H  56.592  52.465  63.150
H  55.138  52.296  63.021
H  60.423  32.678  56.517
H  65.188  38.221  64.257
H  22.476  55.257  52.867
H  60.276  33.765  55.451
H  56.710  27.277  63.272
H  57.224  28.700  62.947
H  39.569  47.011  54.324
H  39.780  48.471  53.910
H  47.383  60.227  37.458
H  57.707  43.600  50.402
H  64.174  52.578  28.357
H  44.831  43.472  55.251
H  58.648  49.680  40.189
H  23.974  55.517  52.624
H  49.702  41.081  64.105
H  37.664  66.358  32.728
H  30.612  65.400  58.300
H  33.706  38.238  33.991
H  47.883  41.979  40.732
H  46.846  40.861  40.698
H  45.333  52.495  69.432
H  63.918  62.056  30.627
H  62.797  62.252  31.651
H  45.765  51.041  69.400
H  42.762  57.722  24.689
H  41.652  56.850  24.099
H  63.763  40.038  62.104
H  59.559  42.289  39.444
H  64.979  40.759  62.697
H  41.775  44.054  61.366
H  41.409  43.040  60.266
H  55.016  38.624  41.667
H  66.217  33.977  57.996
H  65.985  35.447  58.307
H  55.355  25.386  50.258
H  56.449  26.196  49.577
H  32.757  28.113  43.278
H  36.362  68.788  39.611
H  35.339  67.709  39.999
H  56.489  39.006  41.778
H  41.048  69.237  45.909
H  60.435  41.059  39.236
H  51.722  31.785  41.362
H  29.259  65.064  58.925
H  40.581  68.192  46.898
H  35.366  38.243  30.662
H  35.363  36.761  31.009
H  46.991  32.827  28.506
H  47.366  34.136  29.221
H  38.465  65.222  32.077
H  48.097  40.486  70.254
H  49.340  41.326  70.036
H  46.304  73.070  35.302
H  52.431  33.121  41.379
H  34.206  38.741  35.308
H  33.781  41.636  42.005
H  32.269  41.954  42.122
H  37.171  46.931  47.823
H  54.474  47.187  23.362
H  53.634  47.803  22.225
H  36.620  48.157  48.522
H  38.107  59.563  62.915
H  39.118  58.424  62.556
H  49.810  57.598  22.581
H  48.621  58.532  22.284
H  46.151  74.516  34.918
H  29.124  69.801  51.113
H  29.993  70.838  51.831
H  57.048  42.210  50.294
H  59.972  30.236  63.407
H  33.384  61.627  53.060
H  38.632  50.333  65.229
H  57.882  44.171  41.949
H  56.555  43.926  42.748
H  33.687  60.584  51.996
H  37.725  44.077  74.970
H  38.021  45.579  75.025
H  65.333  68.500  45.842
H  64.917  69.489  46.924
H  34.907  68.947  35.685
H  53.344  55.205  42.304
H  24.033  54.469  58.868
H  54.027  54.596  43.518
H  32.542  39.990  68.946
H  66.842  51.365  56.627
H  67.434  52.186  57.761
H  29.713  56.239  44.640
H  69.474  67.605  61.359
H  66.494  58.537  45.440
H  66.766  54.430  44.509
H  67.558  55.131  45.612
H  24.157  54.532  60.421
H  66.853  57.664  46.639
H  34.170  69.487  36.907
H  55.715  53.961  73.642
H  36.740  47.253  25.996
H  44.737  39.719  43.405
H  50.150  27.612  54.689
H  48.689  27.267  54.526
H  31.366  49.954  60.685
H  59.652  74.062  56.567
H  58.954  72.764  57.024
H  31.469  51.510  60.613
H  64.778  53.601  63.796
H  63.767  54.724  63.568
H  37.898  56.095  61.243
H  51.424  49.565  67.521
H  35.216  47.626  26.060
H  39.710  49.938  66.205
H  56.030  60.167  76.010
H  60.280  28.766  63.185
H  26.206  45.959  63.152
H  27.350  46.905  62.873
H  66.653  51.991  59.865
H  67.576  53.235  59.880
H  37.790  56.615  62.701
H  54.576  54.906  73.988
H  50.550  50.457  66.633
H  45.376  26.765  50.860
H  44.657  26.264  49.629
H  74.723  53.631  53.042
H  35.401  64.194  36.037
H  47.335  33.810  39.218
H  48.517  33.346  40.075
H  36.458  34.311  41.827
H  37.555  35.011  41.005
H  52.635  65.388  53.304
H  26.706  37.955  47.499
H  26.302  39.352  47.785
H  52.470  63.879  53.378
H  43.326  50.813  59.226
H  52.093  72.795  45.424
H  42.532  51.710  60.207
H  61.028  60.450  48.227
H  45.704  62.485  61.260
H  54.959  70.747  65.040
H  56.450  71.003  65.234
H  46.228  43.136  55.826
H  55.612  58.703  76.181
H  54.408  42.117  54.139
H  32.266  62.770  56.418
H  40.882  51.571  72.766
H  41.093  51.428  71.283
H  62.243  60.771  49.066
H  52.411  74.272  45.301
H  34.567  64.717  37.229
H  63.119  45.281  67.350
H  75.953  53.849  52.222
H  48.912  42.694  27.964
H  29.079  55.543  45.876
H  48.628  44.124  28.405
H  33.707  39.313  69.748
H  43.622  61.121  52.621
H  42.863  61.729  51.436
H  25.627  43.307  46.802
H  26.963  42.673  46.649
H  36.531  51.484  52.255
H  69.040  68.544  56.736
H  69.684  68.926  55.365
H  37.871  50.394  52.294
H  61.788  38.233  42.776
H  60.972  36.963  42.599
H  32.924  68.190  42.547
H  68.137  67.159  60.744
H  55.749  35.307  30.536
H  54.896  34.046  30.331
H  46.683  62.204  62.419
H  53.300  53.857  68.739
H  54.531  54.753  68.454
H  64.207  44.620  68.263
H  33.860  27.136  42.816
H  41.436  27.507  61.153
H  69.745  37.947  61.310
H  53.527  40.404  62.233
H  61.354  58.277  47.260
H  32.607  48.366  26.949
H  33.988  48.958  26.889
H  59.830  58.358  47.291
H  37.866  35.378  29.631
H  39.051  36.331  29.815
H  44.358  66.952  58.854
H  40.259  51.631  24.215
H  35.003  59.687  60.322
H  33.726  59.586  59.483
H  36.082  30.267  37.499
H  53.101  46.685  33.671
H  62.701  55.491  65.951
H  53.608  46.549  35.094
H  61.864  69.539  64.689
H  61.771  70.864  63.930
H  45.852  53.333  50.582
H  39.167  63.662  72.280
H  48.467  36.919  36.471
H  53.749  39.706  55.921
H  65.937  55.701  65.702
H  41.271  69.533  66.482
H  61.435  54.860  66.587
H  28.284  35.689  61.784
H  41.756  51.751  23.705
H  46.789  51.876  50.272
H  32.554  32.337  54.979
H  67.466  43.688  48.450
H  33.450  31.236  54.426
H  45.390  52.893  53.667
H  73.015  46.089  32.692
H  72.084  46.121  33.909
H  53.652  24.585  48.540
H  51.433  68.023  63.373
H  52.567  68.934  62.938
H  52.747  25.022  49.675
H  34.571  30.286  37.783
H  49.530  50.962  31.769
H  55.245  43.478  65.004
H  48.978  52.253  31.198
H  52.185  30.174  37.068
H  51.455  28.814  37.149
H  47.982  35.544  36.985
H  40.492  62.875  72.571
H  41.450  45.252  71.021
H  56.095  35.740  48.443
H  46.882  53.666  54.190
H  68.130  43.896  47.053
H  56.247  44.581  65.248
H  40.585  46.142  71.940
H  28.063  37.122  62.172
H  22.981  54.199  50.460
H  53.086  58.338  36.786
H  61.272  34.849  60.662
H  30.892  34.217  56.494
H  73.120  37.716  49.368
H  72.632  36.372  49.886
H  51.904  57.364  36.755
H  40.765  60.214  49.399
H  42.150  60.502  50.005
H  46.020  67.483  30.608
H  45.901  54.389  52.913
H  60.321  35.890  61.272
H  61.387  29.743  65.735
H  46.668  68.020  31.889
H  64.643  60.315  29.806
H  65.994  60.451  29.083
H  48.752  30.362  66.340
H  48.028  31.614  65.822
H  38.820  49.283  62.009
H  52.721  52.792  45.880
H  68.761  36.192  46.904
H  30.124  66.084  56.187
H  45.739  55.071  65.282
H  60.307  28.673  65.961
H  40.770  70.923  66.900
H  32.022  33.654  57.398
H  60.921  35.326  38.164
H  21.451  54.263  50.440
H  47.939  53.244  51.986
H  64.835  65.240  37.277
H  38.406  48.332  38.024
H  65.528  65.664  38.567
H  43.122  52.021  72.297
H  35.686  61.193  41.342
H  35.298  61.014  39.886
H  44.587  52.447  72.363
H  59.948  53.434  33.432
H  60.041  34.131  38.464
H  58.863  53.371  34.519
H  63.039  53.635  44.094
H  43.805  24.505  56.159
H  45.190  25.129  56.142
H  40.992  51.508  65.938
H  48.281  70.623  54.666
H  67.383  56.170  66.054
H  64.649  59.141  55.677
H  48.796  70.307  53.250
H  64.950  60.500  55.092
H  58.762  32.938  63.035
H  39.666  49.052  37.580
H  56.383  40.481  58.048
H  56.628  39.520  56.886
H  57.594  36.026  48.316
H  64.851  32.402  64.040
H  42.988  63.096  56.797
H  45.336  51.793  51.246
H  50.428  67.846  30.767
H  64.098  69.728  64.212
H  65.202  68.950  64.988
H  61.336  44.794  27.623
H  53.753  24.173  56.966
H  53.480  23.498  58.275
H  60.304  45.073  26.548
H  36.562  49.949  46.089
H  56.149  34.694  27.087
H  57.055  35.383  26.073
H  46.004  52.988  43.978
H  58.089  31.353  30.685
H  59.385  30.509  30.709
H  58.064  23.372  53.481
H  44.580  47.737  26.243
H  44.978  46.262  26.102
H  56.956  24.231  52.834
H  36.470  48.430  45.956
H  66.044  33.108  63.443
H  50.575  69.278  30.238
H  61.837  53.703  55.949
H  29.704  50.636  62.295
H  48.353  47.075  43.996
H  60.127  60.828  32.337
H  58.676  60.420  48.110
H  58.443  43.086  57.647
H  58.104  41.671  58.089
H  46.666  47.008  46.378
H  57.328  60.012  47.586
H  43.789  56.921  57.028
H  42.537  56.753  56.193
H  23.427  48.945  52.649
H  62.027  47.963  73.662
H  30.063  50.504  63.757
H  60.781  47.418  74.375
H  64.015  46.703  59.405
H  62.156  52.405  43.897
H  61.709  45.649  75.612
H  60.935  61.363  31.176
H  36.174  54.805  38.069
H  35.153  54.533  39.203
H  23.983  50.313  52.144
H  41.613  35.285  66.570
H  42.236  36.596  66.006
H  32.912  45.064  45.609
H  63.144  45.867  75.007
H  60.614  54.450  55.434
H  31.779  45.054  46.677
H  64.843  50.158  47.650
H  57.281  31.553  54.706
H  58.686  31.994  55.187
H  62.354  70.022  62.027
H  38.960  36.164  38.264
H  56.936  52.395  43.578
H  58.219  51.538  43.665
H  37.853  37.188  37.998
H  71.384  36.703  56.200
H  70.097  37.302  56.715
H  46.011  53.395  45.687
H  61.746  70.742  60.842
H  24.407  51.998  47.776
H  24.932  52.869  48.907
H  32.545  47.918  66.974
H  42.941  40.011  66.617
H  44.068  40.748  67.343
H  31.143  47.771  67.568
H  67.393  32.753  51.109
H  66.057  32.460  50.423
H  43.648  64.336  56.157
H  41.424  52.162  67.256
H  54.767  40.419  56.846
H  53.272  28.648  66.413
H  47.302  58.805  54.742
H  54.521  27.828  66.745
H  47.518  57.309  54.649
H  37.523  49.462  67.288
H  35.971  55.550  50.132
H  36.619  56.875  49.797
H  38.394  48.281  67.586
H  69.725  68.123  50.179
H  69.199  69.571  50.214
H  66.154  61.062  45.911
H  31.311  45.206  66.381
H  69.923  53.274  31.113
H  69.510  51.837  30.822
H  72.020  40.248  64.429
H  40.566  52.364  38.504
H  40.868  51.068  39.263
H  70.696  40.552  63.689
H  62.735  35.028  67.152
H  32.645  45.308  67.073
H  62.435  34.986  68.687
H  52.118  49.713  53.163
H  65.788  36.779  53.512
H  67.256  36.486  53.245
H  37.715  50.309  61.699
H  63.391  50.526  47.931
H  52.427  47.994  53.081
H  53.563  48.599  63.955
H  41.707  27.590  59.619
H  58.899  44.571  65.113
H  33.693  54.307  30.230
H  67.304  63.976  64.431
H  70.551  56.776  67.164
H  64.168  63.281  33.570
H  58.620  61.355  67.908
H  38.830  25.424  42.798
H  56.661  29.292  57.268
H  38.673  25.664  41.295
H  57.555  30.539  57.316
H  48.857  75.439  54.477
H  43.126  60.643  56.930
H  44.557  32.180  28.415
H  41.952  60.971  55.987
H  41.463  43.189  64.148
H  40.409  44.256  64.499
H  54.001  44.806  77.608
H  37.855  36.587  43.007
H  51.934  65.161  58.243
H  53.366  64.772  58.683
H  73.391  55.045  37.744
H  32.610  42.264  64.230
H  31.836  43.165  63.231
H  72.606  56.386  37.641
H  50.165  75.204  53.715
H  67.742  32.729  41.312
H  31.908  51.756  30.374
H  36.055  52.027  25.723
H  36.904  36.478  32.435
H  58.026  46.258  24.966
H  63.320  63.990  32.460
H  43.130  32.730  28.655
H  69.802  56.323  68.407
H  27.900  40.207  60.300
H  28.137  39.250  59.121
H  68.512  63.366  65.152
H  45.056  38.312  69.321
H  54.251  45.817  76.461
H  34.805  51.168  25.699
H  45.556  39.706  68.829
H  48.558  74.386  35.910
H  49.862  74.717  35.159
H  32.663  38.432  54.553
H  69.717  67.608  58.496
H  70.925  68.463  58.851
H  32.312  37.113  53.884
H  38.761  72.994  40.486
H  35.182  59.017  36.667
H  35.512  60.328  35.919
H  59.719  61.520  66.854
H  38.567  74.366  41.083
H  38.245  35.784  32.755
H  67.547  33.485  42.582
H  57.507  74.746  48.765
H  40.779  40.486  75.866
H  54.572  72.100  49.994
H  33.068  64.378  60.148
H  31.710  63.690  60.118
H  49.733  68.640  45.222
H  68.406  41.415  57.037
H  68.208  40.394  55.960
H  56.747  65.677  30.099
H  56.902  64.245  30.692
H  49.930  34.104  44.279
H  42.504  52.769  56.481
H  51.423  34.272  44.558
H  38.673  30.808  53.058
H  40.171  30.746  52.871
H  41.457  27.390  63.868
H  63.909  57.992  61.768
H  51.465  45.099  46.553
H  64.556  56.893  62.591
H  36.385  64.813  47.248
H  74.881  49.560  54.659
H  73.943  48.597  53.921
H  41.304  51.905  56.063
H  40.471  27.854  64.924
H  39.338  36.831  43.366
H  33.339  36.884  32.134
H  38.676  62.139  62.212
H  65.433  32.892  33.224
H  66.747  33.493  33.691
H  45.101  43.620  26.292
H  32.764  38.173  31.407
H  37.543  65.817  47.119
H  43.282  40.436  37.711
H  42.237  41.488  37.259
H  54.725  30.701  64.333
H  36.827  62.514  53.501
H  37.784  63.418  54.233
H  37.240  62.509  61.729
H  48.109  43.056  45.506
H  63.785  32.128  39.368
H  63.830  31.205  40.590
H  41.769  30.759  35.411
H  42.323  30.107  46.714
H  43.738  30.072  47.357
H  53.740  51.820  70.084
H  75.357  50.434  51.966
H  40.607  30.470  34.477
H  76.067  51.159  50.798
H  54.389  52.971  70.836
H  53.538  30.316  63.412
H  41.037  53.311  48.768
H  52.376  50.407  74.104
H  53.864  67.617  40.416
H  58.075  36.358  41.634
H  62.653  61.289  36.814
H  64.040  61.195  37.451
H  32.237  42.415  57.063
H  58.494  37.603  40.860
H  23.833  57.625  57.431
H  56.075  36.357  68.719
H  45.269  67.530  49.963
H  41.563  49.403  41.427
H  53.288  69.012  47.346
H  59.975  53.439  45.471
H  45.269  72.481  36.931
H  40.282  53.326  36.234
H  38.621  63.134  36.823
H  75.605  61.271  52.360
H  74.960  62.584  52.857
H  39.456  64.260  36.220
H  52.703  56.003  66.088
H  48.433  55.891  69.114
H  53.399  54.700  66.485
H  31.103  43.350  56.687
H  47.294  71.041  34.423
H  40.233  54.588  35.412
H  46.852  71.839  33.170
H  58.595  54.099  45.427
H  58.373  27.314  59.721
H  41.972  47.200  30.542
H  40.913  46.940  31.603
H  54.152  34.515  34.395
H  44.155  34.249  36.751
H  42.901  34.701  37.583
H  44.533  71.154  36.662
H  54.853  67.895  63.625
H  45.107  66.328  50.886
H  31.268  50.923  31.451
H  56.792  35.023  68.777
H  74.122  47.902  37.116
H  44.723  28.343  35.311
H  63.332  47.799  66.529
H  24.684  56.526  58.072
H  23.316  59.447  54.808
H  23.377  57.927  54.857
H  64.509  48.722  66.335
H  75.460  53.754  47.139
H  74.206  52.900  46.811
H  73.089  47.359  36.110
H  58.709  26.247  58.689
H  42.858  50.143  41.255
H  44.109  29.713  35.096
H  66.380  42.308  58.966
H  63.211  70.053  52.058
H  63.798  69.900  50.697
H  70.113  40.650  47.415
H  57.461  47.613  25.486
H  75.039  39.212  41.402
H  58.017  30.511  51.210
H  70.864  41.320  46.278
H  51.769  49.258  73.307
H  66.514  31.395  53.097
H  36.744  44.496  71.731
H  60.904  56.779  30.044
H  59.770  55.804  29.782
H  53.893  41.324  64.897
H  42.084  63.308  34.498
H  68.060  33.964  62.439
H  41.381  62.855  33.210
H  38.069  43.757  71.547
H  48.700  38.878  34.761
H  47.519  39.266  33.825
H  69.111  49.388  62.672
H  31.419  44.586  49.803
H  30.992  44.839  51.263
H  40.245  53.489  47.487
H  54.810  68.832  40.410
H  68.963  32.761  62.652
H  62.271  69.647  55.914
H  62.681  68.937  54.637
H  69.251  70.798  54.818
H  66.128  41.162  57.991
H  49.661  55.508  69.936
H  71.402  47.253  60.644
H  69.874  47.226  60.548
H  51.227  39.879  59.903
H  33.300  63.079  35.996
H  52.723  74.442  38.677
H  56.769  30.599  50.359
H  50.294  62.758  29.225
H  53.516  42.293  66.028
H  49.792  61.439  28.631
H  74.254  37.908  41.293
H  37.883  51.995  49.805
H  38.131  50.546  50.286
H  68.265  71.812  55.329
H  29.520  42.267  68.768
H  29.220  43.552  67.976
H  60.208  44.916  23.669
H  68.418  32.000  39.438
H  69.117  33.335  39.104
H  61.188  45.356  24.757
H  30.756  59.567  33.728
H  30.513  60.908  34.493
H  53.133  71.907  50.538
H  40.342  55.731  70.612
H  46.962  41.565  47.096
H  45.042  38.668  51.504
H  75.218  50.828  37.447
H  67.682  47.451  61.003
H  67.300  47.799  62.452
H  50.535  27.244  56.953
H  70.099  55.908  48.540
H  73.968  51.645  37.777
H  70.014  54.539  49.189
H  50.673  28.208  58.146
H  43.122  47.185  77.305
H  44.544  47.164  77.852
H  59.206  30.273  59.277
H  53.726  45.617  45.008
H  31.093  63.750  38.281
H  32.987  69.954  52.719
H  47.757  64.943  39.183
H  56.692  61.781  36.013
H  56.922  43.554  24.958
H  57.399  48.159  41.960
H  57.135  38.087  70.730
H  73.319  54.291  42.600
H  69.379  31.087  57.569
H  35.361  59.455  29.390
H  32.440  64.523  38.252
H  36.163  60.192  30.476
H  58.701  31.671  58.898
H  50.500  47.401  43.294
H  55.174  23.185  59.879
H  30.468  47.540  44.076
H  31.254  46.379  44.694
H  54.494  24.527  60.235
H  57.521  57.377  28.512
H  56.992  58.745  28.950
H  52.428  45.423  42.539
H  34.316  55.072  41.332
H  57.489  72.115  52.727
H  32.945  54.672  40.750
H  53.151  42.990  61.278
H  41.454  32.564  51.221
H  38.077  56.196  34.100
H  42.042  31.181  50.953
H  59.664  45.396  39.360
H  58.223  44.831  39.389
H  58.652  72.237  53.718
H  51.137  31.553  64.489
H  32.225  70.625  53.862
H  54.298  52.079  67.963
H  58.146  61.442  36.329
H  53.761  51.450  66.699
H  38.359  55.588  35.515
H  46.832  64.022  72.241
H  36.291  42.467  30.874
H  37.499  43.142  30.234
H  51.468  75.287  48.304
H  31.822  53.541  60.945
H  33.315  67.106  38.646
H  34.228  66.821  37.464
H  42.860  41.275  34.508
H  56.969  72.930  50.196
H  32.942  37.043  50.341
H  32.342  36.315  51.516
H  42.894  39.947  33.726
H  45.448  38.200  38.634
H  51.053  73.907  47.770
H  46.651  37.200  38.723
H  53.594  46.353  29.989
H  52.615  45.769  31.032
H  64.181  35.216  62.569
H  43.447  52.469  77.847
H  61.332  61.991  72.485
H  23.594  44.072  46.864
H  44.085  42.449  64.545
H  41.580  61.296  43.074
H  62.171  48.709  30.844
H  62.752  49.236  29.547
H  56.032  72.452  51.337
H  67.841  56.493  63.463
H  47.930  20.698  49.893
H  59.895  61.525  72.591
H  67.204  55.127  63.321
H  59.485  65.390  50.801
H  57.595  55.253  26.079
H  58.402  54.490  27.139
H  59.987  66.812  50.664
H  47.461  65.319  68.596
H  47.881  66.642  67.915
H  23.512  52.532  54.621
H  63.098  30.204  50.153
H  39.079  58.305  60.626
H  51.742  55.593  21.554
H  40.006  59.134  59.743
H  67.830  53.947  67.192
H  69.133  54.020  67.951
H  64.977  30.589  62.366
H  73.365  54.976  43.958
H  69.784  31.092  59.037
H  62.873  34.503  62.328
H  33.969  72.286  54.835
H  26.210  44.674  65.043
H  48.863  21.882  50.040
H  51.945  55.522  23.062
H  64.501  29.726  63.564
H  41.987  49.173  25.718
H  42.117  50.621  25.253
H  49.308  65.042  39.179
H  32.418  50.655  56.683
H  44.901  57.783  58.839
H  43.914  58.920  58.567
H  30.070  63.447  63.620
H  28.929  61.126  41.497
H  29.546  62.399  42.137
H  32.366  49.344  57.490
H  56.860  28.937  65.634
H  55.419  28.921  65.081
H  44.715  42.137  47.930
H  43.444  38.563  57.227
H  29.530  58.027  53.266
H  58.190  57.033  31.362
H  30.623  56.989  53.258
H  60.397  61.139  50.646
H  60.715  62.602  50.427
H  44.229  42.723  27.141
H  29.025  64.305  37.482
H  50.262  66.824  54.904
H  29.456  65.477  38.378
H  46.714  68.093  39.150
H  49.603  70.215  45.028
H  56.729  56.698  31.079
H  44.039  38.045  50.510
H  30.842  62.156  63.877
H  30.744  64.190  40.426
H  45.774  66.856  39.144
H  31.449  63.146  41.275
H  49.738  68.275  55.018
H  43.617  44.196  47.157
H  58.022  55.618  72.815
H  59.460  56.121  72.965
H  44.550  43.281  33.503
H  43.676  32.342  35.433
H  42.555  33.380  35.251
H  44.758  43.139  31.948
H  42.829  38.248  55.822
H  42.148  54.994  36.315
H  71.010  41.129  43.944
H  69.879  40.349  44.548
H  42.100  57.873  66.717
H  41.949  56.686  65.714
H  38.838  55.936  44.370
H  48.421  64.592  43.428
H  48.560  63.436  44.412
H  38.924  57.438  44.386
H  57.618  42.765  23.853
H  44.764  45.688  45.565
H  42.458  56.466  36.200
H  39.857  31.716  64.096
H  39.806  55.270  24.934
H  63.476  40.048  67.632
H  65.359  49.364  29.113
H  53.830  48.770  54.870
H  53.992  59.866  58.886
H  27.688  43.723  37.460
H  52.941  58.966  59.527
H  58.389  44.913  56.611
H  35.913  56.687  37.560
H  36.725  57.208  36.347
H  58.128  45.120  55.130
H  63.677  32.085  34.615
H  65.097  49.775  30.558
H  62.931  31.632  35.874
H  46.763  45.965  49.016
H  54.957  37.832  43.967
H  55.031  36.778  42.830
H  53.142  34.185  37.532
H  60.427  49.179  72.930
H  60.016  49.744  74.286
H  33.784  62.004  41.020
H  51.681  42.591  61.316
H  52.642  44.271  44.637
H  52.104  32.741  64.233
H  27.407  44.970  36.555
H  43.278  54.158  64.864
H  59.277  48.227  46.862
H  53.359  33.615  38.941
H  52.743  47.999  37.857
H  53.884  47.005  37.979
H  59.134  34.573  29.830
H  58.786  57.447  63.351
H  59.123  55.905  63.317
H  59.282  33.035  30.105
H  39.018  68.299  61.402
H  50.127  45.685  43.054
H  37.563  68.098  61.045
H  39.400  53.068  29.381
H  66.053  29.950  60.583
H  66.064  28.561  61.293
H  51.960  26.776  62.369
H  40.603  40.129  71.486
H  40.834  41.462  72.165
H  52.867  26.881  63.602
H  67.709  39.924  50.985
H  62.893  42.736  28.815
H  61.844  41.630  29.050
H  66.785  38.703  51.167
H  63.843  38.602  67.311
H  38.890  54.713  23.856
H  33.584  62.980  42.204
H  40.157  39.686  74.715
H  50.686  58.923  45.163
H  54.904  34.048  35.651
H  48.623  43.379  23.953
H  46.696  70.811  53.348
H  46.403  69.064  56.428
H  47.855  68.648  56.629
H  54.110  30.629  31.682
H  52.712  26.756  39.347
H  53.373  27.524  38.163
H  54.357  51.070  53.028
H  55.499  31.066  32.195
H  73.361  62.682  59.665
H  72.442  63.918  59.534
H  48.472  62.232  31.705
H  64.542  52.294  50.058
H  59.965  49.075  28.897
H  56.293  41.708  26.259
H  41.587  49.353  28.748
H  64.313  53.454  51.012
H  42.751  48.412  28.998
H  50.579  23.511  44.136
H  66.735  59.343  49.079
H  48.814  43.869  49.614
H  69.441  54.867  57.646
H  72.846  49.200  62.929
H  58.550  49.515  29.315
H  71.693  48.218  63.129
H  49.819  62.950  31.553
H  66.991  59.653  47.609
H  44.274  62.863  47.002
H  46.620  51.567  47.422
H  45.535  35.202  39.573
H  59.954  49.710  61.156
H  58.516  49.262  60.962
H  51.629  46.792  69.395
H  45.369  45.590  66.875
H  46.557  44.903  67.592
H  55.633  29.196  38.048
H  72.138  55.135  32.955
H  41.699  43.280  33.170
H  51.368  47.823  70.512
H  55.139  29.604  36.646
H  38.530  35.280  63.501
H  37.657  35.593  64.671
H  46.130  49.141  47.157
H  30.150  53.497  52.415
H  30.521  52.470  53.500
H  60.208  25.927  55.535
H  40.024  53.586  72.617
H  54.793  41.757  26.595
H  49.063  23.370  44.373
H  71.429  56.383  32.379
H  43.417  62.240  48.120
H  65.309  35.388  48.781
H  49.785  29.569  35.785
H  70.023  62.310  63.084
H  45.473  75.727  49.535
H  45.690  76.934  50.427
H  30.968  49.540  43.595
H  62.294  33.276  41.809
H  58.904  47.262  47.998
H  46.947  42.886  64.950
H  31.569  48.965  42.301
H  49.571  53.469  62.099
H  50.986  54.015  61.797
H  53.300  56.110  78.227
H  48.257  42.626  65.649
H  41.160  48.220  47.640
H  26.020  54.551  40.186
H  30.592  31.728  49.632
H  70.411  63.782  62.990
H  47.986  44.926  76.359
H  52.142  56.063  72.085
H  51.986  54.870  72.997
H  43.589  69.252  56.363
H  61.800  53.098  25.623
H  41.842  60.579  59.816
H  40.122  49.265  47.964
H  49.159  30.815  36.422
H  53.606  57.384  77.450
H  48.636  45.742  77.483
H  66.304  34.472  49.513
H  53.321  43.013  49.177
H  53.053  43.634  50.562
H  31.919  61.838  48.405
H  31.480  60.959  47.251
H  46.072  64.436  44.676
H  46.452  65.618  43.770
H  37.348  60.596  42.175
H  34.836  50.324  39.174
H  36.190  50.674  39.847
H  43.623  69.267  57.888
H  38.511  60.208  43.076
H  55.771  50.563  57.631
H  60.012  62.168  39.167
H  46.513  71.522  52.012
H  68.283  55.817  57.558
H  67.520  40.616  53.870
H  38.920  53.578  50.317
H  42.681  52.781  64.898
H  63.804  33.407  41.941
H  39.700  42.470  36.429
H  40.420  41.644  35.414
H  60.957  63.088  39.908
H  45.244  34.425  40.855
H  58.880  59.727  34.934
H  39.042  43.451  31.715
H  28.190  63.855  54.783
H  76.915  41.398  54.504
H  27.308  41.367  39.986
H  27.114  62.833  55.118
H  61.319  63.390  66.420
H  62.720  62.771  66.808
H  46.738  49.002  51.973
H  53.804  58.625  38.693
H  54.451  59.995  38.696
H  69.534  41.569  53.264
H  43.752  36.029  59.533
H  48.034  54.069  22.319
H  55.940  41.596  65.667
H  69.973  40.109  53.201
H  28.778  42.549  45.765
H  29.435  41.151  45.846
H  49.437  54.467  21.798
H  63.155  38.379  41.198
H  64.233  38.594  40.058
H  53.388  59.790  26.078
H  64.053  62.865  43.933
H  29.458  45.397  59.106
H  56.919  42.536  66.414
H  26.647  40.002  39.738
H  51.467  49.966  50.723
H  33.488  52.846  29.873
H  69.387  67.460  53.763
H  59.443  56.314  24.673
H  28.223  65.033  43.409
H  27.719  66.495  43.276
H  45.999  56.749  32.260
H  68.026  64.429  46.441
H  48.053  29.038  36.850
H  46.889  28.372  36.174
H  47.390  57.337  32.581
H  40.721  58.439  64.487
H  48.725  38.534  58.146
H  39.444  58.905  65.161
H  49.904  38.263  52.347
H  49.197  37.049  51.733
H  52.821  46.975  43.271
H  29.614  47.232  38.194
H  43.706  56.052  25.595
H  45.240  56.235  25.735
H  29.324  45.803  37.840
H  53.560  62.088  69.883
H  54.862  62.773  70.253
H  60.172  32.500  62.505
H  69.427  64.663  45.818
H  44.276  58.725  28.401
H  68.256  66.718  54.523
H  43.491  57.458  28.079
H  42.198  28.838  42.886
H  38.772  65.653  53.984
H  34.949  61.742  63.177
H  36.129  60.841  63.601
H  35.200  39.487  28.618
H  34.212  36.031  39.031
H  39.020  50.176  40.175
H  37.968  49.080  40.389
H  33.676  37.037  40.072
H  39.528  66.444  62.453
H  43.486  29.471  42.309
H  38.351  65.590  62.043
H  37.725  39.684  65.746
H  39.514  54.949  73.113
H  38.722  40.638  65.079
H  71.408  60.474  36.362
H  59.445  49.729  35.984
H  58.944  51.170  36.089
H  70.079  59.891  36.824
H  69.283  65.205  52.881
H  37.492  66.399  53.582
H  60.437  27.438  55.533
H  48.855  49.518  48.256
H  38.295  44.508  32.535
H  67.925  65.736  52.312
H  60.235  59.485  35.623
H  60.011  28.642  48.871
H  41.392  74.852  47.844
H  40.878  73.414  48.082
H  48.998  49.765  68.742
H  58.760  33.952  48.046
H  57.406  34.171  47.288
H  47.714  48.938  68.707
H  58.948  28.589  49.987
H  44.424  33.631  61.859
H  45.145  32.933  60.694
H  44.400  65.603  58.180
H  41.656  41.348  30.900
H  42.575  41.917  31.975
H  65.303  30.837  35.230
H  50.144  60.774  67.843
H  49.968  59.310  68.177
H  49.176  48.696  50.333
H  66.622  31.505  34.879
H  45.291  42.521  41.780
H  46.497  43.056  42.562
H  75.934  42.007  55.510
H  47.796  44.682  43.736
H  44.803  35.021  60.048
H  73.060  43.964  46.395
H  49.928  44.073  24.276
H  73.088  45.260  45.627
H  47.200  58.088  58.464
H  59.542  55.831  42.781
H  34.639  44.656  43.760
H  34.006  43.335  44.222
H  68.590  56.249  30.836
H  59.771  39.249  38.472
H  68.299  56.471  32.356
H  59.577  38.046  37.548
H  29.599  37.610  63.860
H  35.671  34.256  36.989
H  70.448  69.202  52.505
H  55.362  37.344  65.923
H  45.158  44.734  64.600
H  44.398  44.089  65.787
H  62.509  29.770  46.547
H  64.861  58.346  47.421
H  63.606  57.427  47.518
H  47.945  29.527  45.598
H  61.231  52.903  65.764
H  60.019  52.158  66.310
H  50.704  48.118  76.373
H  47.949  29.666  44.077
H  49.797  35.652  25.110
H  28.870  69.606  48.650
H  48.510  36.327  25.615
H  55.297  35.982  66.601
H  63.317  52.983  25.576
H  60.870  42.100  35.303
H  34.406  42.574  48.767
H  65.154  47.321  45.191
H  35.586  61.859  37.717
H  36.853  61.169  38.255
H  65.640  47.219  46.661
H  52.508  62.717  60.798
H  53.079  61.313  60.725
H  68.776  37.707  32.799
H  41.829  51.279  50.339
H  60.059  54.434  43.190
H  38.506  70.863  54.260
H  35.234  32.907  37.609
H  62.639  47.115  68.921
H  48.374  61.337  64.768
H  49.535  62.329  64.634
H  61.583  47.199  67.783
H  52.208  41.689  32.015
H  51.334  40.800  32.926
H  69.329  70.015  53.122
H  26.977  62.103  43.724
H  26.750  62.314  42.211
H  29.319  68.399  49.535
H  33.587  42.645  50.083
H  49.219  48.199  76.773
H  63.679  43.282  51.117
H  52.566  54.639  35.307
H  32.725  69.610  61.961
H  52.676  67.890  48.186
H  59.911  61.915  58.393
H  59.086  60.888  59.172
H  73.648  64.886  56.940
H  53.761  66.989  63.041
H  28.280  46.018  52.343
H  47.165  59.397  72.189
H  72.341  65.682  56.992
H  51.348  55.581  35.155
H  46.375  60.319  71.263
H  34.242  61.865  35.849
H  64.294  47.995  62.160
H  64.966  46.916  61.242
H  31.633  66.184  60.764
H  31.643  43.986  43.805
H  30.566  42.941  43.775
H  31.043  67.487  60.226
H  59.221  49.810  63.034
H  60.195  50.809  63.649
H  39.192  54.955  69.954
H  51.974  40.944  59.014
H  62.661  43.629  52.224
H  42.160  42.827  67.378
H  49.934  64.452  73.396
H  70.558  37.980  49.771
H  60.308  38.370  28.366
H  67.741  37.223  33.782
H  60.035  36.962  28.803
H  69.658  38.691  50.772
H  23.933  44.936  58.124
H  22.995  44.448  57.056
H  40.615  51.283  49.373
H  48.069  40.499  29.216
H  32.163  39.041  40.037
H  48.401  64.548  73.584
H  66.588  32.902  53.438
H  36.673  30.645  47.255
H  38.172  30.671  47.030
H  29.309  44.906  52.505
H  72.055  58.871  56.606
H  71.141  58.364  57.700
H  43.458  53.396  29.268
H  28.916  38.457  35.281
H  44.617  54.319  29.657
H  28.907  37.085  35.941
H  40.985  41.969  66.965
H  31.384  68.856  62.220
H  59.389  42.243  35.707
H  30.600  56.154  33.434
H  32.038  55.765  33.074
H  52.627  74.642  58.233
H  53.816  73.703  58.419
H  39.286  54.221  40.124
H  63.881  54.318  57.272
H  64.400  55.077  56.065
H  39.477  54.763  41.535
H  44.146  47.997  40.166
H  45.561  48.574  40.407
H  50.546  46.350  58.542
H  25.841  50.038  50.350
H  51.308  45.071  58.792
H  27.958  55.868  47.633
H  32.022  38.377  38.641
H  49.002  40.604  30.443
H  53.974  36.700  50.068
H  68.311  58.519  68.292
H  42.130  31.938  48.221
H  70.570  61.464  33.745
H  70.331  49.642  61.775
H  36.781  53.967  41.479
H  36.240  54.986  40.492
H  49.663  30.205  59.468
H  26.578  55.607  46.998
H  30.780  53.463  34.331
H  52.607  75.581  39.683
H  43.326  53.412  68.166
H  46.808  59.458  59.039
H  39.120  33.594  54.714
H  63.011  64.437  51.201
H  63.393  65.593  52.131
H  62.237  33.134  37.496
H  41.325  61.477  58.669
H  40.548  33.221  36.509
H  39.312  32.758  37.266
H  46.333  53.381  76.246
H  27.110  46.747  41.864
H  43.944  53.588  66.778
H  25.606  46.853  41.582
H  72.513  61.380  38.145
H  61.701  31.725  37.781
H  71.717  62.218  39.180
H  29.604  30.639  49.200
H  26.024  55.895  39.415
H  40.952  31.188  48.859
H  71.398  60.260  34.230
H  32.892  70.717  49.641
H  31.733  69.929  50.315
H  54.138  38.226  50.201
H  46.468  52.746  77.624
H  38.660  29.897  40.016
H  39.469  31.052  40.701
H  49.107  29.634  58.164
H  72.675  64.534  50.680
H  27.644  49.855  34.386
H  57.172  41.049  53.572
H  63.902  29.229  46.351
H  56.724  40.661  54.997
H  59.903  67.671  70.697
H  40.665  26.515  36.413
H  39.901  27.824  36.524
H  37.386  70.516  55.240
H  34.174  33.547  44.462
H  73.620  63.361  50.638
H  33.430  32.972  45.675
H  76.323  53.655  54.875
H  58.807  66.823  70.069
H  77.764  53.586  55.435
H  59.583  62.337  60.787
H  59.405  62.449  62.291
H  23.453  54.716  48.287
H  49.626  77.605  55.650
H  51.760  54.801  75.640
H  53.089  55.127  76.300
H  49.675  78.232  54.249
H  32.834  40.947  39.021
H  28.213  51.242  34.680
H  61.821  49.380  54.383
H  61.751  47.936  53.792
H  29.979  40.835  59.096
H  30.462  42.236  58.728
H  31.609  53.604  33.025
H  50.743  41.804  25.819
H  50.696  42.888  26.888
H  26.449  51.433  50.015
H  48.913  51.349  26.232
H  36.357  44.295  33.413
H  35.733  44.087  34.781
H  49.836  52.477  25.659
H  29.164  52.304  32.021
H  28.849  50.821  31.848
H  69.444  58.926  67.331
H  44.508  42.351  29.776
H  44.214  43.709  29.136
H  28.355  36.923  64.507
H  64.397  35.814  33.612
H  33.319  42.406  39.370
H  62.899  35.437  33.807
H  54.562  32.316  33.552
H  55.271  33.216  32.541
H  25.321  48.835  64.739
H  25.157  50.237  64.096
H  38.709  32.182  55.073
H  44.566  35.061  53.545
