5000
Supercell generated
Cl  34.844  44.213  37.179
Cl  38.023  53.436  41.900
Cl  47.806  64.311  57.223
Cl  46.116  48.242  29.451
Cl  36.457  55.149  56.885
Cl  50.685  62.643  48.682
Cl  38.879  58.962  34.403
Na  57.997  54.090  42.730
Na  57.001  36.006  45.195
Na  53.273  43.358  36.787
Na  48.129  66.648  50.957
Na  56.132  42.557  47.564
O  49.278  56.272  37.245
O  64.409  49.922  42.899
O  36.310  48.937  34.946
O  49.234  65.269  35.073
O  46.661  35.947  39.953
O  34.438  56.686  55.098
O  43.028  40.666  39.183
O  41.535  32.684  55.640
O  49.494  62.894  40.480
O  37.751  57.309  67.668
O  40.602  57.960  65.763
O  54.174  39.243  35.192
O  54.097  47.063  72.143
O  44.789  34.478  58.542
O  39.983  45.508  52.148
O  48.143  61.025  47.497
O  58.367  56.259  43.253
O  46.144  56.041  67.036
O  46.383  52.675  70.862
O  38.334  41.925  64.953
O  57.591  42.160  65.268
O  42.603  47.932  40.851
O  50.469  59.814  65.800
O  50.394  52.571  63.393
O  36.461  42.846  49.313
O  43.942  69.041  40.838
O  54.917  55.340  37.959
O  57.025  47.880  33.711
O  67.990  50.529  44.746
O  43.525  62.516  34.092
O  55.637  47.270  68.718
O  38.263  59.607  52.729
O  50.040  66.059  65.152
O  63.817  42.086  40.564
O  61.530  39.847  65.560
O  36.026  39.474  56.844
O  35.291  47.271  60.918
O  52.459  31.355  43.848
O  51.330  61.749  54.892
O  52.335  35.624  57.007
O  63.782  38.487  60.399
O  48.526  44.387  60.184
O  35.881  50.456  46.759
O  35.801  60.291  56.732
O  40.166  62.580  56.091
O  30.897  54.741  52.414
O  46.711  62.364  56.796
O  47.659  47.233  39.723
O  69.022  51.973  49.064
O  42.380  39.820  62.930
O  58.462  62.842  44.963
O  63.278  56.937  59.925
O  40.190  36.511  57.692
O  47.291  50.888  39.684
O  41.199  61.816  40.449
O  59.744  61.733  50.341
O  42.971  34.638  48.003
O  56.156  38.592  43.019
O  70.385  41.577  47.660
O  38.063  46.218  67.871
O  55.978  58.109  38.942
O  46.728  44.842  39.575
O  38.504  39.574  40.362
O  56.065  39.965  51.066
O  49.733  41.477  64.944
O  39.362  31.007  43.531
O  64.532  41.088  62.111
O  50.677  37.254  48.786
O  55.032  57.064  67.877
O  49.245  31.460  45.424
O  41.657  57.582  62.035
O  39.085  43.264  63.022
O  56.746  36.933  57.939
O  65.480  51.515  33.552
O  64.355  47.564  39.425
O  62.439  64.292  39.678
O  50.208  36.204  37.708
O  62.685  52.055  36.605
O  49.389  30.910  48.494
O  38.861  50.179  51.064
O  57.174  53.658  62.230
O  42.248  33.180  52.961
O  67.673  39.178  57.548
O  39.862  57.927  48.549
O  55.101  51.271  38.233
O  56.310  42.204  31.951
O  30.824  48.935  38.994
O  45.688  51.555  41.036
O  53.643  42.928  28.729
O  61.103  49.229  52.190
O  63.718  56.099  40.201
O  33.887  64.240  55.324
O  44.368  65.288  34.217
O  34.396  41.422  55.540
O  56.249  58.478  33.721
O  37.989  63.322  60.328
O  38.089  62.438  57.432
O  70.543  48.798  43.716
O  54.363  70.063  45.006
O  43.257  51.979  31.742
O  48.637  67.702  37.624
O  64.457  43.146  50.725
O  63.879  32.794  45.572
O  55.523  63.980  43.187
O  47.872  71.675  52.074
O  50.087  45.040  65.177
O  43.591  42.275  33.394
O  50.340  58.954  68.453
O  40.428  42.728  55.534
O  38.257  42.027  51.534
O  49.649  35.137  59.885
O  43.502  62.306  42.639
O  37.932  37.689  60.782
O  56.567  63.305  54.817
O  53.533  54.345  32.949
O  54.520  71.985  46.538
O  58.938  41.370  47.381
O  61.289  43.725  34.370
O  52.721  44.962  39.365
O  60.338  34.057  57.166
O  68.634  42.037  45.768
O  38.273  53.478  33.199
O  39.327  38.635  47.185
O  48.684  47.521  62.923
O  57.531  36.025  51.665
O  40.676  60.007  60.097
O  44.514  66.050  58.870
O  46.886  58.513  40.566
O  32.175  43.173  51.625
O  48.429  33.392  35.768
O  51.197  65.386  57.733
O  46.956  59.813  35.847
O  49.141  41.393  41.816
O  46.036  43.116  66.936
O  65.085  34.898  43.917
O  50.757  68.770  61.502
O  69.243  50.627  55.325
O  65.499  57.494  37.478
O  54.545  41.231  57.062
O  50.130  55.271  67.190
O  28.972  43.589  51.035
O  42.896  53.777  37.802
O  41.376  34.806  42.612
O  51.430  54.880  29.423
O  42.371  65.072  49.474
O  54.289  46.477  66.396
O  40.965  69.046  51.642
O  38.137  34.911  46.505
O  67.312  63.120  46.985
O  38.862  51.590  58.631
O  42.323  38.146  51.742
O  61.210  59.185  43.854
O  50.198  44.609  35.282
O  47.038  35.170  42.970
O  56.832  66.187  55.705
O  60.483  36.349  49.460
O  48.656  31.047  51.121
O  45.998  29.940  46.725
O  62.702  33.506  52.310
O  42.227  30.968  46.139
O  66.972  37.157  44.604
O  67.571  38.427  52.482
O  57.707  44.775  53.095
O  68.299  53.503  58.839
O  52.469  37.235  62.745
O  42.314  37.843  49.030
O  36.280  42.483  66.457
O  52.090  47.370  65.762
O  56.250  29.148  50.061
O  36.954  45.983  52.217
O  31.928  53.907  43.427
O  53.568  42.245  68.169
O  67.538  53.630  49.271
O  48.225  35.522  61.529
O  44.543  38.063  37.704
O  57.497  51.088  47.844
O  40.849  60.017  54.289
O  59.476  44.999  56.937
O  61.394  61.853  36.972
O  42.448  53.757  47.175
O  57.748  56.794  38.000
O  50.245  49.520  66.018
O  40.992  43.065  38.828
O  33.326  39.235  46.844
O  69.675  53.599  45.496
O  38.123  45.288  54.979
O  65.206  49.362  36.606
O  42.555  45.449  50.394
O  40.912  56.341  56.338
O  60.385  59.652  40.355
O  51.960  56.898  30.441
O  33.330  53.747  53.244
O  56.591  68.936  54.992
O  68.347  63.380  49.666
O  52.817  39.133  44.542
O  44.868  62.066  37.773
O  70.988  43.857  48.176
O  54.643  39.307  41.411
O  40.485  55.125  69.962
O  63.051  58.391  39.961
O  50.825  42.029  54.181
O  59.453  56.796  46.328
O  54.593  52.328  30.682
O  52.561  30.803  48.982
O  47.448  34.212  45.469
O  38.791  53.766  48.949
O  60.912  42.706  39.615
O  52.708  33.454  37.717
O  37.840  35.979  48.412
O  34.569  39.189  59.144
O  45.892  60.694  54.176
O  52.764  65.029  42.145
O  34.519  50.293  39.700
O  39.915  43.388  52.888
O  63.136  53.249  55.214
O  32.914  59.152  39.672
O  63.862  63.800  41.580
O  67.593  46.126  57.723
O  55.596  32.213  44.376
O  54.903  58.884  56.107
O  32.103  44.358  62.234
O  57.445  51.243  41.010
O  68.138  44.460  49.139
O  51.687  31.299  52.464
O  59.202  49.409  42.753
O  67.964  49.689  58.459
O  58.336  50.614  61.522
O  48.745  38.577  50.075
O  62.277  66.620  57.174
O  56.619  66.885  39.007
O  34.153  41.327  48.158
O  66.362  61.896  48.842
O  65.046  46.124  42.253
O  62.986  49.381  33.547
O  52.990  63.404  35.960
O  56.241  64.321  52.813
O  58.421  60.326  61.633
O  33.627  49.816  56.912
O  34.907  53.082  56.565
O  55.883  35.997  35.590
O  64.572  61.160  40.770
O  58.426  69.351  52.626
O  47.696  30.228  53.523
O  47.875  35.772  53.186
O  45.171  39.376  59.985
O  56.775  68.936  41.054
O  49.295  64.943  55.702
O  66.237  41.689  38.096
O  34.175  53.233  45.175
O  40.402  42.012  68.967
O  31.094  39.911  47.689
O  61.436  55.429  36.519
O  44.111  65.159  37.946
O  42.231  45.295  63.422
O  39.649  53.214  40.023
O  39.339  41.239  59.061
O  50.105  58.016  34.685
O  59.786  65.795  55.396
O  31.214  53.125  59.918
O  53.898  67.121  63.970
O  57.109  53.441  36.486
O  36.847  50.677  43.748
O  48.697  39.906  38.500
O  34.521  45.971  50.873
O  57.450  39.088  46.078
O  40.806  60.764  43.247
O  41.990  52.090  62.949
O  42.354  29.820  52.159
O  44.476  30.956  53.998
O  54.232  30.711  40.353
O  63.078  38.774  56.794
O  54.923  37.722  36.620
O  38.889  42.510  41.950
O  34.541  58.033  51.748
O  49.656  36.897  63.987
O  61.783  46.472  60.433
O  48.736  67.988  52.861
O  49.731  68.841  40.355
O  61.338  61.120  46.038
O  42.981  44.096  41.683
O  57.697  52.211  67.078
O  44.086  37.340  66.694
O  45.083  51.932  32.987
O  48.137  46.279  27.757
O  69.059  46.821  48.198
O  43.376  51.558  57.137
O  42.778  28.960  45.429
O  39.925  43.544  36.517
O  48.669  28.011  45.556
O  40.883  63.440  64.597
O  30.090  42.356  53.217
O  37.139  33.161  42.096
O  37.873  68.747  46.922
O  53.258  29.052  47.208
O  32.576  41.342  54.233
O  30.645  54.193  46.779
O  38.825  39.322  43.870
O  64.443  48.759  53.574
O  32.968  55.502  46.119
O  37.056  36.730  55.054
O  58.534  51.602  64.343
O  59.915  59.392  49.340
O  37.964  60.121  38.912
O  35.519  38.976  44.411
O  57.526  65.606  42.369
O  51.204  48.718  31.565
O  37.610  44.403  33.811
O  54.495  52.094  35.138
O  35.582  34.584  54.717
O  40.822  35.151  52.838
O  45.447  69.606  47.985
O  55.916  31.883  50.657
O  30.001  45.558  54.544
O  35.364  50.547  42.103
O  62.282  37.855  49.729
O  41.770  62.195  59.015
O  51.647  69.436  53.186
O  59.565  42.242  44.996
O  57.758  60.516  52.773
O  49.392  65.153  49.252
O  48.204  60.237  60.503
O  31.530  60.503  53.106
O  46.561  53.718  40.144
O  35.664  43.703  41.711
O  57.389  46.546  39.836
O  38.776  52.775  55.632
O  49.988  38.598  44.188
O  61.467  46.770  53.993
O  50.469  67.601  48.575
O  40.459  58.691  40.993
O  30.284  49.120  50.584
O  41.141  68.183  55.179
O  65.378  45.368  65.061
O  42.647  68.026  60.246
O  51.654  39.509  54.913
O  49.154  33.355  41.660
O  36.827  56.661  52.184
O  35.307  54.018  41.201
O  59.897  46.003  62.840
O  34.632  54.371  59.014
O  62.553  40.715  50.883
O  39.260  40.283  62.621
O  60.300  34.748  43.039
O  38.020  61.717  45.588
O  58.048  56.530  66.909
O  52.406  70.023  39.793
O  47.314  41.296  61.140
O  46.427  43.952  58.883
O  44.917  32.826  44.817
O  66.418  55.064  54.635
O  36.666  42.585  54.783
O  38.171  48.630  45.690
O  61.953  64.303  54.463
O  31.939  51.306  58.870
O  54.632  35.301  66.680
O  36.568  67.300  49.747
O  63.770  54.255  59.986
O  64.703  40.864  58.290
O  41.190  48.662  66.967
O  47.188  46.595  58.094
O  43.929  70.227  49.455
O  33.905  43.588  50.054
O  33.222  55.092  41.044
O  49.710  36.698  55.004
O  53.414  69.889  46.983
O  54.717  45.899  28.887
O  46.534  33.016  38.391
O  58.716  50.461  32.561
O  68.494  40.364  42.820
O  65.414  33.967  49.682
O  60.686  66.809  47.153
O  44.816  41.960  37.781
O  45.657  49.088  63.412
O  61.074  37.979  58.122
O  60.272  35.358  45.440
O  40.809  52.988  64.723
O  70.573  47.716  40.883
O  47.508  45.432  67.084
O  67.289  47.187  45.260
O  63.629  47.366  35.488
O  47.378  52.020  67.254
O  42.291  31.766  42.489
O  66.606  41.150  49.912
O  33.694  39.070  56.243
O  37.187  64.186  55.000
O  44.968  68.033  61.358
O  53.752  32.681  61.281
O  62.545  54.688  32.486
O  51.031  46.258  72.375
O  38.965  51.254  38.285
O  60.955  45.562  38.723
O  61.168  50.206  60.285
O  49.614  55.360  69.327
O  52.288  67.969  59.720
O  59.974  48.099  61.185
O  49.328  60.953  62.741
O  63.215  62.294  38.314
O  38.257  37.720  63.773
O  39.259  64.834  52.106
O  33.101  61.894  48.796
O  60.760  48.429  35.770
O  37.610  66.488  55.208
O  42.123  47.573  61.062
O  41.474  52.171  69.003
O  47.791  31.042  38.511
O  50.495  37.853  46.643
O  49.913  33.885  46.003
O  40.242  36.733  60.493
O  56.605  62.561  49.561
O  39.686  45.446  69.198
O  63.461  62.031  50.325
O  65.596  60.476  46.018
O  53.622  56.129  42.833
O  53.336  66.486  52.209
O  52.700  41.264  63.626
O  62.493  59.631  57.641
O  58.568  68.200  44.029
O  55.413  44.666  36.298
O  34.007  60.634  54.771
O  34.206  57.749  57.041
O  41.121  58.454  57.596
O  70.980  51.303  47.510
O  41.343  62.252  34.002
O  65.341  58.589  53.723
O  69.366  39.999  48.807
O  59.372  57.972  51.567
O  70.826  48.606  45.890
O  56.901  61.476  44.177
O  36.358  36.171  60.543
O  60.773  46.486  65.803
O  41.624  54.424  29.728
O  34.292  44.377  59.532
O  43.442  37.508  46.260
O  54.431  36.722  32.974
O  43.393  54.326  59.249
O  64.600  47.488  45.735
O  63.184  51.903  39.266
O  40.910  42.168  50.605
O  51.630  62.817  41.661
O  60.242  52.071  43.207
O  48.154  42.285  53.835
O  54.730  36.752  54.505
O  62.254  50.369  56.261
O  45.506  53.991  68.291
O  65.351  52.083  59.526
O  66.446  39.440  41.725
O  42.968  45.696  66.448
O  44.895  31.750  42.275
O  46.358  46.719  37.248
O  46.524  36.178  46.945
O  42.915  49.573  33.377
O  40.475  47.864  54.422
O  44.904  54.828  35.360
O  50.856  47.502  59.445
O  35.915  48.322  45.217
O  35.775  48.360  42.139
O  60.956  55.451  50.046
O  55.177  64.239  63.910
O  47.795  30.622  43.066
O  38.490  39.463  66.498
O  54.449  35.830  61.583
O  44.318  36.685  64.606
O  52.527  68.189  55.586
O  45.054  37.181  49.516
O  43.416  35.266  51.760
O  38.421  54.365  36.036
O  47.032  59.333  51.972
O  64.341  53.951  34.827
O  53.564  67.812  43.140
O  31.352  55.499  61.734
O  48.730  47.232  72.505
O  31.972  53.203  56.349
O  54.604  41.863  37.701
O  51.250  51.211  71.491
O  47.722  50.601  64.524
O  51.952  54.285  71.139
O  39.397  53.689  53.168
O  57.652  37.771  66.138
O  51.391  45.904  69.202
O  35.179  48.707  48.819
O  43.274  30.817  48.138
O  58.163  59.795  39.322
O  50.143  67.250  55.997
O  59.020  56.698  68.879
O  63.585  41.981  44.705
O  67.795  48.797  51.564
O  56.640  54.922  40.248
O  51.532  51.265  68.671
O  43.253  56.200  44.646
O  42.938  40.397  58.055
O  37.688  54.119  58.582
O  65.691  47.942  43.663
O  33.789  60.965  52.389
O  34.497  42.568  52.326
O  43.478  51.683  35.477
O  65.793  44.389  38.286
O  33.376  58.705  43.968
O  67.873  58.430  58.125
O  37.728  38.211  38.819
O  37.745  60.684  41.633
O  46.224  71.530  44.016
O  49.670  63.109  59.166
O  44.512  60.596  64.509
O  48.233  61.902  31.722
O  40.462  41.332  36.046
O  54.247  60.718  39.438
O  36.902  52.801  64.912
O  57.394  39.711  68.132
O  34.298  51.547  34.408
O  62.003  31.784  44.211
O  49.748  28.221  49.154
O  61.109  43.355  66.860
O  60.236  53.619  49.010
O  46.662  68.346  42.874
O  52.943  61.162  43.722
O  36.460  50.081  64.969
O  53.425  45.576  31.682
O  58.532  48.778  64.268
O  62.115  55.517  67.352
O  38.167  57.131  39.851
O  47.816  32.044  62.747
O  52.863  46.378  36.306
O  53.042  58.298  68.756
O  29.417  43.497  47.918
O  37.386  49.108  48.599
O  33.245  63.491  43.477
O  46.684  63.266  47.040
O  59.245  62.767  39.930
O  55.670  61.857  57.039
O  49.653  36.730  31.648
O  55.981  39.580  37.993
O  35.877  37.617  58.332
O  52.799  37.342  59.311
O  55.368  33.037  48.079
O  63.109  54.017  48.446
O  33.975  40.395  40.770
O  54.040  54.753  29.556
O  53.806  62.250  49.838
O  31.781  52.311  37.805
O  44.905  56.989  63.794
O  48.831  40.739  62.842
O  57.117  47.483  61.292
O  49.805  34.667  33.848
O  68.517  45.833  43.195
O  51.147  55.643  39.147
O  34.604  36.659  54.792
O  50.636  31.621  36.691
O  38.399  53.663  69.140
O  59.039  31.694  49.533
O  38.333  44.543  46.816
O  53.827  43.490  65.914
O  40.293  51.942  42.832
O  44.980  36.886  57.258
O  34.647  41.509  36.734
O  39.402  36.453  44.176
O  41.152  58.035  52.173
O  43.725  51.134  39.118
O  52.535  42.796  56.778
O  37.284  41.170  46.623
O  45.891  54.975  32.597
O  41.102  42.827  47.929
O  61.750  39.083  47.147
O  63.678  64.914  57.156
O  68.016  49.725  41.380
O  39.283  46.804  39.493
O  50.670  57.583  61.868
O  48.115  44.137  56.385
O  42.599  64.596  40.959
O  53.538  41.521  50.960
O  51.307  39.129  33.672
O  38.615  63.941  36.155
O  54.947  61.737  66.915
O  44.845  46.152  69.802
O  40.758  30.167  54.902
O  59.197  45.620  33.022
O  54.069  44.622  69.487
O  50.815  64.497  38.261
O  41.153  39.250  60.215
O  53.098  47.325  63.102
O  59.274  58.378  59.306
O  42.640  60.481  35.832
O  41.603  57.980  69.401
O  43.362  45.047  71.124
O  48.397  70.052  44.365
O  55.633  43.974  64.458
O  42.975  65.371  42.983
O  60.251  63.994  42.416
O  58.176  38.389  39.881
O  47.006  46.094  70.206
O  54.534  40.829  46.810
O  60.186  31.266  47.670
O  55.203  57.777  70.454
O  42.210  34.258  62.844
O  48.015  49.647  31.896
O  50.312  40.637  59.046
O  56.189  55.232  49.037
O  58.600  48.759  70.495
O  36.386  58.230  58.722
O  36.979  46.991  33.669
O  56.143  60.752  60.654
O  53.014  50.446  39.469
O  56.878  46.026  37.721
O  49.930  66.053  40.251
O  46.204  44.474  34.789
O  36.880  59.611  35.381
O  64.257  55.769  43.958
O  53.410  34.713  50.080
O  37.672  64.729  40.989
O  59.447  62.382  64.255
O  55.763  42.181  70.528
O  34.419  47.742  46.993
O  37.403  56.196  48.586
O  51.623  38.269  41.830
O  39.177  38.404  50.691
O  38.928  57.273  53.551
O  34.403  38.278  38.659
O  64.353  50.413  61.239
O  49.128  69.812  60.442
O  36.066  44.853  47.021
O  63.602  55.646  61.683
O  59.348  66.860  57.874
O  53.885  66.539  57.432
O  49.303  43.638  69.030
O  62.305  31.884  48.619
O  62.021  43.846  46.989
O  48.304  68.545  47.302
O  54.606  50.770  64.071
O  59.875  55.246  59.551
O  49.292  35.553  48.987
O  47.949  57.604  38.402
O  37.190  45.222  50.082
O  53.532  33.177  41.624
O  51.267  31.164  41.556
O  69.001  50.061  46.642
O  66.875  51.159  63.573
O  32.385  46.157  52.318
O  58.573  53.319  46.080
O  60.725  56.884  57.760
O  39.460  59.654  50.853
O  37.247  52.491  52.098
O  49.500  49.823  68.902
O  37.913  40.496  56.099
O  55.559  39.938  66.907
O  49.637  69.804  55.115
O  67.120  38.802  46.343
O  56.492  46.742  66.294
O  65.218  51.966  52.733
O  39.576  68.685  43.307
O  60.195  44.998  36.230
O  41.360  60.147  46.093
O  61.747  51.010  47.847
O  41.592  68.403  45.689
O  47.779  66.308  46.893
O  48.470  68.551  63.005
O  46.396  67.114  37.858
O  51.079  67.325  50.849
O  45.056  45.784  60.570
O  39.212  34.973  56.427
O  45.585  33.076  40.429
O  52.896  47.854  69.548
O  65.260  51.342  45.803
O  36.457  39.979  41.784
O  57.004  59.558  56.382
O  56.707  44.516  31.157
O  66.518  35.532  46.776
O  55.525  28.089  47.731
O  65.529  58.493  50.765
O  43.160  56.418  66.252
O  43.540  60.400  68.800
O  49.581  60.031  33.975
O  35.240  36.213  49.710
O  59.012  68.917  41.244
O  58.010  57.381  57.797
O  45.432  40.354  69.024
O  56.811  66.641  50.612
O  33.460  60.657  45.253
O  38.127  49.152  53.859
O  63.913  38.327  47.533
O  39.289  38.689  55.623
O  44.329  50.218  29.430
O  50.110  61.823  56.797
O  67.163  39.292  54.463
O  39.905  41.871  45.042
O  41.478  33.982  50.914
O  42.545  55.914  50.827
O  40.088  49.792  48.079
O  53.879  64.373  66.722
O  32.934  63.418  53.018
O  35.193  47.008  57.929
O  34.257  55.678  44.344
O  51.084  50.249  29.601
O  59.587  53.074  35.604
O  61.943  49.074  49.588
O  54.470  70.892  55.504
O  40.561  62.987  53.621
O  39.944  44.299  67.181
O  63.060  58.728  50.847
O  39.849  61.388  63.207
O  61.252  59.282  63.360
O  59.416  54.334  69.540
O  51.817  29.756  45.683
O  57.649  37.681  62.760
O  60.562  36.957  36.642
O  52.051  66.340  39.745
O  37.674  44.346  60.332
O  67.855  37.295  48.629
O  40.160  46.328  59.507
O  34.630  42.291  39.031
O  41.586  62.936  37.492
O  54.552  66.051  45.205
O  61.888  43.410  43.880
O  35.164  57.529  35.987
O  52.879  54.028  62.703
O  42.982  52.879  66.036
O  46.540  38.094  68.332
O  37.608  57.733  64.894
O  56.282  49.452  60.696
O  45.660  39.733  43.407
O  58.244  54.402  38.281
O  56.785  39.583  33.521
O  60.382  65.363  62.923
O  55.034  68.529  52.369
O  34.084  37.302  47.574
O  62.962  47.949  31.465
O  51.005  42.728  38.602
O  58.888  33.237  44.816
O  31.708  55.467  39.187
O  57.683  45.528  69.050
O  32.099  36.467  49.864
O  62.795  45.462  34.511
O  55.952  57.437  44.849
O  54.316  52.676  66.034
O  68.820  45.394  46.228
O  65.867  51.125  54.674
O  45.499  65.205  61.829
O  46.494  33.519  55.057
O  45.072  50.260  60.833
O  45.462  30.137  44.469
O  63.375  59.310  42.833
O  60.909  32.940  40.438
O  41.176  38.791  65.711
O  34.032  38.114  41.333
O  40.022  66.492  60.977
O  46.900  54.181  64.224
O  44.959  68.164  53.285
O  56.413  63.665  40.969
O  42.688  57.568  41.940
O  54.527  58.141  41.046
O  36.424  55.206  36.409
O  62.514  39.658  36.946
O  60.340  40.102  49.589
O  65.065  44.298  55.374
O  36.391  54.482  54.002
O  50.392  44.394  63.081
O  54.232  62.066  59.401
O  36.014  49.210  51.229
O  36.126  61.039  51.036
O  40.307  60.209  67.415
O  39.104  56.655  50.870
O  47.149  53.996  30.476
O  41.369  34.207  36.506
O  42.916  62.062  54.275
O  46.877  37.118  37.508
O  46.774  68.747  58.092
O  50.780  32.442  58.535
O  46.857  49.915  36.745
O  66.699  40.705  45.118
O  62.386  68.959  51.661
O  62.574  52.308  44.137
O  51.313  65.543  53.240
O  64.539  38.692  52.315
O  50.173  71.512  42.723
O  65.669  58.934  43.884
O  65.113  37.279  57.666
O  63.517  44.757  58.041
O  46.996  66.995  63.503
O  55.321  39.022  58.893
O  47.945  65.407  41.770
O  63.361  36.202  42.873
O  41.790  55.560  41.922
O  56.001  66.766  47.748
O  40.589  38.523  40.213
O  40.052  65.337  42.426
O  36.241  45.969  36.296
O  48.710  33.002  48.639
O  36.898  51.745  61.942
O  42.712  61.109  61.658
O  46.514  65.084  36.951
O  60.963  45.666  45.841
O  59.563  39.197  42.314
O  44.718  51.878  63.541
O  59.127  59.909  43.769
O  40.608  51.087  32.944
O  48.238  44.659  41.303
O  41.453  66.401  38.728
O  46.176  37.194  42.300
O  42.254  56.089  36.302
O  46.190  64.661  49.654
O  53.886  54.962  39.885
O  62.716  41.202  60.165
O  36.872  50.294  55.261
O  63.555  35.093  50.093
O  42.022  42.230  65.723
O  48.263  49.230  29.394
O  57.430  59.423  68.723
O  60.068  35.621  52.096
O  38.610  63.832  62.762
O  46.839  70.738  55.014
O  36.851  43.522  36.398
O  31.546  49.381  52.730
O  64.292  61.965  61.453
O  64.182  52.132  49.704
O  55.809  53.906  42.868
O  64.552  42.314  52.781
O  45.069  43.013  30.582
O  42.651  39.152  35.331
O  39.231  49.251  60.665
O  39.759  67.117  52.391
O  65.428  49.238  58.356
O  34.473  44.660  54.517
O  68.509  49.766  38.982
O  30.244  54.740  55.731
O  62.055  43.118  58.291
O  41.583  59.934  38.311
O  67.468  61.704  55.915
O  56.816  54.635  70.317
O  43.633  43.010  62.012
O  34.173  46.626  53.525
O  53.328  36.694  38.337
O  33.853  62.198  58.318
O  36.877  50.954  35.675
O  36.906  39.951  52.968
O  47.278  59.748  66.361
O  57.532  36.246  60.076
O  64.811  39.477  49.522
O  40.563  48.141  37.813
O  42.636  47.637  35.644
O  34.996  51.518  59.083
O  58.718  34.361  49.670
O  29.946  54.113  48.864
O  61.627  33.593  47.382
O  60.391  53.685  31.037
O  66.315  60.366  59.476
O  39.274  53.840  60.104
O  51.918  69.872  42.860
O  56.234  60.190  63.776
O  36.438  65.641  59.103
O  62.607  59.352  46.352
O  35.364  48.270  36.830
O  53.978  46.724  59.666
O  50.198  63.606  33.925
O  63.705  46.666  67.015
O  53.172  43.234  61.041
O  55.151  51.451  61.029
O  55.076  37.804  49.173
O  67.711  56.136  52.780
O  61.331  38.605  52.421
O  53.903  58.297  30.161
O  45.555  36.752  34.834
O  71.954  52.498  52.652
O  38.817  34.988  62.857
O  45.182  39.109  53.674
O  58.183  67.664  48.832
O  52.065  38.025  66.851
O  40.294  55.404  44.452
O  54.635  41.717  53.703
O  43.201  55.430  69.448
O  43.848  56.942  53.526
O  64.396  42.892  37.062
O  50.071  68.455  57.862
O  39.942  63.488  39.759
O  48.996  47.386  37.214
O  44.368  62.424  50.210
O  49.239  32.862  37.856
O  32.952  47.362  63.799
O  59.365  43.275  42.075
O  38.387  35.822  58.748
O  44.482  31.363  50.954
O  67.208  62.777  44.065
O  54.691  52.427  28.036
O  58.668  51.084  58.617
O  57.807  56.395  35.340
O  29.123  48.639  54.876
O  38.869  42.654  48.148
O  33.115  52.979  63.347
O  63.120  51.590  42.010
O  52.971  32.304  58.331
O  60.998  58.494  67.957
O  51.071  49.372  27.324
O  55.672  48.447  64.985
O  37.763  44.338  64.655
O  63.347  60.461  36.736
O  34.978  34.759  43.315
O  34.299  48.207  65.489
O  59.269  50.934  45.519
O  53.205  63.328  62.377
O  34.816  41.223  45.226
O  30.969  48.696  62.261
O  41.809  44.685  31.770
O  43.407  59.371  42.978
O  49.001  37.865  58.446
O  69.101  47.213  53.635
O  43.178  43.901  67.717
O  44.738  64.567  45.907
O  47.571  54.555  69.458
O  41.129  37.050  62.719
O  51.673  70.631  57.690
O  57.164  56.346  61.158
O  71.166  45.663  46.219
O  54.397  38.039  61.616
O  56.512  60.072  40.936
O  50.946  58.178  70.421
O  36.052  60.248  63.528
O  36.369  64.479  48.586
O  52.242  56.465  35.393
O  65.310  52.553  65.591
O  59.308  47.037  53.648
O  52.045  59.051  34.656
O  60.365  66.874  50.625
O  48.067  62.328  65.884
O  64.106  56.158  50.242
O  43.510  50.647  69.185
O  45.882  70.417  56.969
O  66.544  54.624  61.629
O  61.627  41.442  53.646
O  42.265  36.740  35.804
O  33.867  51.989  54.520
O  32.734  59.156  49.462
O  44.042  60.770  32.066
O  45.920  36.098  54.142
O  68.328  57.394  50.563
O  32.961  48.338  41.621
O  29.793  50.859  56.628
O  59.570  55.574  62.971
O  52.444  43.182  33.820
O  46.001  67.922  49.891
O  56.928  32.880  53.260
O  63.102  45.661  51.846
O  59.391  39.766  64.601
O  57.657  41.493  57.929
O  45.434  62.801  35.146
O  40.710  57.438  39.201
O  62.327  41.895  63.891
O  33.412  56.027  52.043
O  61.418  57.256  42.768
O  53.775  49.061  37.722
O  57.202  50.138  39.094
O  68.641  52.151  37.482
O  58.320  43.470  37.694
O  65.413  52.861  36.832
O  65.647  49.393  40.213
O  57.173  51.928  69.496
O  38.696  49.829  68.936
O  40.477  47.553  69.045
O  59.828  66.252  41.690
O  45.574  31.213  61.136
O  36.603  48.482  66.481
O  64.237  47.004  59.887
O  61.465  60.244  54.021
O  48.835  36.218  35.174
O  41.544  39.552  53.654
O  56.937  45.134  48.030
O  71.767  44.610  52.934
O  60.467  52.262  67.885
O  53.318  60.056  70.088
O  57.817  65.556  45.791
O  57.251  61.457  33.935
O  38.411  47.761  50.977
O  36.796  36.030  37.904
O  63.130  36.443  52.115
O  51.509  55.970  32.747
O  40.800  58.900  63.781
O  33.418  54.467  49.224
O  58.574  43.439  62.626
O  59.160  39.450  51.917
O  71.111  46.662  43.076
O  50.585  52.074  34.567
O  51.831  65.530  36.603
O  49.098  51.049  36.974
O  48.590  40.341  56.229
O  68.040  54.410  47.276
O  43.984  47.694  71.188
O  56.859  43.155  68.687
O  61.085  31.419  51.385
O  48.033  58.171  70.664
O  55.936  67.659  62.987
O  44.768  31.352  39.332
O  59.934  69.527  49.719
O  58.997  43.445  48.307
O  55.135  56.853  64.090
O  39.665  57.021  33.519
O  51.600  48.796  34.541
O  40.600  46.300  41.772
O  40.355  47.465  48.676
O  38.013  42.238  60.863
O  45.578  36.991  31.934
O  36.796  40.447  37.749
O  61.189  43.560  61.073
O  62.585  48.013  63.345
O  56.642  49.657  35.696
O  30.168  52.662  52.506
O  30.618  44.561  39.489
O  39.250  46.218  62.873
O  38.362  56.187  56.243
O  36.855  54.529  44.272
O  51.012  54.783  34.651
O  46.656  57.865  34.855
O  55.763  43.794  57.543
O  50.160  41.457  61.082
O  52.055  39.347  38.539
O  42.637  68.754  56.969
O  60.028  56.770  65.982
O  66.734  57.071  55.721
O  55.913  47.208  58.362
O  38.777  65.628  58.524
O  44.191  58.899  60.384
O  63.171  42.126  48.537
O  50.596  40.999  47.087
O  53.558  57.885  36.798
O  59.184  64.489  49.079
O  67.177  40.663  61.362
O  34.332  35.035  47.177
O  34.399  49.635  53.825
O  50.799  52.709  31.433
O  66.029  45.306  53.073
O  57.732  34.638  63.084
O  39.579  56.081  66.888
O  61.560  58.980  61.199
O  47.336  44.968  63.864
O  66.393  49.356  46.955
O  35.421  54.980  50.770
O  65.080  64.770  51.265
O  46.938  61.465  40.436
O  52.821  62.191  64.644
O  49.434  55.602  31.564
O  57.169  41.168  39.598
O  64.961  42.219  47.214
O  47.992  60.970  38.003
O  55.228  71.262  49.030
O  59.005  44.898  66.340
O  36.631  51.344  32.677
O  37.067  54.165  38.376
O  58.416  39.548  61.883
O  41.072  39.995  34.012
O  50.196  37.951  61.274
O  36.365  56.339  62.204
O  29.794  49.250  47.239
O  52.362  33.745  44.828
O  62.621  35.554  46.257
O  47.225  36.772  50.062
O  65.599  60.535  38.126
O  61.248  56.958  39.112
O  48.166  47.943  68.238
O  46.444  41.160  58.601
O  50.260  46.275  30.146
O  37.654  40.501  34.715
O  47.663  38.328  61.465
O  39.864  51.978  46.293
O  40.239  53.588  66.773
O  35.385  36.238  52.364
O  36.098  61.409  59.643
O  65.009  49.311  48.662
O  56.193  68.924  60.518
O  41.807  37.428  33.751
O  44.595  62.646  62.500
O  47.738  42.338  64.600
O  58.470  43.239  55.719
O  45.356  41.572  64.662
O  42.031  42.733  63.553
O  52.422  50.523  32.663
O  64.075  40.907  54.686
O  56.772  51.767  30.853
O  44.865  56.805  33.913
O  44.571  69.441  43.825
O  53.784  65.362  37.732
O  53.038  38.397  57.127
O  51.597  50.028  63.258
O  34.803  52.358  47.093
O  42.755  33.375  45.032
O  40.317  55.862  60.036
O  41.532  41.554  31.576
O  64.138  39.058  44.651
O  50.615  48.744  61.377
O  48.277  45.969  31.048
O  32.855  49.535  48.429
O  56.097  34.953  50.387
O  43.369  41.572  68.090
O  48.248  61.108  53.208
O  54.261  39.598  64.754
O  40.192  53.053  51.214
O  57.122  65.388  62.059
O  66.452  50.993  49.806
O  38.922  34.046  44.419
O  35.966  61.153  38.968
O  48.809  47.666  60.729
O  50.499  60.475  38.674
O  33.296  49.476  43.926
O  62.882  56.557  64.782
O  55.027  39.380  54.154
O  51.044  45.639  32.873
O  47.231  63.488  60.434
O  61.099  36.832  53.732
O  54.203  66.394  60.414
O  52.488  62.782  46.602
O  55.705  41.348  34.639
O  40.719  51.393  54.031
O  40.944  39.135  58.026
O  66.905  42.184  56.539
O  61.022  55.040  42.722
O  56.283  56.107  29.929
O  45.850  60.072  61.236
O  54.029  41.063  61.795
O  65.984  54.337  51.870
O  34.626  58.837  47.213
O  41.973  49.402  59.474
O  63.443  34.772  41.118
O  51.763  44.962  60.413
O  35.863  35.109  40.296
O  53.459  66.662  34.961
O  36.357  41.707  58.505
O  35.415  50.085  67.408
O  49.217  38.313  35.897
O  59.688  45.497  49.573
O  61.987  68.608  47.408
O  43.701  66.977  48.039
O  44.235  37.186  61.218
O  51.971  35.189  34.780
O  40.320  49.734  35.624
O  32.156  41.633  41.582
O  54.022  54.283  35.838
O  55.279  35.243  63.913
O  35.557  62.141  46.814
O  63.869  50.907  65.228
O  62.612  45.706  49.174
O  44.550  41.783  59.535
O  53.968  58.144  59.852
O  45.172  39.002  62.475
O  33.000  49.593  46.195
O  45.818  60.117  44.980
O  42.204  49.903  62.832
O  62.328  64.368  46.348
O  34.920  61.596  42.660
O  44.638  62.065  39.961
O  35.894  51.869  38.824
O  47.799  70.646  42.107
O  56.815  52.672  49.299
O  46.099  40.805  32.524
O  68.112  49.194  36.568
O  43.077  54.628  55.840
O  38.980  47.905  65.359
O  64.083  61.075  48.362
O  54.349  63.727  40.174
O  56.949  35.070  47.224
O  66.077  56.518  41.144
O  43.732  38.791  56.216
O  47.245  50.549  60.573
O  57.031  58.648  30.263
O  68.352  57.095  45.833
O  31.754  52.003  41.729
O  47.474  40.491  52.309
O  57.649  45.084  41.468
O  61.990  41.296  35.207
O  52.420  68.644  37.285
O  36.171  33.965  46.220
O  44.381  56.941  58.346
O  42.221  54.207  39.938
O  41.638  41.696  60.866
O  32.665  40.820  59.467
O  47.990  47.328  34.328
O  39.705  49.063  56.892
O  46.876  32.931  50.981
O  53.571  54.634  59.759
O  43.325  58.391  33.922
O  40.772  39.833  38.125
O  43.724  36.231  54.148
O  46.628  38.567  64.973
O  56.472  33.449  60.064
O  56.379  58.815  36.899
O  51.742  36.505  44.218
O  62.569  52.446  63.006
O  45.792  67.756  45.400
O  41.288  52.193  58.177
O  60.540  36.854  40.466
O  33.937  58.001  63.061
O  36.422  58.256  55.029
O  62.424  56.027  55.201
O  42.391  65.555  60.767
O  38.190  63.384  50.078
O  56.417  68.815  45.565
O  57.636  43.931  50.607
O  49.429  51.646  65.490
O  57.148  41.926  61.854
O  43.010  47.579  58.771
O  43.527  58.346  36.896
O  44.668  45.197  64.166
O  43.425  55.619  62.030
O  63.106  67.440  50.237
O  58.160  36.917  43.241
O  32.383  55.733  56.533
O  41.949  44.245  59.279
O  42.165  38.452  44.503
O  59.727  59.063  35.216
O  49.863  43.465  31.883
O  57.067  31.197  47.182
O  53.333  61.261  36.323
O  37.693  47.953  62.237
O  35.035  64.166  52.717
O  47.738  38.354  47.169
O  49.384  53.274  41.151
O  47.445  49.490  71.089
O  54.641  53.362  69.089
O  57.036  32.865  57.141
O  57.891  31.126  43.266
O  30.701  57.294  43.966
O  43.964  61.902  58.869
O  62.447  56.112  48.549
O  43.429  65.145  55.931
O  55.193  38.525  45.950
O  34.325  38.653  51.858
O  49.746  36.748  67.286
O  66.006  62.561  52.191
O  56.059  33.489  39.189
O  58.244  56.365  50.039
O  56.586  55.993  32.494
O  41.592  51.155  39.961
O  61.881  49.541  37.993
O  60.900  45.330  51.401
O  52.156  53.897  67.896
O  60.791  48.151  47.016
O  55.264  49.838  32.947
O  69.144  60.089  54.849
O  47.982  60.826  42.288
O  43.710  46.891  63.099
O  46.560  46.966  61.884
O  31.811  57.320  59.238
O  47.582  42.115  38.801
O  58.991  62.785  52.591
O  43.139  51.811  60.857
O  59.336  38.095  45.391
O  32.954  57.551  37.031
O  40.297  45.633  64.917
O  49.041  66.679  60.102
O  54.836  52.460  72.052
O  38.767  59.258  55.659
O  46.363  47.688  49.017
O  61.927  42.199  55.694
O  30.372  48.556  45.213
O  67.373  46.517  61.585
O  39.275  54.570  65.026
O  61.294  66.904  52.647
O  35.147  38.369  62.239
O  43.042  29.930  56.132
O  61.461  64.228  51.401
O  38.961  50.341  63.889
O  39.751  64.713  55.686
O  35.984  45.169  61.561
O  58.737  65.101  38.883
O  41.532  36.452  55.342
O  55.433  29.450  55.259
O  58.230  61.459  65.844
O  70.938  51.481  42.562
O  47.940  43.344  30.749
O  56.153  58.196  61.814
O  48.563  63.859  38.540
O  43.054  60.883  51.989
O  43.467  49.762  37.302
O  62.089  45.089  55.249
O  30.732  47.189  41.658
O  68.571  44.090  54.381
O  37.832  61.391  64.377
O  63.357  53.494  52.146
O  60.347  34.113  53.682
O  65.364  56.390  45.937
O  35.516  56.350  47.289
O  69.960  49.686  49.971
O  43.773  39.304  31.953
O  47.805  36.401  65.724
O  65.961  53.244  43.426
O  53.572  49.906  66.669
O  48.942  49.037  35.616
O  63.136  58.303  54.483
O  57.114  44.913  59.138
O  31.869  41.938  57.558
O  51.697  35.923  54.253
O  59.678  32.167  42.508
O  39.357  35.717  39.725
O  35.800  58.901  60.741
O  55.310  62.526  47.083
O  39.651  50.897  30.201
O  49.437  58.910  58.162
O  50.511  52.605  27.446
O  51.350  40.798  52.421
O  60.416  62.446  47.531
O  56.426  60.605  50.762
O  52.242  51.967  64.720
O  60.421  64.138  56.700
O  39.022  45.902  30.595
O  59.626  48.119  40.317
O  47.040  43.953  36.944
O  55.447  37.139  40.241
O  43.454  42.091  52.832
O  45.437  67.948  55.422
O  51.013  34.231  40.045
O  57.156  40.288  55.736
O  62.022  57.054  52.779
O  43.354  70.686  46.463
O  64.989  44.909  46.829
O  49.017  37.113  39.696
O  55.365  45.485  62.158
O  58.429  37.988  36.496
O  36.954  37.444  45.631
O  42.116  35.759  59.734
O  46.632  57.068  60.810
O  44.294  47.895  38.290
O  48.073  38.135  32.974
O  59.918  68.465  55.182
O  41.397  60.165  65.479
O  50.276  34.253  57.325
O  45.883  48.644  34.080
O  37.920  46.862  41.967
O  52.355  34.576  47.937
O  59.960  63.608  59.759
O  66.268  47.095  49.466
O  66.804  47.056  37.601
O  35.756  57.901  39.208
O  61.075  47.189  56.912
O  42.870  66.876  36.579
O  37.976  48.025  59.253
O  53.001  59.610  64.002
O  43.396  48.882  67.538
O  67.435  59.389  42.161
O  43.523  54.374  32.133
O  41.024  34.728  45.150
O  31.640  59.973  46.284
O  59.335  57.965  63.247
O  35.914  53.732  66.941
O  54.879  52.348  40.941
O  58.144  34.066  41.011
O  59.158  58.662  32.482
O  39.917  55.530  38.212
O  54.788  62.035  53.304
O  45.983  45.315  28.794
O  41.045  59.091  33.997
O  64.768  59.219  62.872
O  58.505  55.968  40.991
O  63.115  33.257  57.171
O  58.259  35.432  39.111
O  27.305  49.302  49.683
O  65.458  53.401  47.053
O  43.825  40.237  65.568
O  33.295  43.653  46.346
O  34.310  56.007  60.969
O  51.385  41.350  66.392
O  43.103  34.640  57.138
O  56.662  68.988  50.217
O  42.356  66.096  46.506
O  36.552  64.735  42.902
O  52.493  40.322  36.600
O  57.826  35.874  54.825
O  49.740  55.144  64.182
O  61.887  65.080  48.874
O  54.199  67.817  48.501
O  67.785  44.703  37.404
O  47.538  64.803  33.586
O  49.230  32.242  55.604
O  61.363  51.126  30.370
O  58.638  47.558  36.927
O  60.846  53.045  52.815
O  47.056  37.590  55.988
O  50.548  65.501  44.168
O  46.294  43.300  62.431
O  58.857  46.669  43.079
O  45.567  40.651  56.031
O  45.778  51.973  37.136
O  43.277  70.462  54.898
O  68.090  52.536  56.115
O  54.569  66.136  41.490
O  58.514  41.795  33.635
O  42.375  61.874  49.280
O  38.279  33.789  53.588
O  32.532  58.072  53.483
O  40.791  64.133  45.003
O  57.072  47.971  29.501
O  50.633  33.231  51.019
O  46.459  64.053  39.487
O  50.015  58.613  30.222
O  45.218  65.049  42.274
O  41.665  64.969  57.910
O  69.061  41.455  58.439
O  54.103  37.537  51.330
O  57.291  46.579  64.234
O  31.969  47.126  48.899
O  54.694  61.905  42.048
O  30.853  45.380  49.738
O  42.621  68.233  42.402
O  55.054  42.915  59.925
O  60.036  50.584  40.170
O  53.841  35.109  40.401
O  44.111  34.893  39.143
O  57.900  48.259  45.947
O  59.626  59.744  65.294
O  36.980  50.813  57.463
O  41.766  52.725  34.134
O  56.467  34.344  43.442
O  53.024  71.068  52.291
O  30.045  51.431  45.360
O  69.204  52.370  53.102
O  53.289  28.609  44.108
O  45.668  46.634  66.515
O  45.168  41.558  40.495
O  61.533  40.628  44.049
O  38.766  58.450  46.701
O  36.017  43.548  63.559
O  59.420  54.660  66.137
O  64.961  62.129  42.777
O  51.865  64.753  59.732
O  62.152  67.944  54.384
O  62.039  51.573  51.101
O  55.205  47.909  31.278
O  36.279  40.029  50.729
O  58.264  42.341  52.627
O  45.134  56.752  38.631
O  43.485  58.649  64.467
O  37.026  61.545  54.787
O  34.345  66.052  47.070
O  37.379  49.306  32.273
O  57.462  64.013  65.408
O  54.013  60.708  32.128
O  39.578  31.927  52.455
O  46.491  33.731  63.518
O  35.356  55.693  65.357
O  51.834  52.895  39.156
O  50.400  29.467  42.649
O  47.761  40.391  29.958
O  42.753  56.940  47.566
O  40.460  52.237  36.237
O  70.076  47.121  51.665
O  42.153  41.110  55.092
O  47.720  63.036  34.884
O  40.453  39.341  48.994
O  59.620  40.537  57.652
O  44.823  54.886  64.437
O  54.432  70.144  42.037
O  38.939  67.674  50.269
O  61.803  49.926  45.075
O  70.657  46.123  49.603
O  46.876  51.620  35.248
O  40.641  32.249  57.608
O  61.057  62.271  61.123
O  39.406  54.264  62.852
O  32.891  46.655  37.105
O  33.130  49.793  35.660
O  56.889  38.324  53.485
O  35.700  54.279  62.976
O  56.999  58.238  64.762
O  64.011  47.344  49.659
O  65.083  55.288  64.866
O  61.743  54.080  45.640
O  45.784  33.383  48.613
O  45.551  56.432  70.357
O  53.136  43.375  53.287
O  47.579  54.401  37.311
O  49.306  63.830  61.463
O  44.326  44.807  37.545
O  49.650  56.682  42.871
O  56.640  29.350  46.053
O  38.483  51.572  65.896
O  45.286  43.245  55.676
O  72.665  49.388  48.914
O  35.363  62.663  61.713
O  58.441  30.066  54.588
O  30.803  43.249  43.833
O  30.972  41.718  46.213
O  66.037  37.586  50.360
O  62.198  56.229  45.491
O  61.664  60.898  42.188
O  38.284  47.575  36.754
O  45.568  59.154  68.883
O  54.584  56.862  32.838
O  35.450  44.005  57.487
O  60.527  42.761  49.894
O  33.070  45.533  42.189
O  40.030  67.604  57.151
O  48.920  63.586  52.151
O  33.531  36.545  44.020
O  64.090  54.208  41.268
O  62.180  50.650  53.496
O  36.213  51.973  50.030
O  56.515  52.466  34.346
O  62.273  47.431  44.258
O  43.408  33.641  37.239
O  40.077  54.497  58.087
O  43.929  28.806  50.749
O  48.234  43.644  35.060
O  58.285  46.034  45.722
O  54.403  35.601  45.578
O  46.903  39.113  40.724
O  39.045  69.435  54.138
O  60.074  50.178  67.299
O  53.525  49.895  28.054
O  53.451  36.689  48.195
O  57.454  37.975  49.336
O  43.380  53.156  41.707
O  60.536  61.432  56.434
O  62.245  45.643  41.468
O  64.695  51.479  57.000
O  40.491  63.334  61.179
O  46.826  69.087  60.357
O  41.599  32.944  60.901
O  56.124  42.800  52.405
O  55.843  67.592  58.141
O  53.563  47.873  29.752
O  43.935  41.664  35.749
O  54.083  32.485  55.547
O  36.290  56.718  42.700
O  38.463  32.578  49.189
O  44.990  34.374  65.699
O  47.304  53.018  61.334
O  57.841  41.344  42.760
O  40.506  46.381  57.310
O  34.444  50.035  62.455
O  53.829  34.513  53.023
O  30.735  57.216  50.160
O  37.788  61.176  61.034
O  43.505  56.989  55.771
O  52.315  39.449  50.619
O  60.402  43.925  69.000
O  49.152  30.178  60.906
O  58.105  69.266  56.554
O  37.379  53.282  46.552
O  65.106  63.814  45.967
O  52.161  45.407  67.201
O  52.180  51.635  36.587
O  47.983  55.024  34.749
O  35.887  59.038  49.005
O  49.689  57.658  39.757
O  47.709  51.727  32.544
O  52.968  56.845  66.036
O  55.673  50.193  45.360
O  53.243  33.818  63.278
O  35.524  45.762  43.151
O  35.650  45.800  66.394
O  44.115  33.862  61.084
O  48.081  57.964  31.777
O  63.609  34.897  54.844
O  71.004  49.664  58.227
O  46.088  51.313  30.168
O  51.871  65.108  62.609
O  33.019  40.136  49.973
O  45.798  43.467  69.975
O  51.704  36.204  65.050
O  38.957  42.126  38.886
O  31.518  52.708  48.207
O  64.357  58.641  48.343
O  42.509  56.306  64.075
O  58.516  40.839  35.791
O  63.795  37.691  54.974
O  40.619  54.942  32.747
O  62.493  64.338  44.154
O  64.973  41.915  42.803
O  50.765  30.585  54.793
O  53.277  43.337  31.268
O  56.369  62.290  62.217
O  64.919  65.591  48.669
O  37.114  37.016  41.569
O  41.442  36.458  39.040
O  51.409  69.958  49.726
O  51.882  35.179  60.285
O  54.048  47.459  33.713
O  48.581  55.202  28.739
O  29.840  46.551  52.042
O  49.169  30.103  40.928
O  37.387  64.642  46.024
O  32.289  51.102  61.270
O  55.142  29.399  52.230
O  42.241  50.768  65.397
O  57.107  63.940  47.484
O  56.399  54.794  45.819
O  50.378  33.217  61.392
O  38.674  43.565  57.210
O  50.230  41.210  68.368
O  55.819  45.540  33.900
O  50.268  49.032  38.227
O  52.128  32.386  46.604
O  65.491  64.278  53.472
O  49.172  45.680  46.848
O  51.573  56.700  41.790
O  50.686  49.697  48.558
O  63.323  62.083  55.588
O  63.339  59.482  59.754
O  50.636  54.066  36.754
O  49.710  40.875  35.812
O  62.478  48.910  66.599
O  51.909  51.365  55.163
O  48.062  49.495  54.971
O  49.286  50.822  51.315
O  59.311  61.220  59.286
O  37.032  47.112  56.066
O  59.180  47.630  67.835
O  70.988  44.683  56.854
O  38.844  58.203  61.143
O  50.190  53.992  53.244
O  60.676  57.359  48.981
O  48.851  49.071  45.410
O  53.930  51.905  51.539
O  46.415  48.936  65.741
O  54.990  64.701  49.962
O  62.599  53.275  57.754
O  35.814  63.992  56.770
O  53.301  46.819  47.257
O  51.935  67.615  45.862
O  47.594  68.307  39.945
O  46.999  63.638  53.906
O  47.520  34.909  59.382
N  54.450  50.646  53.996
N  47.582  49.311  51.473
N  50.123  52.271  56.216
N  47.255  47.449  45.656
N  50.479  46.045  45.037
N  51.782  48.251  46.320
N  47.151  45.013  48.815
N  51.761  52.453  51.079
N  48.411  51.553  54.037
N  52.353  53.934  53.978
N  52.840  50.036  49.228
N  47.749  49.355  48.296
C  45.238  42.808  47.286
C  47.172  45.301  44.376
C  46.197  52.397  51.069
C  47.138  43.291  45.869
C  48.588  50.626  55.037
C  53.052  54.098  56.375
C  44.622  43.983  46.852
C  51.894  53.827  51.502
C  45.260  44.810  45.927
C  48.205  50.485  51.840
C  46.527  44.474  45.431
C  51.406  53.938  52.972
C  56.677  51.811  56.155
C  46.467  52.748  44.960
C  47.085  51.016  46.603
C  52.312  46.996  46.517
C  52.412  49.441  46.828
C  50.386  53.922  48.435
C  52.523  50.115  50.631
C  52.571  50.405  44.506
C  47.799  48.687  45.956
C  54.285  53.274  56.250
C  51.302  56.212  48.639
C  52.145  50.677  45.935
C  51.361  54.801  49.194
C  49.254  46.025  45.639
C  52.791  51.562  51.129
C  51.898  49.739  48.263
C  54.053  49.220  53.886
C  52.893  51.882  46.466
C  54.453  52.135  57.049
C  51.942  53.806  55.355
C  51.055  54.819  50.684
C  51.714  45.782  45.770
C  53.356  49.113  51.453
C  52.735  45.346  44.690
C  48.154  46.940  51.113
C  52.916  48.985  52.897
C  55.642  51.408  57.001
C  47.997  46.502  44.861
C  44.896  50.866  45.352
C  48.957  45.954  50.290
C  46.353  51.272  45.295
C  47.358  48.430  49.217
C  55.330  53.677  55.408
C  47.032  52.668  52.302
C  48.149  44.729  49.876
C  56.517  52.946  55.359
C  52.271  46.074  43.432
C  49.413  50.996  56.292
C  49.365  53.325  56.879
C  51.331  52.398  55.595
C  48.124  52.651  57.501
C  48.160  48.371  50.547
C  46.223  53.463  53.307
C  48.427  51.155  57.474
C  47.511  51.339  52.935
C  47.076  49.542  47.028
C  46.498  42.464  46.792
C  50.756  46.292  43.628
H  36.061  34.816  45.777
H  72.658  50.233  48.447
H  67.592  57.365  46.363
H  57.809  57.116  49.617
H  54.529  38.396  51.220
H  43.952  47.801  62.885
H  53.962  52.061  72.152
H  68.619  56.255  46.227
H  37.701  33.741  52.817
H  54.751  52.999  71.256
H  68.472  59.605  55.345
H  43.988  56.436  59.068
H  71.082  46.141  48.737
H  48.684  61.452  42.505
H  52.954  67.939  37.673
H  60.345  45.460  52.180
H  51.512  68.352  37.434
H  57.635  56.115  50.745
H  64.463  42.704  42.580
H  53.791  37.551  52.244
H  43.681  46.453  62.239
H  49.529  52.617  40.459
H  37.889  33.159  54.207
H  48.275  49.270  70.646
H  49.168  54.078  40.663
H  36.386  33.359  45.500
H  34.573  65.009  52.629
H  69.587  59.404  54.333
H  47.615  39.177  46.679
H  38.641  58.414  60.224
H  72.706  49.641  49.845
H  67.733  48.634  35.878
H  32.734  57.074  59.375
H  48.032  37.729  46.495
H  35.535  64.091  51.895
H  46.837  49.669  70.361
H  31.853  57.986  58.541
H  45.107  57.418  58.768
H  65.673  61.543  43.061
H  44.721  29.113  50.290
H  47.036  42.394  39.546
H  56.642  56.844  32.042
H  55.495  50.050  33.860
H  42.870  52.716  60.655
H  48.383  66.293  60.693
H  60.993  43.284  50.558
H  39.779  32.046  51.519
H  55.696  50.532  32.434
H  48.141  39.962  52.764
H  39.954  45.972  65.753
H  37.223  51.621  56.994
H  38.628  31.761  52.467
H  42.373  51.281  60.602
H  60.367  48.410  47.844
H  41.978  32.981  60.014
H  59.739  42.452  50.357
H  57.767  44.764  42.371
H  56.691  45.123  41.361
H  61.709  47.991  47.269
H  33.630  58.068  37.487
H  58.662  37.407  45.321
H  45.511  40.387  33.166
H  59.938  37.757  46.065
H  32.973  56.699  37.484
H  40.287  44.675  65.037
H  48.478  42.351  39.072
H  49.728  66.998  60.701
H  40.724  33.336  60.792
H  61.091  46.228  51.103
H  57.191  55.428  31.996
H  43.837  34.412  36.850
H  39.253  59.010  61.479
H  41.704  51.906  40.556
H  59.812  62.290  52.478
H  62.501  40.627  34.733
H  62.617  42.021  35.326
H  58.843  63.186  51.725
H  41.504  50.401  40.557
H  47.980  41.215  51.921
H  67.354  49.420  37.122
H  31.237  51.687  42.480
H  64.425  41.189  42.481
H  43.318  33.029  36.498
H  43.414  28.374  50.056
H  37.729  50.224  57.307
H  62.608  49.704  38.607
H  61.169  50.101  38.326
H  32.252  51.225  41.450
H  45.729  41.690  32.417
H  52.185  54.453  67.108
H  52.735  53.157  67.676
H  47.182  61.257  42.613
H  51.234  45.460  31.943
H  54.647  54.077  68.441
H  58.736  45.545  49.416
H  57.261  35.621  54.085
H  62.939  68.465  47.328
H  64.466  62.300  43.588
H  58.473  36.469  54.427
H  44.461  66.999  47.444
H  51.364  44.123  60.154
H  43.162  67.724  47.749
H  51.686  44.967  61.375
H  49.495  56.901  40.324
H  61.797  54.905  42.163
H  54.806  41.345  34.991
H  61.393  55.138  43.608
H  58.480  48.484  36.706
H  66.476  41.585  57.163
H  66.795  41.744  55.687
H  58.350  47.082  36.139
H  60.062  46.069  48.891
H  56.258  41.438  35.425
H  49.658  58.410  40.361
H  39.429  49.739  35.252
H  60.750  34.094  54.558
H  43.605  37.430  60.528
H  43.678  37.014  61.987
H  59.978  33.226  53.580
H  53.892  66.288  35.739
H  36.126  57.348  43.413
H  52.691  67.119  35.325
H  47.061  49.815  59.973
H  47.431  51.288  59.980
H  35.539  41.952  58.955
H  36.117  41.720  57.570
H  27.907  49.020  48.984
H  40.866  50.096  34.916
H  35.984  50.864  67.392
H  34.946  50.126  66.565
H  27.894  49.567  50.400
H  48.370  38.476  36.331
H  49.835  38.210  36.631
H  35.597  35.018  41.220
H  41.605  38.761  57.431
H  41.441  51.488  53.398
H  60.767  37.524  54.318
H  61.451  36.168  54.338
H  49.714  60.279  39.200
H  51.218  60.456  39.318
H  59.378  57.977  62.283
H  33.225  48.522  43.800
H  32.749  49.842  43.219
H  46.661  63.059  61.084
H  58.868  58.781  63.466
H  62.617  57.142  64.061
H  62.555  55.692  64.507
H  54.939  39.504  53.201
H  47.239  64.413  60.711
H  49.679  41.657  35.246
H  54.230  38.894  54.397
H  50.878  46.589  32.894
H  50.401  41.085  36.454
H  48.127  47.101  60.346
H  40.270  39.484  57.430
H  48.783  48.461  60.182
H  54.831  65.687  60.217
H  39.928  51.568  53.505
H  52.799  63.421  47.255
H  47.482  57.444  60.547
H  53.211  62.146  46.541
H  57.918  65.898  61.865
H  57.227  64.588  61.529
H  46.876  56.317  61.364
H  67.022  50.836  50.569
H  67.008  50.759  49.052
H  65.812  64.463  54.364
H  54.142  66.384  61.377
H  38.000  34.325  44.358
H  39.159  33.836  43.507
H  66.835  47.868  49.583
H  35.897  60.671  38.135
H  35.053  61.394  39.170
H  66.345  46.895  48.525
H  64.623  63.881  53.619
H  54.666  52.563  68.548
H  32.244  42.565  41.346
H  62.881  35.323  40.559
H  65.520  56.960  41.796
H  52.947  36.712  49.018
H  55.729  37.727  46.043
H  66.561  55.863  41.663
H  65.240  58.418  48.024
H  55.454  38.877  45.090
H  35.245  38.372  51.771
H  33.851  37.832  52.041
H  39.577  35.813  40.660
H  50.175  36.972  66.451
H  57.329  34.212  47.452
H  49.618  35.793  67.228
H  38.975  34.832  39.669
H  65.634  61.683  52.345
H  56.421  35.300  47.998
H  66.885  62.378  51.837
H  56.718  32.858  39.503
H  43.348  64.342  55.403
H  55.680  33.848  40.001
H  43.626  65.829  55.279
H  64.203  58.007  49.055
H  70.774  45.211  49.897
H  56.729  33.759  57.336
H  57.984  32.904  57.320
H  56.742  59.366  30.840
H  56.219  58.366  29.824
H  58.215  30.846  44.131
H  57.573  32.024  43.419
H  44.574  38.708  55.751
H  44.985  33.791  48.969
H  30.724  56.953  43.063
H  30.717  56.499  44.512
H  45.718  33.539  47.663
H  44.021  61.141  58.277
H  44.148  62.655  58.294
H  43.083  38.856  55.504
H  63.093  56.472  47.929
H  61.767  55.733  47.978
H  52.790  36.875  47.516
H  36.811  34.932  40.312
H  61.309  63.760  56.719
H  33.379  41.296  59.026
H  53.353  40.719  61.197
H  54.806  41.159  61.231
H  38.594  47.333  64.684
H  43.384  30.623  56.711
H  65.383  54.232  52.618
H  66.857  54.181  52.253
H  35.352  59.050  46.614
H  33.894  58.626  46.621
H  42.827  53.768  56.201
H  43.967  54.482  55.495
H  37.211  56.459  42.830
H  48.394  43.877  30.084
H  41.051  49.121  59.412
H  42.205  49.633  58.566
H  47.270  43.941  31.104
H  32.654  41.558  42.406
H  63.133  33.875  40.941
H  43.585  29.162  56.349
H  53.458  63.979  39.902
H  46.330  59.244  61.109
H  39.608  48.448  64.867
H  32.396  40.157  58.819
H  60.097  64.009  57.599
H  54.683  63.220  39.424
H  49.633  30.558  40.214
H  52.599  61.461  36.918
H  53.811  60.556  36.778
H  63.908  62.005  48.171
H  40.892  41.196  61.218
H  42.408  41.268  61.261
H  61.827  56.131  52.573
H  63.983  60.642  47.505
H  52.387  35.589  35.554
H  52.316  34.287  34.775
H  61.443  57.549  52.186
H  56.002  56.321  29.030
H  48.649  29.430  40.472
H  57.203  56.399  29.956
H  46.030  60.568  60.428
H  61.766  69.128  46.626
H  39.484  58.892  56.191
H  46.487  47.133  62.832
H  62.528  35.698  52.228
H  64.000  36.028  52.062
H  59.978  58.475  32.008
H  71.638  44.265  53.826
H  71.137  45.340  52.877
H  59.933  52.565  67.140
H  61.374  52.435  67.604
H  49.437  34.675  57.101
H  52.601  60.638  69.808
H  53.990  60.176  69.406
H  58.472  58.323  31.894
H  50.514  33.776  56.519
H  57.208  65.426  45.053
H  56.639  61.595  34.668
H  57.623  60.582  34.108
H  36.861  36.972  46.469
H  39.272  47.869  50.553
H  37.797  47.694  50.235
H  36.645  36.807  44.975
H  36.072  36.321  38.473
H  37.564  36.040  38.488
H  37.804  49.461  68.944
H  58.686  65.570  45.371
H  38.864  50.004  68.001
H  56.557  44.628  48.760
H  48.329  36.301  35.992
H  42.096  69.202  57.632
H  62.688  52.469  57.230
H  51.063  56.809  32.577
H  52.343  56.233  33.156
H  63.453  53.713  57.646
H  41.032  47.038  68.445
H  39.749  47.849  68.485
H  60.155  66.286  40.782
H  60.536  66.659  42.204
H  46.063  40.586  55.206
H  56.868  46.050  48.326
H  44.818  31.456  60.588
H  44.758  41.111  55.777
H  36.805  47.739  65.898
H  37.451  48.688  66.893
H  63.924  47.641  59.232
H  65.071  46.688  59.519
H  68.086  59.772  42.762
H  61.211  59.862  53.172
H  61.556  61.186  53.831
H  67.331  60.061  41.476
H  49.754  36.222  35.471
H  46.336  31.471  60.603
H  43.077  68.055  57.468
H  45.888  43.219  63.303
H  56.954  52.770  69.079
H  41.537  57.541  38.713
H  62.695  42.379  64.641
H  62.097  42.589  63.261
H  65.179  59.795  63.529
H  32.514  56.373  51.965
H  33.374  55.182  51.578
H  64.508  58.441  63.381
H  62.171  57.333  42.168
H  60.663  57.147  42.175
H  54.035  48.931  36.802
H  40.143  58.131  38.839
H  52.827  48.878  37.721
H  57.750  49.612  38.498
H  56.905  49.499  39.755
H  44.290  38.703  31.403
H  68.082  52.602  38.127
H  69.229  51.612  38.026
H  59.012  42.801  37.761
H  58.377  43.944  38.532
H  30.400  47.212  40.753
H  40.862  39.577  52.972
H  41.424  38.687  54.066
H  42.859  39.071  31.751
H  56.367  51.691  69.972
H  33.064  43.728  47.280
H  45.548  63.430  35.869
H  47.191  42.970  62.564
H  65.884  48.702  40.844
H  65.026  49.948  40.703
H  65.963  52.510  37.542
H  64.884  52.103  36.555
H  68.308  44.088  37.933
H  53.394  43.273  33.678
H  52.346  43.265  34.777
H  67.416  44.148  36.705
H  46.693  67.670  49.267
H  45.099  62.008  35.582
H  45.195  67.907  49.359
H  56.218  32.361  53.657
H  36.805  63.883  43.279
H  63.439  46.374  52.401
H  62.797  45.001  52.480
H  35.931  65.096  43.547
H  59.669  39.599  63.691
H  59.546  38.923  65.046
H  57.096  40.726  58.102
H  57.694  41.946  58.781
H  33.974  42.967  46.332
H  56.507  33.724  53.053
H  63.558  35.651  46.466
H  62.563  35.828  45.333
H  63.053  60.348  60.070
H  49.360  55.211  28.169
H  44.074  41.230  67.527
H  42.654  40.934  67.974
H  47.843  55.164  28.118
H  41.255  55.754  60.238
H  40.185  56.818  60.063
H  42.162  41.076  31.022
H  40.864  41.861  30.951
H  52.662  36.096  65.080
H  64.700  39.824  44.818
H  43.206  34.210  44.852
H  64.128  38.987  43.688
H  50.792  47.844  61.678
H  51.452  49.025  60.989
H  48.532  45.564  31.886
H  47.341  46.171  31.167
H  46.479  52.024  29.644
H  32.559  49.209  49.288
H  33.223  50.405  48.627
H  46.819  50.695  30.296
H  55.574  34.376  49.817
H  55.755  34.773  51.271
H  51.369  35.400  65.469
H  52.640  51.302  32.136
H  42.633  33.383  45.989
H  52.446  50.114  62.807
H  35.162  53.236  47.273
H  34.549  52.031  47.965
H  47.323  33.997  59.134
H  65.293  61.176  37.472
H  65.468  59.684  37.690
H  46.659  35.345  59.352
H  64.675  41.498  55.157
H  63.753  40.311  55.374
H  56.496  51.078  30.237
H  57.082  52.479  30.279
H  51.492  49.075  63.368
H  48.115  52.457  33.029
H  44.297  56.071  33.647
H  47.145  52.169  31.897
H  44.467  68.494  43.669
H  44.218  69.845  43.022
H  54.720  65.581  37.650
H  53.776  64.397  37.764
H  44.504  34.294  64.868
H  52.458  37.831  56.602
H  53.778  38.579  56.534
H  45.561  35.139  65.557
H  45.295  57.073  33.091
H  53.171  50.438  33.267
H  41.396  51.088  65.734
H  42.528  41.907  63.607
H  40.860  54.288  66.533
H  34.887  35.596  52.887
H  36.279  35.876  52.347
H  65.165  64.726  46.278
H  36.251  61.217  58.709
H  35.331  60.866  59.866
H  65.017  63.301  46.780
H  64.938  50.238  48.400
H  64.516  48.841  47.978
H  56.914  68.564  59.985
H  40.809  52.829  66.953
H  55.757  69.547  59.923
H  41.196  36.686  33.845
H  42.190  37.301  32.874
H  35.228  63.979  57.537
H  44.145  63.225  61.873
H  44.811  61.864  61.977
H  48.073  43.021  65.194
H  47.492  41.618  65.195
H  63.685  59.051  60.546
H  60.905  56.435  65.758
H  59.869  57.455  65.320
H  36.690  64.125  57.153
H  40.026  46.428  56.473
H  39.575  51.307  45.663
H  40.063  52.743  45.739
H  41.315  42.530  62.938
H  42.031  49.894  65.044
H  45.235  41.042  63.864
H  44.562  42.120  64.696
H  57.537  43.040  55.575
H  58.617  42.995  56.641
H  64.580  66.250  48.052
H  61.014  57.562  39.828
H  60.559  56.283  39.148
H  65.026  66.081  49.494
H  48.751  47.756  68.983
H  47.597  48.651  68.565
H  46.182  40.362  58.125
H  46.912  41.681  57.936
H  39.111  33.161  49.603
H  50.448  45.363  29.890
H  50.515  46.788  29.369
H  38.505  31.773  49.720
H  36.943  41.147  34.626
H  37.261  39.682  34.387
H  47.037  38.337  60.730
H  47.131  38.036  62.216
H  41.254  45.803  57.113
H  30.464  46.319  41.979
H  41.193  59.649  63.315
H  39.856  58.986  63.597
H  56.378  49.060  36.408
H  46.433  58.773  68.686
H  63.935  67.921  50.117
H  62.472  67.941  49.709
H  59.120  36.817  43.230
H  57.890  36.633  42.358
H  48.407  62.621  35.421
H  32.098  56.550  56.106
H  32.836  56.035  57.330
H  47.417  62.322  34.308
H  41.407  43.789  59.934
H  56.107  31.219  47.086
H  41.500  44.065  58.443
H  41.927  37.587  44.145
H  58.454  48.689  46.610
H  59.978  59.662  34.501
H  58.769  58.985  35.123
H  57.003  48.377  46.285
H  50.184  42.794  31.269
H  49.279  42.974  32.474
H  43.103  64.913  60.882
H  41.877  65.476  61.580
H  56.777  47.121  63.622
H  41.817  39.073  43.851
H  63.055  56.105  54.474
H  57.266  31.997  47.684
H  42.998  55.024  61.401
H  53.459  50.309  28.924
H  40.291  53.871  50.711
H  40.463  52.367  50.592
H  52.978  50.457  27.491
H  37.835  62.891  49.328
H  37.427  63.869  50.416
H  57.320  68.655  45.869
H  56.085  67.933  45.359
H  47.784  42.815  34.853
H  56.971  44.478  51.043
H  45.047  58.959  68.094
H  58.429  44.064  51.142
H  48.921  52.360  65.084
H  50.275  52.058  65.703
H  56.465  42.593  61.997
H  61.415  51.157  53.794
H  42.260  47.460  58.175
H  43.770  47.625  58.177
H  62.171  49.869  54.064
H  43.750  59.127  37.418
H  42.562  58.318  36.927
H  43.485  56.455  61.551
H  48.366  44.055  34.197
H  61.606  56.382  54.833
H  57.854  46.050  63.654
H  37.118  58.504  54.408
H  37.887  61.545  54.352
H  57.265  58.516  36.657
H  56.407  59.766  36.736
H  36.512  62.184  54.277
H  51.091  35.913  43.821
H  52.190  35.951  44.869
H  62.304  51.926  62.237
H  63.350  52.925  62.702
H  51.780  63.823  59.974
H  46.616  67.267  45.283
H  56.322  34.363  59.793
H  46.072  68.577  45.824
H  41.902  52.780  58.636
H  41.089  51.512  58.831
H  60.231  36.599  41.345
H  60.853  36.025  40.083
H  45.803  47.339  67.161
H  45.310  45.109  64.882
H  45.216  45.312  63.380
H  45.228  45.940  67.021
H  38.170  48.504  62.870
H  37.058  47.473  62.784
H  52.361  65.137  60.466
H  57.138  33.522  60.759
H  46.795  37.824  64.379
H  46.495  39.313  64.375
H  36.898  57.815  55.744
H  34.515  58.411  63.717
H  33.378  57.413  63.583
H  40.531  64.992  44.647
H  47.393  46.600  34.543
H  48.350  47.083  33.467
H  41.482  63.834  44.399
H  40.577  48.903  57.274
H  39.134  48.437  57.355
H  47.210  33.603  50.375
H  46.453  32.287  50.400
H  69.368  41.173  57.568
H  53.202  55.288  60.365
H  53.949  53.966  60.345
H  68.334  42.058  58.242
H  43.674  58.782  34.733
H  42.765  57.671  34.238
H  41.467  39.170  38.218
H  40.169  39.444  37.480
H  49.818  29.806  43.341
H  43.711  36.831  54.905
H  43.282  35.438  54.476
H  50.109  28.554  42.532
H  41.633  54.706  39.357
H  45.964  47.616  61.490
H  42.979  54.793  40.055
H  53.891  38.757  65.051
H  50.211  42.404  60.900
H  51.084  41.188  61.158
H  42.773  70.015  46.842
H  30.160  45.114  40.135
H  31.157  43.973  40.033
H  38.656  45.952  62.160
H  39.721  46.977  62.507
H  55.738  36.220  40.287
H  38.388  56.152  57.207
H  38.866  55.409  55.972
H  43.750  70.243  45.702
H  55.666  37.404  39.338
H  37.429  55.214  44.636
H  51.451  54.186  34.033
H  50.128  54.890  34.279
H  64.867  44.632  47.746
H  46.908  58.255  34.009
H  47.497  57.748  35.314
H  64.146  44.691  46.411
H  55.557  43.869  56.603
H  56.667  43.454  57.553
H  51.936  48.617  33.654
H  36.241  54.337  44.992
H  51.535  49.759  34.572
H  29.299  52.257  52.622
H  62.854  48.850  62.946
H  57.251  50.271  36.125
H  70.485  49.455  49.195
H  32.620  54.258  49.724
H  33.404  53.834  48.495
H  69.077  49.839  49.613
H  40.459  46.228  42.725
H  41.380  45.754  41.614
H  41.174  47.860  48.353
H  39.975  47.051  47.891
H  36.535  45.386  62.323
H  30.783  51.942  52.695
H  37.715  41.534  61.454
H  35.090  45.141  61.924
H  46.345  37.368  31.486
H  45.961  36.496  32.668
H  36.113  40.177  38.376
H  37.618  40.337  38.243
H  38.447  54.953  65.341
H  60.640  43.466  61.862
H  60.552  43.753  60.373
H  39.805  55.339  64.783
H  61.624  48.014  63.251
H  38.970  42.251  60.985
H  35.169  58.896  61.471
H  40.536  56.823  33.885
H  39.057  56.573  34.121
H  43.201  48.258  71.173
H  44.677  48.255  70.819
H  45.649  43.062  54.800
H  56.140  43.148  68.042
H  57.655  43.206  68.142
H  46.043  43.134  56.265
H  60.483  31.687  52.090
H  61.719  30.843  51.831
H  48.820  57.798  71.082
H  47.958  57.679  69.837
H  67.390  55.048  47.595
H  41.444  31.763  57.831
H  56.343  67.444  62.138
H  40.718  33.066  58.116
H  44.511  31.261  38.406
H  45.055  30.464  39.578
H  59.333  69.936  49.084
H  60.799  69.885  49.480
H  44.577  54.188  65.056
H  52.206  39.384  39.492
H  51.206  38.895  38.458
H  44.561  54.534  63.578
H  56.131  66.890  63.536
H  67.753  54.223  46.373
H  53.504  43.684  52.450
H  48.687  41.260  56.509
H  36.419  58.196  60.968
H  54.412  56.391  63.647
H  55.230  56.381  64.927
H  58.808  43.587  47.371
H  58.175  43.076  48.654
H  63.461  58.967  55.104
H  57.859  43.937  63.040
H  58.767  42.741  63.263
H  63.068  58.784  53.649
H  58.533  40.152  51.703
H  58.602  38.672  52.036
H  71.151  45.708  42.933
H  71.361  46.766  44.003
H  42.444  70.899  54.680
H  51.525  52.011  34.359
H  50.165  51.515  33.901
H  43.821  70.599  54.112
H  51.192  66.249  36.683
H  51.687  65.193  35.710
H  49.182  51.680  37.700
H  48.849  51.599  36.221
H  53.704  43.785  53.952
H  47.736  40.079  56.594
H  54.115  39.587  63.800
H  57.128  41.779  60.900
H  53.063  58.648  63.937
H  57.562  53.277  49.211
H  44.395  57.154  52.760
H  42.955  57.174  53.242
H  48.594  46.979  52.149
H  63.768  43.463  36.602
H  64.491  42.134  36.473
H  52.788  47.064  43.347
H  49.779  69.369  57.964
H  51.001  68.537  57.614
H  47.860  44.657  43.762
H  40.447  63.955  39.081
H  51.419  49.877  50.770
H  39.531  62.759  39.278
H  28.676  48.635  54.021
H  30.059  48.576  54.646
H  55.778  50.537  57.663
H  34.810  47.570  64.973
H  34.134  48.926  64.866
H  48.851  43.939  49.480
H  42.707  50.475  69.693
H  43.958  51.336  69.691
H  48.577  49.893  48.452
H  59.320  50.412  44.709
H  54.748  50.997  53.073
H  43.749  55.916  68.819
H  42.926  54.647  68.954
H  49.235  48.678  50.337
H  44.843  37.170  35.334
H  46.189  36.491  35.514
H  47.941  53.268  52.003
H  71.181  52.989  52.346
H  72.335  52.141  51.841
H  45.886  54.423  52.845
H  38.092  35.624  62.842
H  39.588  35.523  63.084
H  46.828  53.709  54.212
H  44.730  39.098  52.821
H  46.115  39.179  53.437
H  45.319  52.890  53.627
H  58.250  68.277  48.090
H  58.191  66.794  48.414
H  45.816  53.364  50.657
H  51.908  38.482  66.015
H  51.481  38.477  67.472
H  46.803  51.894  50.278
H  39.920  55.577  45.325
H  40.605  54.492  44.512
H  46.759  49.024  51.951
H  53.950  41.638  54.380
H  55.457  41.588  54.192
H  59.930  51.626  45.387
H  46.003  49.200  47.141
H  52.191  56.228  36.327
H  53.181  56.376  35.185
H  47.220  52.871  56.877
H  60.725  41.573  53.961
H  61.926  40.659  54.125
H  50.418  52.866  48.792
H  41.486  36.729  36.374
H  43.002  36.647  36.421
H  53.331  55.185  56.280
H  34.504  51.869  53.804
H  33.150  51.384  54.292
H  52.070  56.860  49.126
H  32.895  58.821  48.571
H  31.910  59.651  49.375
H  49.998  53.803  57.675
H  43.663  61.196  31.287
H  44.982  60.984  32.010
H  50.294  56.660  48.817
H  45.905  36.823  53.505
H  45.660  35.329  53.621
H  52.605  53.958  57.397
H  35.588  64.611  49.138
H  36.250  65.110  47.865
H  47.593  44.314  50.765
H  36.034  60.762  62.711
H  66.771  53.870  61.070
H  45.319  51.753  51.316
H  66.611  55.380  61.032
H  68.324  57.633  49.628
H  46.609  51.625  47.418
H  65.393  52.382  64.644
H  66.007  52.012  65.983
H  48.150  51.357  46.487
H  59.169  47.646  54.384
H  59.351  46.171  54.072
H  46.863  50.678  44.484
H  52.473  59.388  33.859
H  52.656  59.292  35.363
H  44.793  49.761  45.467
H  59.753  66.486  49.987
H  61.167  66.346  50.523
H  44.382  51.166  44.406
H  48.109  63.218  66.255
H  48.900  61.925  66.160
H  44.378  51.365  46.206
H  64.816  55.892  50.840
H  63.373  56.368  50.834
H  47.539  53.054  44.901
H  45.391  71.203  56.701
H  45.270  69.692  56.791
H  52.402  54.402  49.034
H  67.787  56.595  50.597
H  54.965  48.635  53.574
H  54.364  57.911  30.916
H  53.284  58.919  30.563
H  45.981  52.960  43.978
H  33.228  61.572  45.054
H  34.079  60.733  45.990
H  51.541  44.983  46.545
H  39.185  60.888  62.716
H  40.512  61.605  62.540
H  52.675  44.237  44.551
H  56.179  39.064  59.333
H  54.881  38.276  59.320
H  52.479  45.488  42.506
H  55.048  51.999  61.817
H  55.086  52.082  60.301
H  53.777  45.608  44.989
H  47.849  64.597  42.286
H  47.883  66.109  42.431
H  50.467  47.345  43.355
H  59.928  44.058  42.024
H  59.368  42.932  41.172
H  50.166  45.575  42.994
H  37.654  35.255  59.019
H  38.007  36.370  58.050
H  46.490  45.733  49.144
H  44.745  31.878  51.727
H  43.732  31.853  50.596
H  48.118  42.997  45.462
H  53.728  48.878  54.911
H  57.188  65.768  50.775
H  46.970  41.517  47.098
H  66.463  58.475  51.010
H  65.204  59.313  51.158
H  53.652  51.827  57.739
H  42.639  55.949  66.915
H  43.753  56.971  66.776
H  52.533  52.166  47.484
H  42.964  59.629  68.877
H  43.484  60.636  67.866
H  47.091  46.597  51.226
H  48.852  60.121  33.349
H  50.353  59.896  33.412
H  46.373  45.688  43.682
H  34.747  35.669  50.336
H  35.721  36.833  50.273
H  44.740  45.706  45.551
H  59.839  68.438  41.112
H  59.072  69.233  42.154
H  43.611  44.238  47.210
H  58.733  57.642  57.213
H  57.287  57.179  57.190
H  44.715  42.134  47.983
H  44.728  40.701  69.587
H  46.128  41.019  69.091
H  55.937  66.593  51.018
H  36.449  59.409  63.262
H  67.896  62.108  44.163
H  51.038  50.892  45.952
H  50.227  49.839  27.293
H  50.947  48.720  28.024
H  48.927  52.406  54.021
H  56.097  49.314  64.960
H  55.103  48.447  64.205
H  54.439  49.401  51.389
H  37.994  45.237  64.389
H  38.185  44.239  65.518
H  52.051  49.664  53.130
H  33.617  46.963  63.224
H  32.840  46.712  64.504
H  52.561  47.933  53.083
H  50.035  33.407  37.833
H  48.838  33.079  38.707
H  45.964  53.365  45.744
H  44.475  62.835  49.343
H  44.072  63.150  50.773
H  48.342  47.059  43.932
H  49.902  47.056  37.188
H  48.593  47.011  36.420
H  46.477  47.113  46.174
H  62.260  38.406  52.595
H  61.319  39.565  52.316
H  53.259  48.104  50.963
H  67.278  63.045  43.140
H  60.037  58.574  67.982
H  46.605  50.784  53.329
H  53.748  52.379  28.235
H  55.082  51.761  28.614
H  52.442  51.330  43.891
H  57.737  51.218  58.398
H  58.944  51.936  58.976
H  51.955  49.598  44.042
H  57.007  56.477  35.874
H  58.474  56.099  35.971
H  53.645  50.102  44.466
H  38.696  42.791  49.087
H  39.194  41.746  48.105
H  52.726  52.754  45.787
H  62.840  59.850  36.186
H  63.539  61.198  36.143
H  53.991  51.680  46.508
H  32.169  53.033  63.532
H  33.527  53.226  64.184
H  53.804  50.032  48.986
H  62.796  50.753  41.654
H  62.431  52.223  41.769
H  49.412  46.442  49.385
H  53.070  33.263  58.362
H  53.591  32.031  57.643
H  61.190  58.319  67.027
H  54.952  28.393  48.446
H  47.936  53.024  58.534
H  51.157  57.376  70.915
H  42.956  39.060  36.242
H  43.303  38.656  34.820
H  39.902  53.243  60.532
H  38.620  54.016  60.792
H  39.755  48.882  61.387
H  38.554  49.771  61.115
H  42.031  47.589  34.893
H  43.508  47.682  35.233
H  35.353  50.638  59.258
H  35.621  52.110  59.520
H  58.045  59.817  68.093
H  58.331  35.152  49.272
H  30.326  53.811  49.698
H  29.344  54.820  49.129
H  62.104  34.170  47.991
H  60.700  33.731  47.615
H  60.172  53.169  31.823
H  60.641  54.547  31.392
H  65.500  59.864  59.605
H  66.823  60.188  60.277
H  52.698  69.814  43.426
H  52.270  69.741  41.971
H  58.924  33.801  48.911
H  56.791  58.964  68.164
H  39.974  51.441  32.307
H  41.064  50.393  32.452
H  56.201  67.688  47.546
H  40.516  37.903  40.949
H  40.850  39.351  40.636
H  40.311  66.200  42.078
H  40.006  64.778  41.640
H  35.473  45.811  35.732
H  36.967  46.076  35.669
H  47.913  33.128  48.111
H  49.427  33.100  48.000
H  37.104  51.486  61.035
H  36.794  52.703  61.889
H  42.545  60.158  61.655
H  43.028  61.288  60.763
H  47.224  64.758  36.385
H  45.946  65.577  36.345
H  60.321  45.141  45.346
H  61.778  45.568  45.334
H  59.084  38.476  41.887
H  59.399  39.056  43.254
H  45.149  52.063  64.385
H  45.125  52.507  62.933
H  58.781  60.495  43.085
H  58.792  59.039  43.517
H  52.510  42.839  61.623
H  53.787  43.661  61.650
H  55.525  59.813  64.312
H  56.379  61.060  64.168
H  67.603  49.982  39.234
H  30.401  54.716  56.683
H  30.158  55.682  55.537
H  61.113  42.929  58.386
H  62.458  42.243  58.222
H  40.844  60.214  38.865
H  42.272  59.702  38.947
H  66.783  61.221  55.435
H  67.928  62.196  55.223
H  57.523  54.206  70.813
H  56.207  54.940  71.002
H  44.207  43.703  61.660
H  44.238  42.280  62.191
H  34.191  47.301  52.835
H  33.758  47.073  54.273
H  52.784  37.281  38.876
H  52.824  36.599  37.520
H  34.218  62.609  59.112
H  33.572  61.326  58.621
H  37.346  51.208  36.479
H  36.902  51.752  35.133
H  35.992  39.838  53.257
H  37.243  39.048  52.914
H  68.682  48.933  39.437
H  55.975  66.341  46.881
H  34.942  44.567  53.678
H  65.679  50.003  58.888
H  35.779  65.003  59.404
H  36.096  65.939  58.251
H  63.062  58.605  45.943
H  61.721  59.011  46.529
H  35.086  47.515  37.363
H  35.545  48.957  37.484
H  54.040  45.878  59.205
H  53.789  47.356  58.962
H  50.398  63.657  32.982
H  50.168  62.657  34.102
H  63.805  45.812  67.455
H  64.531  47.124  67.214
H  41.402  47.996  38.268
H  40.776  47.989  36.884
H  64.189  40.045  49.050
H  65.585  39.456  48.946
H  57.970  35.634  60.680
H  57.181  36.931  60.658
H  48.175  59.888  66.688
H  46.723  60.185  67.019
H  38.848  66.928  52.650
H  40.135  67.545  53.170
H  66.066  48.561  58.614
H  35.067  44.250  55.158
H  41.394  54.680  41.939
H  41.400  55.972  41.141
H  63.045  35.366  43.237
H  51.494  56.201  47.539
H  44.633  65.316  45.308
H  44.433  64.909  46.757
H  50.145  50.156  56.452
H  47.622  54.758  70.401
H  47.754  53.608  69.417
H  50.852  52.155  50.786
H  41.599  36.345  62.258
H  41.322  36.883  63.650
H  53.315  53.824  53.762
H  50.982  71.305  57.696
H  52.469  71.115  57.941
H  57.630  51.259  56.147
H  57.979  56.843  61.017
H  56.944  56.011  60.280
H  51.278  55.837  51.105
H  71.170  44.953  45.565
H  72.033  46.074  46.118
H  53.648  51.217  54.314
H  54.645  38.967  61.515
H  54.595  37.848  62.541
H  50.906  48.382  45.863
H  68.166  56.360  53.601
H  42.905  44.375  68.512
H  66.835  56.527  52.889
H  44.108  44.142  67.615
H  68.334  47.191  54.220
H  53.529  49.255  46.860
H  57.222  60.397  41.503
H  55.803  59.859  41.556
H  49.811  45.563  50.910
H  53.679  63.818  61.693
H  52.398  63.039  61.934
H  50.641  53.926  47.347
H  34.429  41.341  44.349
H  35.751  41.070  45.044
H  49.343  54.303  48.555
H  31.469  48.816  63.078
H  30.944  47.738  62.146
H  47.620  45.375  47.967
H  41.867  43.725  31.680
H  42.686  44.993  31.509
H  51.127  54.581  55.525
H  43.574  59.279  43.925
H  44.248  59.128  42.572
H  48.931  50.837  58.421
H  48.800  37.135  57.847
H  49.009  38.639  57.869
H  47.517  50.526  57.331
H  69.831  46.936  54.202
H  49.060  54.111  56.133
H  51.470  58.861  70.858
H  49.964  54.621  50.859
H  34.844  34.164  44.063
H  38.416  62.936  62.461
H  38.593  63.760  63.724
H  47.568  71.292  54.708
H  46.948  69.919  54.515
H  37.038  42.763  36.965
H  37.484  44.189  36.690
H  31.655  48.496  52.360
H  30.590  49.515  52.726
H  65.184  62.331  61.404
H  64.333  61.359  62.203
H  64.857  52.401  49.068
H  63.499  51.726  49.155
H  55.600  52.987  43.079
H  55.878  54.329  43.733
H  42.110  55.697  35.432
H  43.207  56.239  36.331
H  46.737  37.642  42.946
H  45.510  36.752  42.842
H  40.504  66.225  38.710
H  41.846  65.572  38.427
H  47.368  44.403  41.633
H  48.644  43.820  41.052
H  63.714  36.668  43.642
H  65.504  42.170  52.849
H  35.645  35.380  43.632
H  64.203  41.443  52.557
H  60.274  34.907  51.480
H  55.236  54.601  54.815
H  55.453  36.936  49.362
H  55.267  37.938  48.236
H  52.985  54.119  51.425
H  45.094  43.675  31.283
H  45.532  43.437  29.849
H  46.634  44.163  48.564
H  45.252  64.879  49.582
H  46.608  65.510  49.846
H  55.216  50.759  54.669
H  53.004  54.580  39.975
H  53.870  55.721  40.481
H  57.346  53.289  54.718
H  61.821  41.557  60.247
H  63.281  41.947  60.407
H  36.326  49.631  55.701
H  36.299  50.638  54.565
H  62.614  34.895  50.013
H  63.675  35.870  49.533
H  42.886  42.437  66.101
H  41.471  42.055  66.496
H  48.635  48.481  29.877
H  48.541  49.076  28.483
H  60.426  36.407  51.664
H  56.406  28.370  48.009
H  63.701  53.741  40.518
H  65.814  34.872  46.745
H  34.790  56.666  36.203
H  34.939  57.651  35.056
H  52.098  40.790  66.061
H  52.208  54.398  62.116
H  53.153  53.218  62.255
H  51.773  42.234  66.402
H  42.920  53.536  66.740
H  43.577  52.211  66.399
H  47.010  37.289  68.579
H  46.960  38.779  68.867
H  61.980  43.142  42.957
H  58.758  55.515  40.177
H  31.025  55.100  38.613
H  57.976  56.715  40.683
H  45.709  29.551  43.743
H  46.273  30.627  44.655
H  46.081  49.361  36.897
H  47.550  49.484  37.261
H  65.556  56.166  46.857
H  63.889  60.105  42.643
H  63.954  58.590  42.550
H  65.196  57.340  45.963
H  32.520  55.051  38.873
H  62.673  43.947  44.043
H  62.527  65.493  48.281
H  53.656  66.023  44.847
H  37.826  47.239  41.083
H  56.758  37.886  63.070
H  57.966  37.024  63.392
H  60.656  37.882  36.903
H  60.074  36.560  37.374
H  41.433  35.082  59.657
H  51.608  66.966  39.159
H  52.350  66.888  40.482
H  42.695  35.423  60.430
H  37.246  43.874  59.607
H  38.103  45.094  59.898
H  67.879  38.177  49.020
H  66.939  37.195  48.343
H  60.755  53.759  52.172
H  39.982  47.120  60.029
H  40.221  45.627  60.168
H  61.163  53.491  53.610
H  33.992  42.486  39.729
H  35.441  42.717  39.336
H  40.891  63.312  36.938
H  41.205  62.106  37.805
H  61.231  64.701  48.276
H  55.100  65.736  44.475
H  38.689  57.450  51.227
H  39.463  56.214  51.651
H  47.095  54.951  30.344
H  48.042  53.862  30.817
H  57.915  40.665  55.275
H  64.210  39.285  51.629
H  64.842  39.290  53.010
H  50.297  71.152  43.610
H  50.010  70.731  42.180
H  39.836  45.530  30.958
H  66.292  59.657  44.029
H  66.201  58.141  44.023
H  38.793  46.603  31.218
H  64.507  36.565  57.432
H  65.687  36.882  58.333
H  40.884  60.103  68.181
H  39.524  59.694  67.644
H  56.104  61.995  47.220
H  35.866  61.650  51.736
H  36.950  61.413  50.700
H  55.182  62.971  47.930
H  36.080  48.283  51.489
H  35.702  49.650  52.030
H  53.392  62.327  59.799
H  54.163  61.105  59.329
H  49.008  49.396  34.723
H  61.073  33.835  40.114
H  51.735  65.799  54.069
H  51.373  29.994  46.506
H  51.892  64.852  52.893
H  62.413  52.073  45.060
H  43.649  60.226  52.371
H  40.561  34.736  36.490
H  41.869  34.530  35.746
H  42.317  60.357  51.654
H  43.577  61.444  54.609
H  42.276  62.125  54.996
H  47.406  37.469  38.235
H  46.794  36.179  37.717
H  58.412  65.727  39.542
H  46.639  67.833  58.373
H  47.679  68.751  57.754
H  59.594  64.826  39.231
H  50.738  31.585  58.093
H  50.773  32.216  59.473
H  66.271  41.337  44.527
H  67.123  40.080  44.516
H  30.581  47.694  44.832
H  64.115  45.506  57.927
H  64.088  44.058  58.383
H  30.636  49.181  44.526
H  62.846  68.462  52.349
H  61.474  68.997  51.977
H  63.188  53.050  44.193
H  56.628  41.060  55.978
H  51.094  29.487  45.102
H  38.115  45.931  41.800
H  36.660  57.716  64.714
H  45.658  59.179  45.143
H  46.594  60.121  44.406
H  32.887  39.208  50.206
H  43.024  49.724  62.356
H  41.536  49.934  62.135
H  62.779  63.756  46.944
H  62.990  65.049  46.176
H  71.115  50.535  57.825
H  34.422  60.981  43.214
H  35.428  62.116  43.295
H  70.448  49.836  58.997
H  44.216  61.442  40.566
H  45.104  62.674  40.547
H  35.188  51.754  38.175
H  36.571  51.243  38.539
H  54.716  47.772  34.336
H  59.928  55.151  62.181
H  58.616  55.567  62.823
H  53.370  47.070  34.281
H  48.339  60.700  54.079
H  49.063  60.861  52.753
H  29.031  50.877  56.036
H  30.532  50.649  56.044
H  33.968  40.269  50.092
H  47.693  52.353  61.915
H  32.042  49.513  46.284
H  44.487  39.665  62.320
H  47.976  71.402  42.680
H  46.995  70.899  41.636
H  52.855  32.935  63.326
H  54.756  54.477  35.242
H  53.287  54.092  35.241
H  52.477  34.405  63.286
H  55.703  35.830  64.552
H  54.394  35.615  63.811
H  36.049  62.558  46.095
H  35.019  62.860  47.170
H  47.000  68.152  60.520
H  64.349  50.566  65.992
H  62.942  50.831  65.487
H  46.866  69.484  61.236
H  62.913  45.541  48.272
H  62.594  44.828  49.574
H  43.840  42.316  59.913
H  45.100  41.561  60.296
H  36.256  36.967  42.009
H  54.851  57.753  59.868
H  53.937  58.671  60.660
H  37.587  36.242  41.900
H  44.822  38.478  63.206
H  33.138  50.536  46.040
H  60.323  32.559  39.772
H  46.385  66.475  64.040
H  46.911  53.654  61.944
H  62.081  45.722  35.107
H  62.928  62.159  56.466
H  55.752  56.638  44.344
H  56.695  57.828  44.374
H  64.147  62.580  55.664
H  55.014  53.185  66.464
H  54.617  51.762  66.114
H  68.140  44.805  45.878
H  69.115  45.889  45.454
H  58.026  33.562  41.825
H  65.874  50.341  54.111
H  66.421  50.874  55.423
H  57.432  34.717  41.039
H  44.710  65.561  62.256
H  46.032  64.880  62.566
H  59.201  54.399  38.154
H  58.039  53.484  38.497
H  52.715  59.880  63.120
H  44.809  40.133  43.189
H  46.302  40.409  43.155
H  55.854  49.715  59.872
H  55.543  49.299  61.299
H  38.005  57.862  64.024
H  63.508  45.202  35.108
H  46.578  67.011  62.632
H  32.567  36.143  49.085
H  53.027  32.036  46.644
H  56.859  40.214  32.794
H  56.817  38.724  33.082
H  60.085  65.551  62.024
H  59.881  64.576  63.169
H  53.441  35.368  52.799
H  55.994  68.475  52.454
H  54.904  69.007  51.540
H  53.334  34.235  53.804
H  33.922  37.128  46.638
H  35.012  37.067  47.694
H  62.221  48.398  31.040
H  62.680  47.026  31.503
H  52.813  39.121  49.860
H  51.526  42.237  37.954
H  50.563  43.406  38.076
H  51.427  39.590  50.267
H  58.411  33.999  45.168
H  58.702  32.536  45.453
H  56.746  45.341  68.910
H  57.727  45.806  69.973
H  51.801  32.281  47.507
H  46.301  33.219  54.160
H  45.667  33.923  55.347
H  32.757  37.006  50.320
H  49.861  48.917  35.884
H  41.331  38.643  66.652
H  41.862  38.267  65.280
H  31.785  46.350  53.049
H  58.044  52.762  45.496
H  58.646  52.798  46.890
H  46.241  33.112  64.215
H  59.550  45.269  36.895
H  60.903  44.596  36.748
H  47.400  33.970  63.738
H  53.301  48.139  68.719
H  53.599  47.361  69.989
H  32.449  63.917  53.687
H  32.431  63.572  52.208
H  69.155  51.419  53.258
H  64.306  51.202  45.768
H  65.541  51.245  44.884
H  69.154  52.751  53.987
H  49.501  61.134  56.504
H  49.555  62.611  56.854
H  66.423  39.353  55.081
H  67.940  39.294  55.035
H  42.866  61.048  49.370
H  39.879  42.632  45.636
H  40.739  41.437  45.263
H  41.456  61.609  49.405
H  31.831  45.678  51.689
H  40.961  34.228  50.137
H  43.175  58.349  63.603
H  67.394  51.957  63.410
H  48.077  69.480  47.230
H  45.156  42.279  41.136
H  55.224  51.505  63.970
H  54.608  50.348  63.203
H  59.898  56.010  60.141
H  59.016  55.318  59.116
H  62.131  39.907  43.816
H  48.464  35.189  48.650
H  49.957  35.213  48.376
H  60.917  40.664  43.306
H  48.546  58.220  37.958
H  47.072  57.967  38.227
H  38.065  45.508  50.372
H  37.347  44.857  49.203
H  62.661  50.849  51.247
H  53.216  33.923  42.148
H  54.243  32.804  42.160
H  61.385  51.196  50.498
H  51.906  30.709  40.994
H  51.615  32.062  41.620
H  68.916  49.122  46.850
H  68.282  50.472  47.138
H  42.847  58.270  65.084
H  66.634  50.859  62.688
H  48.584  68.307  46.410
H  42.145  33.379  50.565
H  41.653  55.712  50.519
H  41.821  53.347  34.869
H  40.879  44.273  67.422
H  39.769  43.412  66.843
H  44.677  50.472  28.566
H  43.940  49.349  29.273
H  31.511  41.162  45.638
H  39.763  39.459  55.285
H  39.603  37.965  55.068
H  30.074  41.391  46.075
H  63.527  37.828  46.801
H  64.369  39.057  47.097
H  37.498  48.867  53.184
H  38.323  50.066  53.620
H  54.043  57.627  33.073
H  36.568  40.707  41.159
H  36.510  39.191  41.229
H  54.792  56.458  33.689
H  57.462  59.997  57.110
H  57.709  59.094  55.915
H  56.036  45.009  31.646
H  57.287  44.173  31.848
H  64.203  53.518  41.934
H  66.081  36.348  46.502
H  39.754  62.574  53.287
H  42.669  56.839  50.582
H  40.919  63.445  52.850
H  54.148  70.538  56.342
H  49.941  33.489  50.397
H  39.631  49.202  47.468
H  40.659  50.319  47.506
H  51.360  32.950  50.449
H  54.355  65.133  66.364
H  52.953  64.581  66.548
H  34.233  46.971  58.024
H  35.520  46.739  58.796
H  56.035  34.025  42.640
H  62.365  58.297  50.334
H  62.575  59.298  51.457
H  55.737  34.684  43.975
H  34.419  54.914  43.777
H  34.160  56.410  43.722
H  50.477  50.890  29.210
H  51.682  50.793  30.129
H  55.615  42.349  59.379
H  59.630  52.725  36.503
H  59.719  52.295  35.049
H  54.489  43.364  59.284
H  61.832  48.123  49.462
H  62.619  49.313  48.941
H  55.420  70.726  55.535
H  42.625  52.806  33.701
H  56.282  52.850  48.514
H  45.193  40.764  41.044
H  61.911  43.504  46.093
H  64.726  43.657  54.737
H  64.688  44.008  56.214
H  39.601  39.792  49.037
H  36.124  55.084  54.708
H  37.001  53.873  54.438
H  50.654  43.517  62.773
H  49.437  44.318  63.201
H  38.478  69.168  53.404
H  58.976  53.639  69.035
H  60.261  53.938  69.787
H  39.044  68.664  54.720
H  44.881  50.725  61.657
H  44.705  49.379  60.977
H  62.104  59.722  63.466
H  60.686  59.966  62.982
H  36.217  52.588  49.286
H  46.243  32.406  40.654
H  45.549  33.635  41.215
H  35.292  51.971  50.320
H  37.584  40.052  55.307
H  38.221  41.350  55.771
H  55.607  40.756  66.398
H  55.284  40.229  67.785
H  41.024  39.973  48.540
H  38.346  48.534  36.846
H  59.759  39.491  49.120
H  63.212  40.307  36.796
H  34.148  37.218  40.993
H  34.361  38.061  42.239
H  43.383  44.629  37.647
H  39.267  66.242  61.524
H  39.728  67.299  60.535
H  44.369  45.766  37.443
H  46.991  54.925  64.832
H  46.832  53.415  64.808
H  44.068  67.871  53.512
H  45.162  67.678  52.476
H  65.190  54.540  64.265
H  57.161  64.199  40.673
H  56.798  63.081  41.634
H  64.960  56.041  64.274
H  41.851  57.722  42.396
H  43.246  57.163  42.615
H  55.039  57.560  41.621
H  53.610  57.935  41.269
H  38.561  54.722  62.950
H  36.341  55.011  35.467
H  36.975  55.998  36.431
H  39.939  54.876  62.329
H  62.323  39.741  37.889
H  60.589  40.745  48.913
H  61.116  43.928  47.315
H  48.868  69.800  55.698
H  37.592  47.329  37.381
H  46.853  66.585  38.523
H  58.036  41.819  53.406
H  51.154  67.949  51.581
H  51.365  66.486  51.231
H  59.187  42.113  52.461
H  44.509  45.225  60.004
H  45.710  45.173  60.933
H  49.261  50.680  69.276
H  49.296  49.917  67.963
H  54.306  60.130  32.843
H  38.175  52.355  51.869
H  37.194  52.203  53.019
H  53.068  60.521  32.056
H  40.054  60.157  50.282
H  38.580  59.939  50.577
H  60.789  56.976  56.802
H  61.614  57.092  58.071
H  55.725  47.187  31.652
H  49.163  42.896  69.631
H  49.441  44.389  69.621
H  55.840  48.632  31.200
H  62.230  30.925  48.540
H  63.034  32.005  49.241
H  46.064  67.872  38.355
H  49.260  69.665  54.237
H  48.661  68.380  62.074
H  49.983  59.497  30.607
H  66.231  38.703  45.980
H  66.966  39.105  47.246
H  56.800  47.579  66.663
H  56.923  46.077  66.844
H  52.113  71.253  52.032
H  64.700  51.605  52.002
H  66.087  52.122  52.343
H  53.390  70.603  51.528
H  40.138  69.416  43.593
H  40.011  68.360  42.509
H  41.354  59.240  45.763
H  40.509  60.502  45.805
H  42.072  67.872  43.108
H  38.553  34.527  56.973
H  38.998  34.686  55.530
H  42.029  68.255  41.639
H  61.467  50.285  47.274
H  62.178  51.627  47.244
H  42.136  68.893  45.060
H  40.909  68.002  45.138
H  50.153  58.036  30.984
H  47.878  66.223  47.850
H  48.448  65.708  46.540
H  49.247  68.211  63.465
H  47.761  36.121  50.532
H  53.101  56.480  66.919
H  42.826  54.972  32.431
H  47.613  69.515  44.539
H  55.355  43.478  63.678
H  56.098  44.736  64.092
H  35.137  56.496  65.846
H  42.325  65.725  43.603
H  43.335  66.157  42.555
H  36.320  55.654  65.401
H  60.367  64.658  43.108
H  60.225  63.160  42.901
H  57.666  38.792  39.167
H  57.504  37.978  40.439
H  33.712  65.430  46.691
H  47.847  45.897  69.774
H  46.857  47.026  70.004
H  34.120  66.065  48.008
H  54.859  40.144  47.409
H  55.266  40.961  46.195
H  60.717  31.619  46.944
H  59.293  31.232  47.305
H  36.827  39.994  49.935
H  55.394  58.462  69.802
H  56.061  57.363  70.610
H  36.409  40.927  51.058
H  48.788  70.176  45.239
H  42.303  56.991  48.418
H  36.374  46.248  33.555
H  37.299  47.165  32.775
H  51.688  38.481  42.770
H  50.958  37.570  41.799
H  40.838  64.862  58.396
H  38.425  38.171  50.133
H  39.531  37.550  50.969
H  39.752  57.000  53.973
H  38.268  56.677  53.929
H  32.532  58.812  54.103
H  33.837  39.036  38.466
H  34.948  38.191  37.867
H  32.254  57.322  54.023
H  41.257  34.112  62.783
H  63.410  50.212  61.296
H  48.975  70.479  59.761
H  48.990  68.976  59.980
H  55.437  66.539  41.370
H  57.371  45.390  37.189
H  56.419  46.567  37.066
H  54.306  65.886  40.596
H  52.440  49.936  40.054
H  53.899  50.123  39.677
H  55.884  59.980  60.135
H  56.650  61.288  60.031
H  43.515  56.374  47.743
H  64.416  51.313  61.585
H  42.344  64.797  58.573
H  42.425  33.994  63.747
H  48.529  48.995  32.389
H  50.854  51.616  68.080
H  52.155  50.832  68.074
H  42.295  56.294  44.718
H  43.542  56.094  45.561
H  51.029  52.457  38.853
H  42.736  40.654  58.963
H  43.483  41.123  57.726
H  52.091  52.390  39.937
H  36.780  53.927  58.848
H  37.795  53.624  57.760
H  66.441  47.946  43.056
H  65.792  48.763  44.159
H  30.661  51.213  46.070
H  34.466  41.922  51.610
H  35.381  42.948  52.254
H  29.214  51.601  45.821
H  50.376  62.509  58.893
H  48.866  62.592  59.031
H  43.785  52.321  36.133
H  42.577  51.480  35.759
H  57.125  47.868  28.542
H  66.386  44.130  39.003
H  64.913  44.299  38.672
H  39.601  51.797  36.249
H  56.285  54.046  40.054
H  55.999  55.298  40.864
H  40.277  53.108  36.613
H  35.690  43.176  62.731
H  50.444  40.282  58.158
H  49.997  41.536  58.889
H  35.224  43.904  63.978
H  57.006  55.293  48.527
H  55.529  54.973  48.382
H  59.254  48.621  69.798
H  57.869  48.181  70.241
H  52.562  28.392  43.511
H  35.809  58.971  58.498
H  36.916  58.105  57.925
H  48.678  50.109  31.368
H  54.045  28.719  43.517
H  69.024  45.275  42.592
H  41.751  60.655  36.166
H  43.208  61.008  36.408
H  38.751  57.484  46.702
H  50.513  34.733  33.196
H  49.000  34.681  33.315
H  39.002  58.674  45.793
H  45.248  60.215  64.013
H  43.891  60.870  63.823
H  67.667  48.429  52.448
H  68.462  49.483  51.696
H  68.383  46.648  42.696
H  57.841  48.513  29.716
H  37.751  55.751  49.370
H  36.215  44.004  47.457
H  41.654  42.036  47.892
H  59.133  39.879  58.164
H  46.178  54.065  32.456
H  46.703  55.489  32.504
H  60.241  40.910  58.290
H  50.473  55.104  38.714
H  51.794  55.806  38.450
H  34.942  37.217  55.504
H  33.882  36.171  55.206
H  59.042  29.842  53.866
H  51.409  32.113  36.388
H  50.909  31.268  37.546
H  57.769  30.615  54.165
H  37.765  54.213  68.662
H  38.748  53.073  68.460
H  59.497  30.943  49.931
H  58.589  32.110  50.278
H  54.288  34.647  45.668
H  38.102  43.725  46.357
H  38.653  45.119  46.111
H  54.579  35.897  46.480
H  53.054  43.924  65.533
H  54.365  44.223  66.239
H  41.561  43.454  47.356
H  62.012  39.313  48.048
H  62.305  39.649  46.596
H  61.199  49.174  45.111
H  47.338  53.893  36.526
H  59.859  58.932  58.775
H  59.131  58.897  60.108
H  44.705  45.287  69.397
H  44.616  46.774  69.100
H  57.224  57.313  64.924
H  41.546  30.691  54.710
H  40.083  30.830  55.092
H  56.771  58.575  65.637
H  59.290  46.347  32.393
H  59.291  44.830  32.474
H  40.346  52.905  42.799
H  53.456  44.145  70.061
H  33.954  49.315  35.503
H  50.629  64.262  39.179
H  50.690  63.668  37.782
H  32.640  49.215  36.258
H  42.031  38.967  60.500
H  40.586  39.029  60.964
H  53.420  46.423  62.985
H  53.019  47.660  62.200
H  61.814  50.167  44.140
H  64.198  65.426  56.525
H  64.182  64.096  57.258
H  54.541  45.207  70.092
H  36.854  56.902  48.949
H  39.816  51.711  42.025
H  45.679  36.226  57.171
H  49.338  66.698  40.658
H  50.130  65.440  40.969
H  69.561  46.305  51.684
H  45.604  44.298  34.053
H  45.623  44.813  35.481
H  69.611  47.671  51.022
H  37.000  58.707  35.696
H  35.973  59.620  35.049
H  64.581  56.659  43.769
H  63.991  55.434  43.092
H  43.353  35.392  38.814
H  52.453  34.832  50.120
H  53.753  35.434  50.622
H  43.906  34.752  40.075
H  38.082  63.862  40.874
H  37.293  64.920  40.122
H  60.136  61.999  63.696
H  58.797  62.713  63.622
H  30.639  45.072  48.849
H  33.577  47.505  46.584
H  34.811  46.889  47.221
H  30.262  46.133  49.868
H  35.163  44.784  46.688
H  42.555  44.975  70.599
H  43.765  44.174  71.046
H  65.792  37.245  51.229
H  55.348  43.016  70.279
H  45.454  37.693  57.494
H  61.662  47.675  43.551
H  35.471  41.397  36.244
H  34.029  41.840  36.070
H  38.533  36.697  43.834
H  40.009  36.731  43.479
H  33.846  36.000  44.751
H  41.265  58.388  51.282
H  40.407  58.538  52.526
H  32.599  36.691  44.228
H  43.514  52.055  39.315
H  62.954  48.114  44.218
H  43.834  50.733  39.990
H  53.253  43.037  56.180
H  35.246  44.917  57.247
H  37.146  40.999  47.563
H  38.142  40.767  46.440
H  36.332  43.863  57.122
H  38.156  63.332  36.747
H  39.075  64.541  36.755
H  40.686  58.000  69.100
H  41.739  57.060  69.661
H  65.294  37.336  49.798
H  55.667  41.633  69.739
H  52.321  41.889  56.526
H  55.249  62.652  66.862
H  32.891  58.042  44.475
H  67.012  58.389  57.690
H  49.405  28.160  48.254
H  50.673  28.467  49.031
H  48.559  64.735  38.134
H  60.821  42.444  66.722
H  61.447  43.622  65.996
H  60.482  53.119  48.222
H  59.523  54.193  48.705
H  63.210  53.456  51.192
H  46.211  67.499  42.767
H  46.245  68.913  42.214
H  63.196  54.420  52.365
H  52.457  61.969  43.515
H  53.758  61.483  44.127
H  35.808  50.360  64.314
H  37.029  49.472  64.482
H  58.137  38.129  35.587
H  36.406  34.785  54.257
H  35.781  34.782  55.641
H  57.876  37.259  36.803
H  58.295  49.483  64.884
H  58.820  48.058  64.843
H  62.408  54.598  67.304
H  62.179  55.729  68.292
H  48.526  63.257  37.786
H  61.865  32.629  44.658
H  61.264  31.242  44.513
H  34.706  51.369  35.265
H  31.394  53.165  37.576
H  45.327  56.532  63.056
H  45.647  57.273  64.342
H  51.090  41.445  51.754
H  29.439  43.295  46.974
H  28.780  44.219  47.984
H  50.703  40.089  52.317
H  52.607  58.703  67.995
H  52.562  57.469  68.879
H  53.446  46.739  36.986
H  52.048  46.885  36.411
H  42.962  40.053  65.959
H  35.695  38.953  61.700
H  47.081  31.418  62.726
H  34.875  37.677  61.624
H  55.006  60.869  38.860
H  53.494  61.006  38.908
H  37.081  52.331  64.089
H  36.259  52.239  65.362
H  41.813  37.121  55.979
H  57.664  38.785  68.091
H  57.055  39.811  69.030
H  41.211  35.729  55.896
H  33.374  51.720  34.626
H  48.031  32.177  61.815
H  32.706  52.402  37.544
H  37.664  56.379  40.188
H  44.063  39.406  65.138
H  45.014  47.678  38.895
H  56.385  63.937  43.619
H  54.915  63.635  43.852
H  43.596  48.221  38.871
H  42.855  62.496  41.949
H  43.125  61.549  43.105
H  47.703  70.836  52.520
H  48.279  72.221  52.759
H  53.158  34.175  47.583
H  50.020  45.875  64.697
H  49.429  45.124  65.878
H  51.886  34.882  47.150
H  43.631  43.031  32.795
H  43.564  41.514  32.801
H  49.450  58.798  68.114
H  50.623  59.755  67.994
H  37.491  47.765  60.046
H  40.152  42.012  54.948
H  40.330  42.352  56.418
H  37.349  48.579  58.772
H  37.727  42.143  52.333
H  38.671  41.163  51.657
H  50.014  35.833  59.324
H  63.637  43.552  51.033
H  64.715  43.693  49.973
H  48.988  67.000  38.186
H  49.338  67.848  36.976
H  39.889  35.210  53.080
H  41.271  35.029  53.684
H  44.678  36.369  49.153
H  45.593  37.526  48.793
H  42.254  65.151  46.339
H  54.270  51.170  35.303
H  54.087  52.280  34.283
H  42.646  66.449  45.655
H  40.000  53.250  39.124
H  38.765  52.844  39.908
H  37.136  63.337  59.878
H  38.316  56.911  38.923
H  38.629  63.382  59.608
H  37.351  62.030  56.962
H  38.315  61.790  58.111
H  49.232  31.908  56.510
H  70.913  49.321  42.995
H  69.727  48.441  43.346
H  54.527  69.243  44.524
H  55.120  70.618  44.780
H  46.511  44.796  28.175
H  42.682  51.433  31.192
H  43.928  52.298  31.126
H  45.733  46.096  28.284
H  48.351  32.011  55.277
H  33.367  58.356  43.068
H  46.424  43.486  37.523
H  54.552  62.581  50.353
H  33.285  46.387  42.584
H  30.842  54.920  61.155
H  31.842  56.062  61.122
H  48.130  47.987  72.543
H  48.274  46.605  71.930
H  40.045  53.876  57.348
H  32.561  53.629  55.714
H  32.564  52.917  57.055
H  41.008  54.744  58.139
H  55.342  42.217  38.211
H  53.925  41.694  38.366
H  50.658  50.650  70.976
H  51.781  51.660  70.821
H  60.353  49.300  67.012
H  47.979  49.681  64.385
H  47.681  50.966  63.631
H  59.612  50.012  68.130
H  51.142  53.761  71.111
H  52.644  53.629  71.293
H  40.072  54.247  53.575
H  38.882  54.306  52.633
H  55.205  70.125  42.615
H  57.385  38.439  65.495
H  53.474  67.913  42.184
H  54.453  67.452  43.249
H  32.599  45.768  41.379
H  63.450  54.217  35.088
H  67.653  58.557  59.056
H  55.023  61.874  41.141
H  37.140  38.199  38.054
H  37.162  37.928  39.548
H  53.996  62.571  42.017
H  37.066  61.220  41.206
H  37.242  60.090  42.205
H  45.359  71.405  44.426
H  46.827  71.592  44.767
H  60.580  59.718  65.442
H  64.084  42.656  45.181
H  57.972  37.042  65.592
H  62.974  41.637  45.369
H  58.308  56.846  69.514
H  59.785  56.503  69.435
H  50.223  67.064  55.053
H  49.199  67.408  56.121
H  63.116  56.415  45.726
H  57.977  60.736  39.432
H  57.609  59.538  38.574
H  61.695  56.882  45.995
H  47.666  59.767  51.388
H  46.325  59.054  51.376
H  64.582  54.591  34.147
H  59.254  59.519  66.155
H  53.344  63.051  49.563
H  54.673  69.554  41.313
H  51.936  45.916  69.998
H  55.162  61.076  56.787
H  45.420  51.297  37.724
H  50.006  37.046  32.489
H  48.792  36.364  31.884
H  56.170  40.320  37.403
H  55.194  39.865  38.475
H  60.598  32.427  42.644
H  52.059  37.206  58.706
H  53.422  36.645  59.072
H  59.745  31.324  42.042
H  48.110  40.468  63.424
H  48.832  40.066  62.150
H  54.545  32.544  48.188
H  55.307  33.390  47.183
H  60.495  63.155  46.881
H  63.807  54.350  49.023
H  62.443  53.684  49.061
H  61.239  62.502  48.032
H  33.176  40.146  40.289
H  34.685  39.978  40.267
H  54.513  54.883  30.387
H  53.490  53.978  29.724
H  47.907  43.645  37.236
H  56.437  61.830  56.454
H  45.883  52.743  37.710
H  60.122  62.716  40.331
H  58.656  62.452  40.627
H  34.959  48.178  49.596
H  35.319  49.593  49.177
H  32.539  47.032  37.921
H  43.055  31.680  48.510
H  43.411  30.261  48.914
H  33.427  45.912  37.408
H  34.113  60.269  51.804
H  33.622  61.706  51.793
H  48.938  62.091  32.354
H  47.537  61.512  32.265
H  64.277  46.647  50.271
H  50.653  46.487  69.421
H  36.550  37.740  59.013
H  63.981  48.135  50.212
H  39.777  41.095  35.409
H  41.048  41.913  35.546
H  37.557  49.897  48.070
H  37.179  48.432  47.941
H  50.248  63.759  61.660
H  33.788  64.288  43.492
H  32.708  63.564  44.276
H  48.881  63.650  62.312
H  47.523  63.740  46.985
H  46.143  63.822  47.615
H  35.833  36.659  58.224
H  55.263  61.343  66.092
H  46.739  54.767  37.615
H  51.265  38.262  34.094
H  55.049  65.123  64.276
H  54.384  63.761  64.183
H  47.912  31.233  42.328
H  47.734  29.757  42.640
H  52.743  48.233  29.391
H  39.045  38.711  66.256
H  39.094  40.054  66.965
H  54.219  48.071  29.073
H  55.393  35.874  61.386
H  54.071  35.411  60.800
H  43.378  36.833  64.443
H  44.618  36.221  63.814
H  64.387  50.904  56.288
H  66.811  38.584  41.983
H  66.147  39.822  42.560
H  65.090  52.227  56.536
H  65.822  52.445  58.766
H  64.491  51.834  59.166
H  44.770  54.226  67.713
H  46.256  53.918  67.689
H  30.550  57.808  49.420
H  61.413  50.687  56.612
H  62.602  49.814  56.970
H  57.294  41.701  42.049
H  60.152  55.406  50.578
H  61.627  55.048  50.611
H  57.803  42.026  43.442
H  60.639  60.550  56.058
H  44.651  30.926  41.835
H  45.761  31.560  42.656
H  60.455  62.004  55.661
H  46.842  47.432  37.683
H  46.152  47.080  36.376
H  46.198  36.364  46.055
H  45.786  35.720  47.367
H  51.909  35.490  61.198
H  43.182  49.774  34.282
H  43.226  48.669  33.242
H  31.397  56.608  49.808
H  52.234  34.282  60.338
H  41.130  48.392  54.895
H  44.121  54.362  35.042
H  45.022  54.491  36.257
H  55.548  62.640  61.849
H  36.401  47.674  44.692
H  35.674  49.003  44.577
H  56.627  62.952  62.872
H  52.336  67.396  56.102
H  52.714  68.859  56.256
H  35.122  47.948  42.718
H  35.724  47.839  41.328
H  39.671  47.973  54.945
H  42.797  46.490  65.926
H  56.477  61.740  43.351
H  35.630  35.657  60.172
H  51.470  57.436  41.173
H  60.021  52.928  43.592
H  59.438  51.816  42.739
H  47.562  42.932  53.434
H  47.775  42.138  54.711
H  61.162  57.885  48.334
H  53.787  36.573  54.607
H  55.083  35.925  54.153
H  59.984  56.935  48.458
H  62.740  55.413  33.092
H  62.743  53.897  33.004
H  69.995  39.460  48.311
H  68.657  40.164  48.173
H  51.045  67.447  45.530
H  53.300  32.325  60.506
H  54.450  33.233  60.904
H  51.951  68.570  46.004
H  47.373  42.033  60.519
H  47.206  40.525  60.571
H  39.647  58.198  41.163
H  40.334  59.513  41.483
H  56.263  45.943  34.656
H  29.863  48.589  49.896
H  51.996  62.141  41.078
H  51.501  63.577  41.079
H  51.810  55.956  41.221
H  40.379  41.582  50.051
H  36.397  35.882  61.463
H  52.501  50.724  36.569
H  60.765  45.707  65.232
H  60.864  47.222  65.185
H  51.258  51.548  36.858
H  40.953  54.544  30.412
H  42.343  53.975  30.189
H  35.201  44.700  59.559
H  34.336  43.528  59.989
H  61.133  44.509  68.765
H  42.711  37.521  46.891
H  56.176  61.111  44.701
H  44.140  37.034  46.727
H  54.383  36.845  32.018
H  55.097  37.362  33.255
H  44.172  53.757  59.218
H  43.212  54.519  58.320
H  55.723  55.372  46.196
H  63.759  47.569  46.201
H  65.231  47.281  46.435
H  57.195  55.017  46.317
H  62.342  51.629  39.649
H  63.835  51.626  39.923
H  40.323  42.914  50.779
H  59.663  44.260  68.476
H  30.357  49.996  50.184
H  43.178  45.027  65.785
H  71.720  48.242  45.905
H  57.696  67.822  43.863
H  59.103  67.438  44.287
H  36.774  59.328  49.250
H  54.909  44.830  37.105
H  55.360  43.708  36.185
H  35.355  59.840  49.079
H  33.426  60.443  55.517
H  34.635  61.275  55.128
H  33.789  58.429  57.585
H  34.721  57.233  57.674
H  55.509  50.100  46.307
H  41.858  58.211  58.170
H  40.340  58.228  58.118
H  55.872  51.132  45.253
H  71.127  50.567  46.903
H  70.719  52.029  46.930
H  41.306  62.648  34.882
H  40.504  62.511  33.600
H  43.150  41.303  35.318
H  49.934  34.843  46.120
H  49.620  33.772  45.090
H  44.498  40.892  35.883
H  50.314  37.015  46.199
H  66.143  58.594  53.186
H  65.550  59.185  54.453
H  38.332  61.152  60.237
H  61.846  59.088  57.174
H  38.815  60.206  55.831
H  51.056  40.722  68.475
H  49.014  55.944  30.766
H  50.178  55.085  31.229
H  39.866  37.299  59.807
H  39.596  36.022  60.584
H  50.936  48.750  38.863
H  57.465  62.125  49.522
H  56.824  63.491  49.692
H  49.562  49.391  38.779
H  39.267  44.578  69.262
H  51.336  38.136  46.264
H  40.224  45.499  69.998
H  64.111  61.352  50.544
H  39.248  44.170  57.696
H  66.202  60.255  46.736
H  65.098  59.661  45.880
H  38.312  42.991  57.897
H  54.508  55.753  42.762
H  53.734  56.865  43.448
H  53.466  67.105  51.480
H  54.182  66.497  52.674
H  37.481  60.266  61.130
H  61.958  60.322  58.052
H  62.761  61.897  50.976
H  70.272  47.843  45.681
H  47.722  31.325  39.432
H  34.982  45.516  65.758
H  39.211  37.572  63.791
H  39.002  65.226  51.262
H  38.573  64.175  52.270
H  59.373  41.283  35.762
H  32.973  62.389  47.977
H  34.061  61.811  48.866
H  58.141  41.120  36.635
H  60.217  47.831  35.242
H  61.377  48.805  35.130
H  38.458  66.408  54.753
H  36.978  66.621  54.491
H  51.742  65.004  63.560
H  41.907  47.750  61.986
H  42.947  48.056  60.923
H  51.400  65.925  62.401
H  53.356  41.967  63.709
H  51.883  41.734  63.420
H  59.629  58.818  51.955
H  58.409  58.019  51.531
H  48.542  57.797  32.609
H  50.145  46.926  59.138
H  51.649  46.960  59.348
H  47.215  57.559  31.911
H  37.977  37.517  64.674
H  39.367  41.668  38.142
H  63.812  62.654  38.981
H  62.596  61.758  38.825
H  40.587  52.077  69.374
H  41.984  52.559  69.724
H  36.485  45.564  65.971
H  51.027  45.332  72.101
H  50.674  46.725  71.609
H  38.633  50.362  38.443
H  39.924  51.152  38.329
H  51.882  69.130  49.874
H  61.656  46.192  38.933
H  60.380  45.592  39.498
H  52.105  70.626  49.742
H  46.883  30.814  38.273
H  60.544  50.549  59.633
H  49.652  56.150  69.879
H  50.501  54.986  69.399
H  43.700  33.116  61.536
H  51.702  67.201  59.718
H  52.670  67.964  60.607
H  44.192  34.533  61.773
H  59.478  48.476  60.448
H  59.939  48.787  61.861
H  48.548  60.704  63.252
H  50.042  60.939  63.391
H  38.741  42.996  38.529
H  61.888  49.851  59.749
H  54.940  45.327  34.237
H  41.816  67.927  54.538
H  41.273  69.134  55.283
H  58.776  50.709  33.492
H  58.889  51.286  32.092
H  39.314  64.855  56.535
H  45.613  33.214  38.178
H  46.977  33.039  37.533
H  55.470  46.276  29.360
H  54.069  45.732  29.584
H  60.394  67.193  52.846
H  53.125  70.255  47.829
H  54.319  69.600  47.156
H  61.258  65.946  52.763
H  65.958  55.026  55.483
H  66.614  54.140  54.439
H  36.601  41.757  54.291
H  37.086  43.190  54.159
H  47.398  36.136  66.559
H  38.098  49.490  45.258
H  38.756  48.130  45.108
H  47.669  35.636  65.151
H  61.187  63.716  54.489
H  62.397  64.064  53.640
H  31.439  51.275  58.044
H  32.860  51.324  58.580
H  40.688  64.827  55.889
H  33.121  38.310  56.080
H  33.572  39.251  57.184
H  66.141  41.558  50.653
H  61.052  38.862  58.511
H  60.139  35.552  46.377
H  60.783  34.539  45.446
H  68.530  44.502  53.509
H  70.042  48.483  41.129
H  70.231  47.468  40.015
H  69.377  44.453  54.768
H  37.257  64.241  54.038
H  37.903  63.587  55.247
H  47.823  46.303  66.812
H  47.171  45.045  66.267
H  51.845  33.921  40.422
H  43.860  49.466  36.472
H  67.080  46.382  44.770
H  42.530  49.555  37.198
H  63.240  47.129  36.339
H  63.501  48.321  35.435
H  47.828  51.223  66.945
H  48.098  52.647  67.399
H  70.227  51.945  43.023
H  42.837  32.522  42.240
H  42.822  31.309  43.153
H  71.631  51.403  43.228
H  67.136  40.458  50.327
H  67.965  47.615  44.720
H  61.559  37.454  58.769
H  54.466  36.188  66.336
H  51.190  35.154  39.825
H  31.002  42.324  57.379
H  57.454  47.615  60.397
H  57.708  48.014  61.840
H  32.001  41.322  56.827
H  39.063  54.913  35.567
H  38.371  53.562  35.502
H  67.924  50.511  41.934
H  68.068  49.001  42.016
H  52.948  49.185  66.816
H  38.890  47.612  39.140
H  39.001  46.122  38.872
H  54.049  49.638  65.873
H  51.381  58.214  61.697
H  49.925  58.141  62.121
H  47.658  44.515  57.147
H  47.881  44.731  55.660
H  56.706  29.588  45.120
H  42.231  63.916  40.381
H  42.880  65.288  40.347
H  57.555  29.188  46.314
H  54.007  40.722  51.234
H  53.370  41.376  50.021
H  51.961  39.012  32.972
H  43.162  35.396  50.838
H  43.941  36.050  51.966
H  44.994  68.479  62.213
H  44.676  68.723  60.748
H  36.762  67.858  48.984
H  35.935  67.821  50.257
H  64.038  53.704  60.731
H  64.606  54.544  59.600
H  58.852  48.127  40.894
H  64.610  41.819  58.396
H  64.181  40.668  57.502
H  60.370  48.099  40.932
H  41.350  48.132  66.176
H  40.510  49.288  66.689
H  46.845  46.113  58.856
H  54.405  34.722  65.942
H  48.146  46.503  58.177
H  43.387  69.482  49.166
H  43.373  70.996  49.281
H  56.072  60.260  49.933
H  33.893  44.349  49.460
H  33.469  42.893  49.544
H  32.407  54.824  41.485
H  33.753  55.473  41.756
H  40.101  51.720  29.974
H  48.886  36.202  55.093
H  49.668  37.053  54.107
H  38.731  51.164  30.318
H  55.649  60.673  51.332
H  49.473  36.482  40.266
H  45.527  49.874  63.957
H  46.343  49.353  62.787
H  60.340  34.543  42.097
H  61.232  46.405  57.452
H  37.819  61.228  46.396
H  38.693  62.351  45.866
H  58.011  57.478  67.087
H  57.119  56.270  66.859
H  45.535  47.793  34.374
H  49.883  67.149  47.956
H  51.160  67.969  48.010
H  46.495  48.896  34.783
H  61.494  47.549  54.563
H  61.436  47.139  53.101
H  49.330  38.486  44.886
H  49.459  38.682  43.385
H  48.105  38.996  33.408
H  39.618  52.308  55.704
H  38.224  52.175  55.115
H  47.803  37.533  33.678
H  45.412  70.549  47.783
H  44.738  69.230  47.448
H  55.317  32.546  51.024
H  56.268  31.436  51.437
H  40.328  55.586  37.341
H  60.893  35.504  43.135
H  61.960  47.541  56.756
H  39.000  39.756  63.386
H  39.573  41.110  63.008
H  65.686  46.202  64.685
H  64.951  44.925  64.317
H  54.318  29.502  52.723
H  42.459  68.869  59.816
H  42.639  67.391  59.519
H  55.826  29.559  52.892
H  50.830  39.222  54.501
H  52.207  39.767  54.165
H  48.214  33.245  41.466
H  49.587  32.742  41.052
H  36.092  53.125  67.670
H  30.405  46.407  54.767
H  35.246  53.613  40.327
H  36.061  54.604  67.327
H  51.825  69.813  39.051
H  53.290  69.838  39.452
H  60.519  45.302  63.069
H  59.375  45.621  62.123
H  43.580  47.935  67.539
H  34.696  54.999  58.283
H  33.685  54.196  59.082
H  43.426  49.121  66.603
H  61.804  41.300  51.053
H  63.247  41.314  50.580
H  34.875  53.378  41.780
H  30.539  44.916  55.024
H  39.140  54.975  38.063
H  34.432  50.386  41.911
H  57.397  47.390  39.368
H  58.264  46.178  39.661
H  43.466  35.402  56.670
H  36.961  55.705  52.164
H  36.170  56.785  52.880
H  45.980  43.454  59.578
H  45.736  44.101  58.226
H  65.566  53.996  46.300
H  40.150  52.571  64.155
H  41.155  53.709  64.182
H  64.553  53.079  46.963
H  42.401  35.018  57.682
H  45.150  33.362  44.048
H  68.683  41.297  42.662
H  68.713  39.940  41.980
H  41.121  60.049  34.078
H  65.752  34.207  50.554
H  64.836  33.215  49.859
H  41.350  58.912  33.098
H  59.894  66.263  47.074
H  60.825  66.876  48.106
H  45.590  41.448  38.045
H  44.599  42.472  38.571
H  48.588  37.715  40.317
H  44.433  32.081  44.439
H  50.009  34.325  59.507
H  35.287  44.389  41.146
H  45.876  53.992  39.522
H  35.586  51.302  41.544
H  61.656  38.364  50.259
H  63.095  37.878  50.249
H  50.669  66.323  43.676
H  41.861  61.631  58.237
H  40.831  62.139  59.231
H  50.824  64.818  43.544
H  51.758  70.009  53.955
H  52.154  68.646  53.413
H  59.881  42.449  44.108
H  59.847  43.000  45.522
H  36.469  43.441  41.247
H  47.426  65.723  33.857
H  57.335  59.680  52.540
H  46.770  64.632  33.028
H  50.025  65.250  49.974
H  48.657  64.674  49.654
H  48.645  61.082  60.654
H  48.661  59.631  61.099
H  49.081  54.453  64.323
H  31.435  59.793  52.459
H  31.602  61.299  52.563
H  50.257  55.138  64.997
H  47.327  53.548  39.581
H  58.398  60.654  52.064
H  46.952  37.387  50.754
H  55.465  51.923  40.303
H  55.494  58.845  34.199
H  57.510  50.768  46.933
H  57.108  50.356  48.339
H  49.447  59.068  59.114
H  41.498  60.415  53.695
H  41.332  59.909  55.117
H  59.316  45.823  56.460
H  60.225  44.607  56.471
H  52.653  51.150  65.030
H  61.036  60.995  36.711
H  61.015  62.465  36.328
H  52.971  52.448  64.308
H  41.950  53.794  46.348
H  42.170  54.552  47.646
H  50.383  48.935  65.263
H  51.062  50.032  66.063
H  43.644  43.036  52.880
H  59.964  60.520  40.356
H  60.257  59.333  41.257
H  42.491  42.054  52.771
H  40.839  42.867  39.760
H  40.843  44.017  38.768
H  32.931  39.516  46.009
H  34.275  39.307  46.685
H  48.514  59.048  57.917
H  44.639  37.109  37.817
H  45.029  38.432  38.452
H  47.522  36.109  61.226
H  44.454  37.985  67.311
H  44.575  51.188  33.335
H  44.920  52.639  33.623
H  48.711  56.905  42.889
H  48.919  45.869  28.147
H  47.893  46.960  28.396
H  49.872  56.549  43.801
H  69.498  47.660  48.388
H  68.351  47.066  47.589
H  44.128  52.119  56.908
H  42.837  51.559  56.336
H  66.105  54.084  42.973
H  59.417  46.534  42.304
H  66.011  62.100  49.718
H  59.474  46.614  43.820
H  45.409  30.830  53.785
H  44.343  31.906  53.891
H  33.325  41.277  47.665
H  34.831  41.285  47.472
H  51.724  36.543  53.513
H  51.603  57.090  29.565
H  52.773  56.411  30.255
H  51.047  35.264  53.977
H  47.771  34.685  61.691
H  66.386  60.931  48.825
H  43.713  36.660  67.270
H  69.305  54.167  44.808
H  65.347  53.469  44.136
H  62.381  45.037  56.168
H  45.397  29.232  46.989
H  45.822  30.640  47.366
H  62.875  44.845  54.745
H  63.454  33.594  51.711
H  61.946  33.419  51.716
H  41.777  31.437  45.426
H  43.163  31.126  45.962
H  37.998  60.453  64.534
H  67.866  36.941  44.899
H  66.702  36.378  44.102
H  38.318  61.831  65.085
H  68.132  38.162  51.742
H  67.006  39.114  52.107
H  58.069  44.202  53.783
H  57.175  45.414  53.585
H  55.873  44.718  61.867
H  68.038  52.634  59.169
H  67.507  53.825  58.391
H  54.764  45.655  61.422
H  51.583  36.876  62.877
H  52.655  37.697  63.571
H  42.623  37.158  49.636
H  48.018  30.367  50.871
H  48.601  31.689  50.403
H  60.816  35.905  48.670
H  59.971  37.088  49.109
H  37.394  45.360  54.350
H  37.709  44.918  55.768
H  65.554  48.565  36.187
H  65.278  50.033  35.916
H  67.849  46.349  62.407
H  43.023  46.293  50.371
H  42.276  45.317  49.480
H  67.127  47.448  61.649
H  41.700  56.419  56.891
H  41.066  55.534  55.831
H  66.955  54.047  49.917
H  70.167  52.932  45.002
H  66.941  53.095  48.734
H  52.807  42.557  68.674
H  53.368  41.314  68.007
H  62.406  64.410  51.326
H  32.188  54.649  43.987
H  31.665  53.225  44.057
H  36.027  46.072  52.473
H  37.381  46.740  52.636
H  56.171  29.746  55.807
H  56.647  65.370  56.183
H  57.706  66.446  56.023
H  54.983  30.270  55.020
H  61.309  63.536  50.746
H  42.527  38.666  49.487
H  45.395  57.110  69.688
H  58.101  51.353  67.259
H  53.792  34.864  39.468
H  30.442  41.603  53.708
H  29.866  42.994  53.905
H  37.359  34.085  42.267
H  36.930  32.809  42.971
H  42.647  41.722  55.651
H  37.610  67.819  46.953
H  38.635  68.750  46.330
H  41.690  40.545  55.722
H  53.601  29.927  46.988
H  53.481  28.517  46.436
H  32.605  40.629  53.582
H  32.671  42.142  53.702
H  61.853  61.504  42.915
H  29.876  53.613  46.721
H  30.948  54.266  45.865
H  61.644  61.471  41.412
H  38.578  38.849  44.674
H  39.579  39.860  44.142
H  32.285  55.908  46.668
H  33.037  54.604  46.466
H  40.958  67.355  57.244
H  36.818  44.112  34.278
H  63.143  38.628  57.747
H  62.230  39.224  56.689
H  53.197  35.823  40.484
H  63.597  48.318  53.427
H  63.788  61.688  40.968
H  57.592  42.055  33.757
H  58.117  68.802  51.895
H  58.976  70.018  52.195
H  58.987  42.636  33.604
H  47.906  29.521  52.900
H  47.443  30.966  52.955
H  48.082  36.558  52.665
H  47.832  35.066  52.529
H  45.879  64.807  39.651
H  45.214  38.535  59.513
H  38.241  44.584  34.519
H  44.227  39.505  60.141
H  57.005  69.812  41.389
H  56.752  68.387  41.847
H  49.918  64.516  55.101
H  48.666  65.375  55.110
H  32.900  47.132  48.644
H  31.983  53.140  60.501
H  30.496  52.835  60.494
H  31.501  47.160  48.055
H  55.159  30.974  40.419
H  54.143  30.014  41.014
H  64.810  48.303  54.341
H  47.120  64.115  40.188
H  56.951  51.997  66.503
H  40.056  68.567  57.091
H  37.035  37.433  54.393
H  54.379  38.264  37.205
H  38.844  66.854  49.768
H  38.852  42.714  41.007
H  39.612  41.874  42.019
H  33.706  58.086  51.267
H  35.143  57.615  51.119
H  61.291  61.845  60.289
H  49.762  35.939  64.050
H  48.756  37.006  63.655
H  61.408  61.671  61.794
H  61.302  46.031  61.145
H  62.195  47.228  60.869
H  48.383  67.168  53.229
H  47.969  68.572  52.825
H  36.452  54.469  63.550
H  50.603  69.045  40.714
H  49.858  68.891  39.400
H  34.959  54.714  63.417
H  62.202  61.542  46.131
H  60.927  61.599  45.307
H  42.546  44.064  40.822
H  43.921  44.106  41.465
H  45.679  55.626  69.841
H  55.722  37.559  37.137
H  38.823  68.364  49.604
H  43.452  28.741  46.086
H  43.290  29.167  44.637
H  57.846  52.260  64.503
H  59.001  51.549  65.186
H  56.354  52.397  33.397
H  59.061  59.038  49.619
H  59.784  59.600  48.407
H  57.461  52.289  34.431
H  38.717  59.860  38.368
H  38.190  61.013  39.204
H  35.024  38.151  44.335
H  36.314  38.816  43.886
H  46.541  38.491  40.081
H  37.675  37.059  55.718
H  56.858  65.983  42.955
H  47.045  39.918  40.211
H  50.675  48.451  30.803
H  50.659  49.387  31.998
H  41.291  62.592  64.385
H  40.730  63.390  65.549
H  35.239  63.299  60.997
H  49.003  28.806  45.122
H  47.764  28.244  45.798
H  34.633  62.042  61.598
H  40.557  44.017  35.962
H  39.287  43.188  35.886
H  58.254  65.385  42.963
H  64.355  60.734  39.932
H  62.938  34.127  56.793
H  36.256  43.235  65.853
H  48.147  61.197  37.078
H  59.238  44.054  65.934
H  58.620  45.404  65.614
H  42.088  37.125  39.303
H  51.629  33.814  44.204
H  53.093  33.419  44.288
H  40.765  36.967  38.576
H  36.960  51.641  31.819
H  35.906  51.952  32.867
H  36.138  53.966  38.204
H  37.110  54.242  39.337
H  40.280  54.365  33.442
H  58.114  39.815  61.006
H  57.739  39.900  62.475
H  39.833  55.175  32.238
H  40.418  39.725  33.355
H  41.448  40.803  33.642
H  49.834  37.066  61.137
H  49.941  38.164  62.181
H  45.559  43.176  69.087
H  37.288  56.542  62.401
H  35.871  56.967  62.746
H  46.619  43.957  69.842
H  47.487  60.148  37.956
H  34.708  49.144  62.715
H  65.333  41.555  46.620
H  65.370  42.020  48.066
H  53.317  46.531  31.781
H  53.460  45.254  32.591
H  58.053  69.970  57.213
H  62.902  55.770  62.336
H  64.380  56.030  62.105
H  33.581  48.122  40.913
H  32.328  48.931  41.197
H  53.283  57.754  66.113
H  53.550  67.271  57.965
H  54.345  65.981  58.071
H  49.556  40.519  68.351
H  29.573  48.381  47.596
H  66.015  64.567  51.134
H  47.569  61.979  39.917
H  46.512  60.897  39.781
H  55.433  42.902  51.739
H  52.295  61.984  63.862
H  52.450  63.025  64.956
H  55.891  43.451  53.079
H  58.894  66.709  58.712
H  60.267  66.634  58.066
H  57.861  40.759  40.132
H  56.367  41.030  40.118
H  33.909  50.342  63.198
H  64.636  63.932  51.082
H  58.058  68.457  57.079
H  30.021  49.768  48.022
H  36.115  54.567  50.241
H  59.004  63.593  48.766
H  58.797  64.504  49.964
H  67.856  41.006  60.769
H  66.501  40.321  60.764
H  49.226  30.601  60.041
H  33.468  34.751  46.855
H  34.617  34.305  47.741
H  49.672  30.749  61.485
H  33.510  49.258  53.851
H  34.963  48.911  54.124
H  51.350  53.083  32.132
H  50.002  52.425  31.897
H  58.481  61.029  58.832
H  66.613  45.542  53.804
H  65.144  45.396  53.448
H  59.966  61.223  58.577
H  57.065  35.168  62.630
H  57.221  33.932  63.499
H  40.096  56.546  67.558
H  39.097  55.414  67.393
H  44.002  54.891  31.473
H  55.369  70.817  49.874
H  55.736  70.733  48.403
H  61.719  46.452  41.487
H  54.327  58.250  36.343
H  53.488  58.423  37.596
H  62.577  45.563  42.372
H  31.016  52.004  48.636
H  66.832  49.163  46.118
H  66.865  48.808  47.594
H  32.055  52.242  47.554
H  47.788  45.721  64.264
H  47.413  45.131  62.916
H  61.228  58.218  60.709
H  61.068  59.723  60.829
H  32.424  50.199  61.583
H  67.382  57.684  55.353
H  67.221  56.609  56.414
H  35.035  55.632  50.172
H  31.785  51.518  61.981
H  55.525  47.345  57.489
H  38.277  66.352  58.128
H  38.606  65.722  59.470
H  62.448  65.147  43.630
H  44.021  58.571  61.276
H  43.457  58.548  59.866
H  62.554  63.638  43.491
H  62.689  41.554  47.927
H  62.503  42.753  48.841
H  51.385  40.843  47.621
H  50.926  40.988  46.180
H  56.765  47.658  58.308
H  36.315  41.718  65.870
H  52.308  34.213  37.276
H  61.848  42.942  39.584
H  63.374  64.624  41.704
H  47.943  37.970  56.001
H  66.636  46.010  57.672
H  67.709  47.084  57.699
H  46.645  37.994  55.214
H  55.892  32.747  45.123
H  54.953  31.609  44.767
H  32.064  44.208  61.281
H  31.865  45.288  62.330
H  67.724  46.968  37.322
H  61.820  65.966  56.630
H  62.798  67.124  56.536
H  66.312  46.581  36.919
H  57.553  52.201  40.965
H  57.237  51.078  41.938
H  67.482  44.505  49.846
H  67.641  44.711  48.350
H  40.606  60.639  65.193
H  51.964  31.101  51.560
H  52.353  31.924  52.776
H  42.123  60.693  65.124
H  58.285  49.247  43.007
H  59.700  48.758  43.262
H  64.782  64.054  41.723
H  33.417  59.948  39.458
H  33.424  58.742  40.381
H  54.157  67.086  49.129
H  63.224  32.689  56.399
H  52.363  47.984  65.068
H  52.032  46.521  65.308
H  56.837  29.416  50.779
H  55.531  29.790  50.101
H  35.031  56.285  60.391
H  57.178  56.298  38.601
H  58.442  57.140  38.574
H  34.589  55.137  61.281
H  32.812  54.473  53.614
H  34.244  54.016  53.399
H  68.635  49.430  57.816
H  53.962  58.733  56.260
H  52.560  40.911  35.838
H  56.742  69.529  54.246
H  56.427  68.081  54.575
H  51.989  39.570  36.265
H  33.555  50.263  39.675
H  34.782  49.385  39.503
H  39.183  43.374  53.518
H  40.692  43.529  53.443
H  53.298  68.165  48.493
H  63.215  53.911  54.516
H  62.959  52.430  54.735
H  55.016  58.695  55.167
H  53.283  33.073  37.041
H  68.342  50.468  58.885
H  58.886  51.252  61.992
H  40.394  54.794  69.060
H  41.106  54.509  70.371
H  36.255  46.667  55.705
H  63.958  58.590  40.224
H  62.525  59.039  40.446
H  37.141  46.710  56.938
H  51.768  41.915  54.351
H  50.735  42.975  54.013
H  59.686  55.967  45.893
H  59.182  57.369  45.600
H  47.027  49.051  66.478
H  54.872  52.630  31.555
H  54.397  51.392  30.815
H  45.572  49.251  66.091
H  52.079  30.186  49.548
H  52.883  31.474  49.596
H  47.776  34.448  46.346
H  46.489  34.202  45.579
H  59.397  46.848  68.359
H  39.137  52.866  48.908
H  39.205  54.206  48.196
H  58.957  47.269  66.968
H  60.798  42.122  38.854
H  54.411  40.181  41.074
H  53.952  38.734  41.058
H  57.024  38.830  49.215
H  70.216  44.328  47.840
H  57.748  50.270  62.205
H  59.203  63.378  60.311
H  49.092  37.885  50.652
H  48.709  38.156  49.207
H  53.160  64.510  42.855
H  52.559  65.874  42.565
H  43.826  66.938  36.462
H  45.600  60.214  53.390
H  46.093  61.578  53.842
H  42.680  65.942  36.425
H  34.122  38.380  59.419
H  60.456  64.235  60.300
H  34.603  39.719  59.950
H  37.376  36.803  48.607
H  41.020  35.650  45.434
H  68.149  62.513  50.040
H  67.476  63.773  49.524
H  40.568  34.266  45.865
H  53.180  38.396  45.048
H  53.523  39.792  44.558
H  45.549  61.382  37.777
H  45.352  62.873  37.988
H  58.191  38.170  49.929
H  71.617  43.897  47.445
H  38.631  36.026  48.964
H  55.522  35.332  34.990
H  56.247  36.667  34.997
H  48.162  41.260  30.078
H  57.880  35.130  51.755
H  41.503  59.909  59.610
H  39.999  59.978  59.409
H  41.638  56.532  64.423
H  64.031  48.027  38.642
H  65.269  47.348  39.202
H  42.621  55.379  64.320
H  45.981  58.772  40.778
H  46.923  57.582  40.818
H  31.698  43.585  52.356
H  31.853  43.645  50.847
H  51.472  30.132  54.317
H  48.871  34.173  36.124
H  49.110  32.968  35.231
H  50.240  30.991  54.092
H  61.812  64.986  39.916
H  62.160  63.537  40.211
H  38.168  38.559  60.436
H  37.613  37.877  61.674
H  54.215  43.447  31.466
H  65.538  51.805  34.471
H  64.542  51.603  33.342
H  53.084  42.439  31.565
H  58.079  36.547  52.264
H  57.407  64.795  47.818
H  48.903  47.578  63.861
H  48.992  46.642  62.668
H  51.188  65.114  56.807
H  51.227  66.350  57.688
H  61.272  42.027  56.382
H  54.071  72.187  47.368
H  53.812  72.006  45.882
H  58.236  41.505  46.732
H  59.681  41.056  46.852
H  44.186  57.558  56.152
H  61.150  42.878  33.928
H  61.065  44.376  33.694
H  42.868  57.611  55.398
H  37.997  45.296  67.594
H  52.485  45.760  38.875
H  60.865  34.844  56.979
H  59.666  34.061  56.473
H  55.913  68.004  57.271
H  68.241  42.263  44.916
H  68.850  41.100  45.680
H  56.712  67.193  58.276
H  38.512  53.124  32.333
H  37.754  54.264  32.990
H  39.718  39.223  46.527
H  38.899  37.950  46.657
H  57.825  63.654  46.906
H  52.671  44.263  38.702
H  62.528  42.833  56.103
H  38.337  46.679  67.069
H  45.760  52.695  70.125
H  43.558  61.552  34.068
H  43.629  62.773  33.167
H  58.308  55.915  44.153
H  57.448  56.288  42.958
H  30.760  60.174  46.625
H  37.519  60.179  52.503
H  38.966  60.226  52.961
H  31.499  59.194  45.730
H  49.588  65.415  64.591
H  50.477  66.645  64.521
H  45.626  55.949  66.227
H  46.727  56.788  66.852
H  35.301  58.647  38.796
H  63.676  41.722  39.681
H  63.891  43.036  40.410
H  36.249  57.503  38.480
H  48.307  60.085  47.348
H  47.857  61.347  46.633
H  53.431  39.328  34.582
H  54.931  39.089  34.613
H  59.069  68.067  54.949
H  50.002  56.178  36.613
H  48.491  56.304  36.687
H  47.179  63.403  54.825
H  68.844  50.264  44.381
H  67.362  50.301  44.050
H  46.623  64.524  53.966
H  49.690  33.635  61.925
H  37.805  41.499  64.266
H  39.031  41.283  65.137
H  51.158  33.245  61.961
H  57.299  42.208  66.187
H  58.547  42.042  65.338
H  42.200  47.809  41.720
H  42.838  47.036  40.578
H  38.048  53.946  46.343
H  51.218  60.112  65.270
H  49.780  59.639  65.147
H  46.846  51.836  70.748
H  37.725  52.474  46.153
H  50.357  51.909  62.691
H  36.080  43.259  50.098
H  35.952  42.032  49.212
H  62.668  48.324  65.856
H  43.729  69.348  39.948
H  44.617  68.366  40.692
H  63.317  48.954  67.076
H  55.412  55.417  37.134
H  54.397  56.154  37.991
H  57.136  48.715  33.239
H  57.398  47.225  33.108
H  50.412  53.410  62.915
H  60.024  68.247  56.116
H  47.670  60.066  35.249
H  48.237  41.121  41.615
H  39.236  58.520  48.981
H  51.593  44.644  67.367
H  55.626  50.722  37.638
H  54.875  52.041  37.696
H  52.983  45.184  67.655
H  56.740  42.179  31.087
H  55.518  41.666  31.828
H  30.575  49.234  39.878
H  31.766  48.744  39.074
H  40.210  64.212  60.893
H  45.379  50.838  41.603
H  45.905  52.262  41.656
H  41.444  63.337  61.028
H  54.319  42.698  29.378
H  53.860  43.837  28.486
H  60.438  49.132  51.497
H  61.902  48.857  51.795
H  36.377  45.320  43.056
H  63.065  55.798  39.558
H  64.398  56.518  39.658
H  34.909  45.039  43.328
H  64.128  33.544  46.126
H  63.493  32.166  46.195
H  40.356  57.540  49.283
H  66.859  38.670  57.443
H  67.448  39.835  58.218
H  55.364  65.250  49.261
H  54.224  52.795  40.389
H  34.516  42.136  54.901
H  34.701  40.637  55.066
H  44.194  65.015  35.126
H  45.258  65.660  34.256
H  46.945  67.748  40.390
H  33.534  63.482  55.806
H  33.969  64.924  56.000
H  47.551  69.140  40.432
H  49.711  35.584  38.255
H  50.721  36.714  38.347
H  57.427  63.491  55.214
H  62.013  52.083  35.912
H  71.004  45.207  56.043
H  49.526  30.300  47.758
H  50.283  31.172  48.744
H  70.429  43.929  56.628
H  37.975  50.184  51.446
H  38.702  50.104  50.115
H  57.117  52.718  62.017
H  56.850  53.707  63.138
H  54.312  65.265  50.356
H  42.637  33.310  53.834
H  41.640  32.441  53.088
H  62.813  51.111  36.761
H  46.157  60.080  35.376
H  56.761  62.629  54.156
H  43.623  54.392  37.959
H  51.506  54.825  28.462
H  51.290  53.964  29.694
H  53.174  32.800  55.464
H  42.644  65.794  50.053
H  42.059  64.393  50.085
H  54.566  33.258  55.862
H  54.220  47.294  66.906
H  54.211  46.772  65.480
H  41.691  69.682  51.655
H  40.597  69.137  50.754
H  47.959  55.865  34.275
H  38.703  34.352  47.052
H  38.759  35.501  46.061
H  47.770  54.372  34.070
H  66.972  62.311  46.583
H  67.285  63.762  46.265
H  38.069  51.888  59.093
H  39.033  50.718  59.008
H  51.542  53.734  36.785
H  45.962  43.229  65.981
H  46.021  42.158  67.056
H  50.152  53.370  36.292
H  49.592  41.333  40.964
H  43.260  38.115  51.512
H  42.232  37.467  52.422
H  36.489  64.671  45.670
H  42.289  34.770  42.923
H  42.594  54.000  36.912
H  29.118  45.921  51.927
H  53.185  54.316  32.049
H  54.488  54.410  32.824
H  64.834  33.966  43.953
H  65.255  35.054  42.980
H  64.268  35.247  54.232
H  51.063  68.081  62.105
H  51.413  69.471  61.602
H  62.929  34.532  54.265
H  68.486  50.170  55.711
H  29.405  47.335  52.401
H  69.801  50.831  56.086
H  64.823  57.693  36.819
H  62.992  38.142  54.683
H  54.212  41.453  57.941
H  54.921  40.349  57.176
H  64.258  37.494  54.150
H  49.331  55.759  66.954
H  49.814  54.371  67.339
H  29.508  43.073  50.420
H  28.375  44.083  50.459
H  37.930  64.428  45.256
H  41.127  33.878  42.524
H  66.222  57.120  36.959
H  64.023  50.026  43.778
H  63.989  49.123  42.557
H  37.143  49.034  34.469
H  61.775  59.813  44.321
H  56.064  66.150  39.297
H  56.159  67.665  39.342
H  60.713  50.453  40.846
H  46.876  34.218  42.987
H  47.850  35.255  42.456
H  60.058  51.535  40.006
H  61.781  54.529  36.488
H  60.740  55.431  35.850
H  44.392  65.919  38.471
H  43.966  64.467  38.603
H  45.756  65.622  41.713
H  42.406  44.713  62.671
H  41.537  45.883  63.099
H  44.695  64.538  41.644
H  50.965  45.159  35.077
H  50.527  43.998  35.953
H  38.717  40.808  58.461
H  40.001  41.619  58.470
H  68.315  52.261  57.012
H  50.238  57.063  34.602
H  49.883  58.136  35.617
H  67.608  53.363  56.242
H  60.784  58.688  44.563
H  31.557  42.950  44.357
H  44.772  66.944  59.126
H  45.062  65.866  58.097
H  35.272  59.562  56.385
H  36.701  59.941  56.733
H  56.688  37.777  54.255
H  40.354  62.938  56.967
H  40.445  61.658  56.155
H  31.245  54.632  51.520
H  30.466  55.604  52.388
H  58.065  45.120  45.939
H  46.941  62.343  57.733
H  45.748  62.436  56.797
H  58.834  46.320  46.463
H  59.214  65.290  54.804
H  46.802  47.362  40.148
H  69.939  52.179  49.285
H  68.921  52.312  48.166
H  49.638  64.229  52.096
H  42.630  38.984  63.343
H  41.418  39.766  62.870
H  49.060  63.158  53.005
H  58.420  63.618  44.392
H  58.990  62.212  44.456
H  63.580  57.219  59.053
H  62.719  56.173  59.738
H  30.844  42.703  43.038
H  48.292  47.518  40.392
H  57.398  39.058  53.852
H  60.540  66.030  54.841
H  53.238  66.694  63.410
H  33.424  52.649  45.338
H  34.845  52.646  44.804
H  65.631  42.081  38.737
H  66.997  41.427  38.631
H  45.840  56.257  39.065
H  64.705  45.302  41.879
H  64.770  46.796  41.616
H  44.717  57.238  39.354
H  63.603  49.579  32.831
H  62.157  49.194  33.089
H  53.909  63.475  35.675
H  52.509  63.228  35.141
H  58.355  63.798  65.706
H  56.864  64.057  52.125
H  55.571  64.825  52.336
H  57.143  63.187  65.024
H  58.600  61.172  62.063
H  57.642  59.994  62.097
H  33.945  49.321  56.146
H  32.759  50.135  56.634
H  48.466  39.777  30.200
H  34.821  53.722  55.846
H  35.317  52.317  56.142
H  59.124  54.609  67.054
H  40.063  41.652  68.138
H  41.190  42.501  68.699
H  58.857  54.023  65.679
H  36.422  49.185  32.236
H  41.575  29.744  52.724
H  42.274  30.703  51.776
H  37.631  49.418  31.348
H  57.207  54.293  36.042
H  56.173  53.233  36.379
H  37.367  51.489  43.780
H  37.322  50.125  43.113
H  61.889  68.868  54.294
H  49.430  40.373  38.921
H  48.980  38.983  38.506
H  53.711  66.775  64.851
H  63.109  67.988  54.502
H  33.676  46.274  50.517
H  57.840  39.717  45.459
H  57.054  39.648  46.757
H  43.560  53.323  42.641
H  41.064  61.436  43.890
H  40.950  59.932  43.714
H  43.621  52.229  41.589
H  42.762  52.663  62.862
H  41.394  52.402  62.257
H  31.035  39.166  48.299
H  31.286  40.663  48.264
H  35.125  46.046  50.124
H  36.057  50.804  45.876
H  35.147  49.844  46.622
H  47.758  44.321  60.766
H  44.476  35.145  59.165
H  45.131  33.776  59.110
H  35.668  55.588  46.717
H  55.497  48.219  68.612
H  55.770  47.161  69.668
H  34.603  56.600  47.101
H  61.202  40.738  65.386
H  62.397  39.835  65.134
H  56.550  39.231  51.463
H  56.153  40.675  51.714
H  56.552  57.872  62.631
H  34.326  47.251  60.948
H  35.499  48.213  60.883
H  55.574  58.910  62.110
H  43.586  34.874  47.297
H  42.109  34.889  47.649
H  56.428  39.458  42.689
H  56.263  38.012  42.256
H  38.359  50.747  63.253
H  69.651  42.121  47.973
H  70.582  41.937  46.787
H  39.697  50.036  63.346
H  36.593  39.572  57.618
H  54.960  47.083  71.712
H  53.721  46.219  71.865
H  58.852  36.191  39.165
H  42.519  41.117  38.498
H  35.681  48.683  34.259
H  54.918  62.587  52.523
H  54.302  61.272  52.967
H  49.337  65.260  36.033
H  46.967  35.095  40.289
H  45.748  36.000  40.261
H  60.422  50.998  30.540
H  34.159  56.037  54.440
H  34.357  57.530  54.637
H  61.648  51.711  31.082
H  39.053  45.337  52.341
H  36.326  38.649  56.442
H  40.091  45.194  51.241
H  42.350  32.833  56.135
H  56.012  68.535  49.665
H  49.324  63.225  41.371
H  49.763  61.978  40.623
H  57.153  69.534  49.590
H  38.222  57.898  67.066
H  37.276  56.710  67.078
H  41.136  58.234  66.519
H  39.863  58.581  65.768
H  57.406  35.823  38.884
H  43.678  40.154  38.685
H  41.099  33.546  55.653
H  55.206  58.684  39.004
H  56.359  58.139  39.828
H  57.567  61.284  66.524
H  39.635  43.959  62.640
H  59.642  61.572  49.395
H  60.646  61.446  50.527
H  38.162  51.752  66.789
H  41.770  61.069  40.667
H  40.403  61.656  40.971
H  39.207  50.949  66.035
H  47.328  51.356  38.841
H  47.548  49.985  39.456
H  41.060  36.722  58.052
H  39.941  37.310  57.210
H  38.202  43.458  62.684
H  61.112  54.126  46.369
H  51.737  31.624  44.429
H  62.599  54.020  46.082
H  51.928  60.993  54.832
H  50.660  61.565  54.222
H  53.039  35.479  56.363
H  51.561  35.816  56.462
H  46.876  52.500  34.850
H  64.220  38.142  59.611
H  64.116  39.390  60.469
H  46.960  51.027  34.491
H  49.263  44.523  60.793
H  52.129  30.550  43.429
H  56.816  58.131  34.421
H  56.653  44.423  59.831
H  41.770  57.938  61.145
H  47.580  44.665  39.158
H  46.198  45.218  38.861
H  59.018  61.698  66.348
H  38.662  40.515  40.511
H  38.734  39.167  41.207
H  50.244  40.770  64.531
H  50.029  42.272  64.482
H  46.266  67.840  55.904
H  57.686  37.118  58.061
H  56.699  36.571  57.045
H  44.764  67.679  56.059
H  40.703  57.454  62.111
H  38.694  31.692  43.663
H  64.575  40.199  62.485
H  64.250  41.636  62.855
H  51.440  52.781  27.642
H  51.222  38.047  48.710
H  50.843  36.947  49.687
H  50.057  52.832  28.267
H  55.264  57.440  67.019
H  55.109  56.112  67.738
H  48.490  31.297  46.003
H  49.973  31.626  46.036
H  57.636  45.562  59.625
H  39.909  31.064  44.325
H  49.845  65.959  34.783
