10074
Supercell generated
Cl  41.208  60.807  72.521
Cl  47.800  30.721  60.263
Cl  36.482  47.994  74.988
Cl  39.246  50.011  60.153
Cl  62.572  58.963  60.628
Cl  64.377  44.390  60.327
Cl  61.224  67.535  41.056
Cl  39.054  40.554  72.958
Cl  31.309  51.121  48.289
Na  47.387  37.304  62.151
Na  36.034  52.682  54.067
Na  41.211  68.051  69.505
Na  35.578  36.956  44.297
Na  46.413  56.332  35.015
Na  37.060  30.325  63.877
Na  35.942  44.953  51.364
O  50.250  42.336  73.246
O  53.824  63.126  30.339
O  67.424  53.180  69.906
O  77.329  53.785  48.089
O  55.739  50.330  33.097
O  57.802  39.391  65.025
O  42.820  56.959  61.324
O  29.152  51.145  37.760
O  70.404  48.049  41.303
O  72.644  50.217  35.396
O  49.041  29.346  52.281
O  45.022  65.453  37.902
O  46.158  64.407  57.656
O  54.716  68.289  34.633
O  60.356  48.828  31.979
O  47.456  66.880  35.454
O  44.783  49.707  27.629
O  51.130  69.681  39.345
O  54.755  63.323  34.576
O  24.762  48.115  56.847
O  26.137  38.902  54.014
O  34.680  55.910  33.234
O  57.516  54.987  41.305
O  45.852  68.693  34.164
O  52.652  70.720  34.712
O  56.349  38.310  51.948
O  57.334  52.661  37.720
O  48.578  51.828  74.666
O  51.358  50.305  30.364
O  45.084  46.442  38.443
O  65.874  73.268  49.519
O  61.491  55.308  74.929
O  36.073  67.476  45.085
O  58.292  55.857  65.884
O  39.390  54.179  45.038
O  45.789  64.776  44.702
O  60.813  46.484  35.417
O  70.485  37.522  65.352
O  45.369  53.790  33.629
O  51.666  65.622  40.216
O  55.212  57.122  32.983
O  36.400  62.713  59.854
O  42.665  32.150  32.298
O  42.262  37.812  71.171
O  66.717  59.482  35.258
O  70.711  46.221  66.164
O  58.078  64.768  39.836
O  69.782  37.391  38.339
O  39.986  57.587  27.486
O  35.627  37.044  36.941
O  36.444  54.915  54.041
O  65.140  57.098  57.332
O  42.156  23.662  50.343
O  63.581  31.973  46.922
O  55.409  58.201  65.862
O  35.750  43.012  52.521
O  33.311  43.746  31.572
O  65.120  53.996  60.853
O  65.230  45.474  56.273
O  42.270  41.581  63.255
O  33.962  58.646  63.709
O  42.048  57.099  45.772
O  27.218  64.710  56.511
O  27.042  51.906  43.557
O  29.385  52.344  46.107
O  31.556  45.198  53.169
O  45.930  73.645  62.126
O  44.858  51.366  25.787
O  49.314  30.792  46.946
O  35.884  67.649  66.446
O  70.113  53.965  46.541
O  49.162  57.425  60.772
O  53.877  50.297  72.748
O  75.679  57.297  52.090
O  54.657  69.410  67.897
O  54.974  69.305  50.139
O  54.644  39.087  26.271
O  26.518  44.786  56.728
O  61.350  35.371  43.733
O  47.004  75.271  48.097
O  72.866  43.574  51.934
O  74.655  55.100  41.311
O  65.948  43.203  65.330
O  47.694  59.118  48.728
O  68.134  63.860  37.736
O  42.890  48.183  72.143
O  62.811  70.584  58.302
O  52.990  37.838  52.300
O  38.909  76.070  49.132
O  59.252  36.358  51.233
O  36.916  52.190  56.427
O  72.332  45.168  63.776
O  33.456  40.538  35.031
O  49.544  69.367  47.698
O  28.277  58.155  45.456
O  26.197  57.425  59.952
O  74.315  59.763  57.774
O  37.084  68.794  36.972
O  71.081  48.180  38.842
O  53.761  44.782  36.901
O  51.393  61.495  71.329
O  43.349  36.187  35.428
O  34.023  39.068  37.014
O  57.224  55.630  46.652
O  73.962  46.156  39.990
O  66.435  57.429  59.551
O  45.923  45.334  62.630
O  47.437  50.294  29.880
O  66.160  70.716  55.361
O  38.821  62.803  65.626
O  23.143  48.144  40.893
O  60.190  41.504  24.377
O  61.979  62.731  69.495
O  69.916  37.025  41.260
O  63.818  45.947  53.098
O  27.831  67.276  56.006
O  68.593  59.366  65.562
O  50.664  48.812  22.113
O  35.598  53.434  58.697
O  32.223  30.666  52.549
O  40.293  65.060  34.058
O  58.846  70.105  34.614
O  52.029  64.897  71.156
O  57.485  67.430  29.812
O  49.618  40.120  67.078
O  31.422  40.217  66.828
O  58.808  37.525  46.186
O  55.021  68.207  70.945
O  40.527  45.969  51.714
O  58.532  44.739  46.730
O  58.217  58.507  75.374
O  55.407  34.291  55.577
O  41.020  68.276  49.581
O  63.539  50.603  50.253
O  39.182  55.859  32.172
O  47.897  34.349  72.309
O  59.360  75.047  43.985
O  45.992  40.475  54.749
O  62.077  41.268  64.753
O  30.993  43.931  48.064
O  45.268  50.633  75.167
O  40.946  30.170  56.977
O  52.620  41.257  36.227
O  51.526  71.219  32.212
O  43.183  74.921  48.592
O  43.000  73.393  53.756
O  38.592  51.036  35.771
O  67.730  55.198  34.668
O  51.594  21.872  48.673
O  43.756  45.491  75.123
O  56.442  50.866  40.278
O  58.736  38.963  49.059
O  56.807  62.459  53.282
O  42.742  59.213  73.567
O  44.465  64.230  53.587
O  67.412  45.460  35.586
O  48.976  30.040  54.847
O  57.730  62.000  70.060
O  65.627  54.348  58.125
O  71.302  60.192  64.339
O  59.261  56.660  69.967
O  42.892  53.404  32.638
O  57.223  58.576  38.749
O  49.802  37.110  44.870
O  39.521  27.244  58.116
O  68.239  30.810  47.635
O  43.725  55.264  35.085
O  74.084  55.105  50.343
O  43.830  27.616  39.412
O  54.024  37.113  25.128
O  63.677  66.558  57.758
O  51.216  44.971  66.811
O  39.515  41.966  40.823
O  37.954  49.790  57.990
O  59.684  53.923  63.456
O  56.802  47.351  45.364
O  36.688  32.581  52.596
O  49.618  32.682  30.753
O  31.294  58.780  31.786
O  67.715  70.178  41.157
O  46.513  55.267  29.751
O  38.611  70.117  38.817
O  73.358  33.520  50.180
O  41.482  54.393  67.451
O  53.973  77.857  46.840
O  35.625  60.058  66.811
O  28.582  66.029  53.284
O  36.208  58.590  61.930
O  38.516  65.289  29.993
O  32.710  38.572  42.192
O  62.078  66.367  54.853
O  47.643  43.444  34.189
O  40.860  36.136  36.372
O  60.704  35.372  32.676
O  42.730  54.947  30.322
O  71.469  42.910  64.244
O  28.108  40.182  54.302
O  34.912  43.358  29.504
O  38.139  62.132  71.908
O  58.033  32.097  37.035
O  34.369  62.401  61.456
O  73.872  63.052  40.845
O  67.848  40.643  43.025
O  58.969  69.653  53.136
O  59.967  48.890  67.513
O  49.416  22.504  47.312
O  64.605  27.654  48.195
O  53.726  31.663  38.253
O  38.322  44.846  65.319
O  52.267  48.903  61.165
O  32.810  40.017  59.359
O  56.114  47.316  36.333
O  37.978  37.214  61.728
O  56.507  25.025  58.081
O  33.828  32.499  63.122
O  59.968  43.897  44.675
O  58.705  32.013  45.053
O  72.315  48.479  33.667
O  68.173  45.202  64.780
O  67.104  37.711  60.226
O  32.060  36.113  34.896
O  48.395  59.371  76.242
O  57.337  68.781  33.322
O  47.616  70.032  36.277
O  38.148  64.870  56.445
O  60.997  36.417  67.470
O  55.580  38.779  38.321
O  29.117  52.306  30.193
O  44.060  77.303  46.505
O  68.611  50.250  38.560
O  33.283  54.536  71.353
O  30.253  42.402  37.585
O  51.368  55.240  43.755
O  69.612  59.538  39.509
O  50.854  67.626  41.274
O  50.773  51.531  76.895
O  70.216  63.552  54.276
O  40.391  41.031  38.244
O  54.431  53.259  24.247
O  69.321  61.970  36.405
O  53.695  44.983  22.442
O  31.188  61.550  44.970
O  53.530  32.357  44.869
O  35.161  50.246  44.533
O  54.107  53.352  35.015
O  67.372  62.821  57.333
O  45.472  29.749  41.229
O  48.313  44.474  73.143
O  51.336  56.026  38.205
O  49.217  55.583  23.926
O  34.038  53.053  43.837
O  72.415  48.366  50.962
O  23.713  51.968  43.706
O  62.572  38.648  54.674
O  45.326  24.157  46.425
O  55.302  63.059  41.946
O  28.091  64.392  46.664
O  22.732  55.260  57.198
O  70.452  51.295  48.585
O  54.869  45.742  49.421
O  45.128  54.951  22.911
O  32.954  35.862  60.640
O  56.403  54.789  63.453
O  39.171  42.540  69.515
O  67.249  41.030  63.562
O  37.299  72.858  37.729
O  46.335  43.926  74.687
O  40.553  62.418  46.487
O  41.573  54.767  51.499
O  50.009  72.948  59.874
O  41.381  43.514  26.601
O  55.098  54.623  70.953
O  33.719  66.057  62.948
O  51.842  62.830  41.657
O  60.707  34.867  28.614
O  63.651  50.787  43.405
O  50.211  64.366  56.491
O  77.355  43.907  42.814
O  35.243  41.220  55.002
O  45.048  37.097  62.412
O  37.137  44.571  56.428
O  74.936  54.031  57.971
O  56.162  33.834  37.943
O  32.073  63.331  53.117
O  47.044  38.162  52.679
O  56.789  37.692  59.219
O  51.166  60.174  73.269
O  56.200  59.483  24.683
O  31.128  63.307  33.111
O  73.924  48.531  39.559
O  50.910  62.588  44.406
O  53.749  58.766  63.267
O  34.218  58.017  56.267
O  56.187  66.788  39.965
O  24.033  62.463  48.255
O  39.393  66.194  35.847
O  27.843  54.363  59.151
O  35.486  58.978  47.846
O  34.769  72.105  42.005
O  70.671  50.975  36.555
O  53.102  71.180  59.869
O  42.127  39.147  62.027
O  59.354  40.442  69.076
O  43.180  60.609  29.338
O  52.020  62.012  33.776
O  29.556  50.757  41.070
O  55.964  23.656  56.045
O  48.562  71.405  57.628
O  67.998  40.049  68.601
O  38.569  49.313  40.287
O  50.728  28.677  31.760
O  35.532  60.703  62.884
O  68.873  65.417  52.322
O  30.702  53.441  53.108
O  37.663  35.545  63.752
O  71.710  55.424  33.173
O  46.262  45.603  66.669
O  59.078  49.123  60.603
O  44.185  62.071  47.439
O  39.364  65.423  62.028
O  43.010  29.023  42.989
O  46.412  33.495  45.609
O  58.277  65.905  72.618
O  36.550  48.667  71.696
O  60.860  65.086  72.029
O  47.201  56.693  28.028
O  47.933  42.227  37.977
O  52.384  71.287  64.103
O  35.852  42.392  70.798
O  44.780  57.961  70.562
O  70.764  33.878  59.160
O  68.889  65.390  64.419
O  41.973  50.853  74.785
O  38.117  40.274  65.887
O  60.413  26.812  56.285
O  47.567  41.713  72.894
O  67.604  36.608  63.667
O  56.745  49.323  62.962
O  70.224  59.951  41.729
O  64.808  29.097  37.268
O  24.840  59.762  52.311
O  47.122  60.999  55.849
O  61.258  45.840  50.921
O  35.815  57.390  44.893
O  50.578  53.686  28.480
O  59.258  50.627  35.533
O  64.634  39.386  52.726
O  59.049  26.871  52.508
O  46.582  31.414  39.258
O  27.332  60.319  36.529
O  66.203  44.884  51.334
O  49.870  44.729  33.852
O  44.708  49.229  68.413
O  54.754  36.204  71.498
O  59.543  60.047  35.826
O  49.624  30.165  35.461
O  72.127  48.611  62.686
O  43.354  73.951  60.763
O  59.264  44.876  75.998
O  40.237  68.965  55.217
O  64.634  37.947  45.055
O  49.214  29.925  42.186
O  54.968  28.860  45.243
O  47.313  44.761  59.751
O  38.686  49.860  33.425
O  34.462  48.214  38.818
O  34.845  63.210  54.024
O  53.870  44.780  52.073
O  38.028  73.082  42.968
O  60.603  40.242  43.797
O  62.577  64.797  43.237
O  30.199  34.944  43.185
O  75.907  56.284  55.363
O  59.827  58.834  61.171
O  28.840  40.919  42.863
O  67.734  50.339  36.141
O  63.101  53.881  32.760
O  44.647  39.891  34.868
O  51.179  42.053  28.588
O  30.287  37.953  52.975
O  58.988  70.618  48.606
O  44.002  30.795  56.931
O  30.152  38.586  40.626
O  48.276  35.571  64.467
O  28.205  43.320  33.468
O  54.018  61.482  65.903
O  58.269  52.324  61.635
O  40.605  49.971  36.093
O  72.503  34.016  52.303
O  70.291  61.489  59.563
O  54.812  52.531  60.344
O  58.081  28.506  38.239
O  65.872  67.730  59.442
O  43.151  38.974  45.768
O  51.525  74.228  62.419
O  58.962  60.960  41.806
O  27.260  50.240  41.028
O  38.230  41.598  43.139
O  46.880  56.122  46.274
O  38.855  47.841  25.812
O  70.619  38.369  52.536
O  37.382  67.173  64.024
O  42.606  37.550  64.393
O  64.263  47.266  27.148
O  37.612  25.733  51.683
O  57.864  52.087  68.674
O  25.238  43.406  55.290
O  31.542  37.853  63.321
O  44.166  64.654  41.361
O  31.080  33.581  50.369
O  40.961  70.723  63.517
O  66.044  48.477  40.847
O  50.750  67.909  52.919
O  62.073  69.286  55.213
O  31.401  60.249  34.178
O  68.120  32.659  39.259
O  29.263  42.663  67.886
O  38.032  50.981  49.752
O  50.380  62.150  28.764
O  56.949  30.505  51.316
O  63.728  63.699  33.310
O  37.770  35.904  32.993
O  31.292  44.425  51.038
O  48.149  38.317  34.383
O  68.533  33.358  62.823
O  59.838  56.479  30.646
O  66.953  32.372  52.879
O  48.686  40.227  30.154
O  26.604  55.249  47.160
O  54.225  68.085  40.185
O  23.272  58.684  55.416
O  74.744  53.499  46.520
O  58.842  27.167  58.889
O  42.996  69.131  57.460
O  44.588  47.851  40.211
O  63.763  54.922  56.224
O  52.973  73.839  58.805
O  43.855  53.599  67.871
O  72.109  58.895  57.447
O  37.159  30.596  46.720
O  46.614  60.035  71.347
O  54.678  67.209  63.090
O  44.289  29.088  35.778
O  56.777  30.507  57.169
O  58.313  47.037  25.712
O  32.430  70.059  49.622
O  70.918  61.177  34.572
O  29.437  51.381  32.426
O  47.254  42.271  65.383
O  36.502  44.066  34.185
O  30.016  41.412  58.410
O  39.085  29.863  40.755
O  36.834  54.588  41.783
O  41.784  31.675  49.001
O  30.380  31.185  49.213
O  40.978  49.060  48.051
O  50.045  54.368  61.786
O  63.249  33.570  42.080
O  45.845  75.678  50.093
O  53.990  56.470  77.591
O  49.993  42.554  26.364
O  31.317  52.884  34.211
O  69.345  58.366  68.051
O  50.438  45.629  58.713
O  56.687  74.097  48.631
O  60.141  41.966  34.972
O  25.445  49.265  63.618
O  59.260  67.636  69.901
O  37.030  42.919  31.119
O  63.733  48.692  65.952
O  58.058  36.786  40.612
O  40.483  51.438  50.306
O  42.143  43.743  34.241
O  43.825  66.339  58.586
O  44.814  41.798  64.593
O  62.290  52.926  43.539
O  40.075  52.491  29.555
O  45.088  43.432  27.067
O  50.076  27.544  66.001
O  36.682  71.874  49.762
O  23.207  53.551  54.837
O  62.144  32.579  37.346
O  26.434  50.470  49.724
O  54.683  45.409  77.155
O  45.050  71.797  36.971
O  67.255  37.337  36.150
O  35.996  69.263  58.410
O  29.233  37.650  35.115
O  45.703  58.506  74.707
O  56.549  72.245  50.984
O  37.281  44.181  72.256
O  51.947  49.698  73.998
O  68.653  71.267  54.810
O  38.486  26.154  42.270
O  38.759  36.562  42.525
O  38.877  74.144  40.556
O  33.764  62.751  36.634
O  39.668  54.905  70.830
O  44.478  53.976  29.149
O  53.374  68.657  47.679
O  43.912  52.927  77.063
O  41.184  61.256  59.642
O  69.942  69.544  53.347
O  49.964  48.296  76.975
O  40.068  31.125  63.305
O  63.695  37.969  35.678
O  52.532  44.372  54.713
O  24.817  43.437  50.232
O  39.185  33.411  51.729
O  52.236  26.516  47.867
O  60.385  62.197  72.555
O  49.492  55.826  69.242
O  68.681  56.782  31.449
O  63.615  61.473  37.210
O  48.501  64.647  73.317
O  59.614  61.479  58.753
O  56.159  35.495  52.137
O  50.847  62.094  37.102
O  61.681  51.742  35.801
O  45.513  40.095  58.899
O  34.864  50.586  46.830
O  39.504  34.349  34.113
O  39.236  49.031  51.134
O  54.668  56.544  64.087
O  57.255  67.472  57.698
O  51.890  26.213  55.551
O  64.693  68.471  43.313
O  32.396  53.667  28.190
O  62.619  41.279  69.113
O  68.617  48.571  53.588
O  45.257  60.546  43.053
O  67.351  65.114  43.652
O  70.357  42.127  35.524
O  47.919  31.010  63.138
O  55.491  47.009  66.209
O  23.326  46.825  48.774
O  34.210  69.510  60.709
O  61.200  28.416  35.972
O  49.998  55.980  41.827
O  62.829  38.237  57.452
O  69.986  53.540  43.687
O  41.998  74.696  42.656
O  34.978  50.355  53.841
O  27.069  49.395  61.879
O  57.702  58.672  36.274
O  49.679  47.333  35.378
O  61.628  60.390  58.905
O  72.713  39.729  40.276
O  46.205  26.658  37.119
O  67.192  45.966  71.077
O  39.493  60.031  27.255
O  68.587  43.340  51.809
O  64.372  61.392  50.668
O  40.323  33.273  41.199
O  72.331  39.490  51.356
O  45.539  59.764  32.791
O  48.252  27.501  58.103
O  56.923  44.165  67.828
O  65.845  37.988  67.076
O  48.718  59.764  30.644
O  57.710  62.306  50.852
O  39.531  47.046  40.536
O  51.844  28.902  52.913
O  33.861  53.807  62.998
O  41.112  30.792  34.872
O  63.486  63.431  65.050
O  52.565  51.343  24.770
O  70.127  67.504  58.271
O  49.036  74.570  35.061
O  45.225  39.014  69.750
O  28.636  39.615  60.264
O  70.391  56.022  67.926
O  67.532  33.801  41.723
O  31.988  42.294  63.979
O  52.494  64.556  57.917
O  41.014  43.781  64.991
O  60.310  50.152  63.284
O  35.249  60.273  36.176
O  49.290  43.927  24.560
O  43.168  34.332  36.957
O  56.144  35.462  68.334
O  70.629  47.110  60.057
O  63.026  70.067  51.107
O  46.887  71.359  34.411
O  52.964  55.274  65.610
O  75.109  62.021  52.323
O  39.780  54.049  36.192
O  42.303  61.040  56.792
O  45.608  66.565  49.953
O  41.046  47.363  30.493
O  51.196  54.972  35.880
O  35.723  51.371  26.554
O  51.524  40.388  59.190
O  60.954  45.954  29.558
O  58.728  38.553  54.449
O  37.746  55.770  74.651
O  52.319  76.454  49.155
O  64.317  32.971  66.902
O  66.174  26.415  46.120
O  61.063  47.329  62.155
O  32.715  71.203  58.823
O  42.305  26.497  37.542
O  39.544  65.568  66.671
O  43.696  32.253  28.125
O  54.537  48.579  61.933
O  45.542  62.931  28.140
O  41.291  38.776  37.488
O  27.857  33.458  47.369
O  51.049  61.947  46.886
O  35.255  34.997  60.565
O  52.359  55.400  72.932
O  32.890  50.038  56.490
O  69.922  40.921  44.052
O  31.242  43.455  43.254
O  64.988  47.753  61.973
O  71.535  31.594  53.705
O  59.546  53.738  45.966
O  67.667  37.388  33.335
O  49.851  67.974  55.184
O  45.528  55.447  68.091
O  55.214  57.931  52.734
O  77.257  42.686  46.588
O  44.817  74.807  55.961
O  55.107  28.455  40.188
O  33.180  42.672  33.665
O  70.153  59.326  47.127
O  47.716  28.182  41.264
O  51.477  77.725  47.019
O  24.322  48.723  59.138
O  62.856  44.128  62.442
O  42.415  45.463  38.660
O  57.793  41.341  72.174
O  43.633  68.506  47.008
O  54.180  25.868  61.642
O  61.292  57.242  67.018
O  47.349  39.914  35.988
O  58.328  51.410  64.647
O  69.974  37.703  59.075
O  37.420  24.472  49.745
O  32.789  64.950  50.398
O  46.980  45.187  32.221
O  62.361  50.697  28.500
O  76.737  54.034  43.287
O  67.001  54.149  27.593
O  68.960  55.458  42.806
O  58.560  45.120  70.563
O  40.427  55.608  38.767
O  46.357  41.237  76.559
O  35.455  54.629  28.060
O  45.412  62.256  41.453
O  69.560  50.756  56.005
O  41.568  43.207  70.504
O  41.857  31.017  69.357
O  29.369  58.112  34.494
O  53.564  66.674  68.590
O  38.587  28.057  51.759
O  70.133  37.008  44.087
O  33.281  38.517  45.064
O  71.462  63.759  56.550
O  58.472  47.318  32.130
O  60.352  71.777  61.642
O  61.482  34.134  47.497
O  49.440  41.414  34.231
O  51.386  54.287  68.272
O  34.133  65.300  56.298
O  28.608  34.748  54.898
O  56.201  39.214  61.484
O  45.583  62.264  59.010
O  46.121  33.757  50.984
O  45.349  46.340  35.393
O  55.017  26.192  47.877
O  58.809  46.948  51.103
O  46.917  27.454  43.939
O  33.263  44.686  63.964
O  69.007  60.909  52.105
O  47.608  64.066  34.550
O  34.168  60.947  58.506
O  45.028  63.510  50.027
O  48.469  26.384  38.394
O  37.683  60.303  64.872
O  49.223  35.344  61.315
O  29.614  57.472  37.289
O  74.361  48.137  43.663
O  60.678  48.477  37.616
O  28.514  54.482  53.529
O  71.143  30.538  50.691
O  45.515  72.760  46.759
O  53.070  59.269  25.666
O  69.368  38.508  61.685
O  53.735  34.441  26.345
O  59.787  41.428  48.565
O  70.219  45.882  51.585
O  25.470  46.574  53.995
O  51.210  43.393  37.167
O  39.926  67.179  52.320
O  55.275  33.392  42.932
O  71.179  43.963  43.481
O  51.471  70.976  41.957
O  48.993  35.143  31.685
O  49.709  30.478  29.514
O  53.907  64.920  39.219
O  36.950  62.847  56.634
O  37.221  51.471  46.879
O  65.472  42.809  37.563
O  36.102  39.488  43.030
O  44.730  63.215  68.549
O  47.174  70.687  45.233
O  60.805  30.650  56.687
O  65.561  38.813  58.852
O  40.476  33.067  70.215
O  66.034  39.053  29.926
O  48.506  35.941  39.145
O  48.101  33.430  59.008
O  30.963  54.383  56.497
O  71.582  48.483  44.500
O  54.309  33.499  69.979
O  58.043  64.579  53.492
O  28.733  48.185  64.382
O  60.733  41.826  66.797
O  47.376  48.494  61.561
O  56.318  59.943  33.466
O  43.534  75.152  57.901
O  49.164  39.628  53.691
O  30.169  36.245  49.141
O  68.989  57.036  50.797
O  46.017  73.800  54.108
O  44.094  58.139  34.032
O  57.377  45.395  34.885
O  44.165  51.093  30.977
O  59.630  56.920  45.887
O  36.840  51.995  29.708
O  37.594  34.941  56.110
O  40.447  55.933  29.299
O  52.376  76.490  54.070
O  36.266  45.142  58.976
O  46.603  73.238  38.918
O  69.313  44.167  61.161
O  65.106  65.375  34.763
O  41.628  65.812  55.487
O  64.825  66.607  44.882
O  56.006  65.409  60.999
O  43.744  55.246  72.210
O  46.849  53.393  72.648
O  73.267  46.665  61.209
O  70.009  49.890  51.244
O  62.897  54.971  51.601
O  34.068  50.579  65.296
O  70.233  50.764  70.370
O  45.059  71.573  66.804
O  66.757  58.694  39.356
O  29.281  53.715  39.137
O  34.685  38.856  29.208
O  43.640  58.656  63.444
O  46.050  41.867  36.504
O  49.514  73.253  52.993
O  29.835  39.789  46.988
O  43.637  67.555  53.695
O  63.148  26.066  54.312
O  48.921  63.754  41.721
O  30.591  35.015  63.767
O  37.323  73.436  56.135
O  34.564  70.164  56.752
O  34.061  53.966  49.438
O  31.670  28.490  49.022
O  26.589  54.372  57.134
O  38.039  44.596  39.213
O  74.438  36.096  52.454
O  46.224  50.448  65.742
O  35.048  50.519  40.025
O  52.750  42.933  50.006
O  46.093  50.108  34.373
O  66.415  35.721  51.412
O  23.375  41.010  44.982
O  29.507  53.364  43.896
O  27.750  50.660  65.426
O  69.808  30.473  45.802
O  36.429  33.155  65.910
O  34.429  52.873  46.177
O  61.240  55.032  60.130
O  75.481  46.422  47.680
O  54.439  58.007  60.985
O  47.993  38.997  38.426
O  36.294  32.595  61.631
O  22.157  47.377  57.264
O  23.611  50.111  56.377
O  60.034  29.337  52.198
O  27.965  43.236  48.575
O  64.566  43.410  49.497
O  41.246  23.033  47.711
O  50.799  39.299  35.778
O  54.623  64.399  45.168
O  49.689  24.439  62.513
O  74.920  38.244  45.430
O  61.476  69.684  39.333
O  68.213  38.412  55.037
O  67.748  51.590  53.770
O  62.144  34.877  65.059
O  29.763  56.724  68.135
O  55.732  66.660  47.304
O  47.092  71.031  63.448
O  61.840  44.229  70.125
O  34.183  35.281  49.481
O  46.937  54.224  35.624
O  50.441  32.213  56.945
O  40.693  60.462  63.265
O  40.223  56.431  62.282
O  48.284  52.635  32.845
O  67.420  33.775  65.357
O  45.905  77.321  42.592
O  69.993  57.321  61.868
O  51.246  29.869  33.733
O  29.329  49.489  45.229
O  30.992  59.403  51.271
O  45.514  56.469  48.873
O  26.766  48.725  43.974
O  41.233  46.201  26.168
O  37.791  33.027  39.071
O  57.254  55.261  38.114
O  23.261  49.815  48.786
O  70.652  47.366  69.378
O  61.830  53.833  48.609
O  75.809  45.697  54.784
O  54.484  34.519  47.405
O  50.440  68.678  61.581
O  45.413  24.120  58.796
O  43.913  72.125  41.854
O  32.641  53.561  36.174
O  45.530  35.982  50.509
O  65.962  52.903  66.382
O  71.883  38.425  62.399
O  52.881  30.444  61.370
O  33.652  45.554  38.674
O  56.628  34.352  62.833
O  33.088  46.924  62.018
O  74.343  54.542  63.539
O  70.282  61.038  43.767
O  62.400  59.813  62.827
O  72.032  49.777  41.256
O  40.745  45.274  41.861
O  47.325  39.232  63.323
O  46.102  34.422  36.235
O  63.452  46.130  63.823
O  47.768  49.659  26.936
O  41.701  76.938  48.829
O  45.651  59.162  41.232
O  48.596  65.856  62.251
O  57.013  77.243  46.130
O  37.573  35.371  59.993
O  54.555  48.350  75.914
O  34.386  67.193  46.759
O  44.667  66.548  67.234
O  57.964  36.121  28.283
O  59.522  54.615  67.651
O  58.159  55.726  75.916
O  61.559  43.866  64.658
O  45.003  72.944  43.946
O  32.186  51.242  42.573
O  38.018  59.025  66.915
O  46.747  54.524  27.168
O  53.640  53.417  63.081
O  56.854  46.334  62.264
O  63.779  55.355  37.801
O  74.726  40.865  57.324
O  43.623  35.204  53.093
O  53.185  49.534  64.315
O  62.371  41.499  42.473
O  41.753  73.072  39.860
O  51.195  59.335  62.296
O  64.184  47.755  50.988
O  50.571  37.172  41.618
O  46.493  73.531  50.606
O  46.760  48.099  66.070
O  51.175  66.801  48.383
O  38.400  63.307  46.205
O  52.574  49.217  28.083
O  61.755  63.433  30.003
O  56.228  60.141  49.073
O  46.987  23.833  42.979
O  57.069  70.108  59.185
O  57.853  42.631  36.982
O  45.297  39.246  26.087
O  44.436  62.741  34.599
O  60.845  67.536  60.908
O  53.001  50.090  77.204
O  41.479  36.287  46.753
O  42.196  26.301  42.476
O  42.338  46.043  28.267
O  42.961  50.007  33.646
O  55.198  36.947  57.152
O  54.015  35.900  53.202
O  44.971  53.180  62.800
O  65.437  66.662  51.454
O  63.310  47.871  39.267
O  78.256  47.616  46.738
O  48.304  77.755  46.107
O  35.505  67.075  51.205
O  59.653  39.338  41.168
O  52.532  41.297  73.411
O  30.765  61.360  39.090
O  59.583  64.836  41.548
O  57.848  48.556  72.045
O  61.780  51.288  39.229
O  49.254  31.881  40.986
O  49.806  33.213  62.011
O  58.012  28.691  46.318
O  74.049  56.967  60.123
O  25.512  60.987  57.652
O  62.385  65.656  45.633
O  30.836  35.349  54.345
O  69.481  41.701  62.414
O  25.464  63.535  50.172
O  53.227  72.844  52.663
O  59.422  46.648  54.215
O  34.413  30.786  42.538
O  40.620  37.520  30.974
O  71.210  62.817  44.919
O  42.361  69.555  51.304
O  53.532  61.001  51.890
O  30.529  34.408  46.402
O  27.919  63.360  51.711
O  56.384  50.713  66.143
O  65.496  62.514  35.028
O  53.648  74.968  46.698
O  44.918  53.707  74.835
O  60.781  47.791  26.643
O  37.479  54.664  60.323
O  71.744  44.326  58.463
O  67.853  53.219  47.748
O  66.642  68.984  52.915
O  57.868  60.477  57.374
O  41.088  65.572  31.412
O  53.647  52.476  73.692
O  34.175  30.669  49.563
O  35.340  50.513  60.921
O  46.267  24.718  52.907
O  44.803  30.037  31.172
O  59.036  39.323  57.049
O  36.382  37.061  29.141
O  52.884  52.585  28.758
O  54.322  75.373  50.975
O  47.526  24.994  61.071
O  69.706  60.393  49.484
O  52.014  63.503  48.437
O  48.854  46.941  28.190
O  43.958  71.654  52.389
O  73.870  53.827  55.872
O  71.182  47.901  54.004
O  27.295  33.061  53.935
O  31.317  60.571  36.517
O  60.562  60.781  65.381
O  46.541  29.369  53.211
O  34.215  46.956  52.863
O  55.212  24.715  45.211
O  54.563  71.522  31.551
O  23.362  40.095  52.496
O  36.560  28.218  45.813
O  36.384  50.495  63.756
O  58.773  66.452  62.903
O  32.397  41.177  47.392
O  69.116  41.815  65.783
O  52.760  26.907  50.303
O  38.947  39.689  68.438
O  60.415  57.555  43.793
O  55.577  31.174  48.005
O  34.460  52.806  40.133
O  42.145  66.551  46.929
O  67.700  48.579  55.736
O  60.240  38.608  70.555
O  54.967  38.213  54.808
O  65.945  30.597  49.288
O  77.740  52.352  50.690
O  38.103  50.941  24.477
O  30.041  68.423  54.440
O  67.057  43.575  29.231
O  40.684  60.947  52.078
O  62.882  73.054  50.216
O  49.572  58.571  52.485
O  32.801  29.462  55.914
O  68.389  35.963  39.499
O  61.685  28.222  44.853
O  46.339  41.836  25.385
O  75.709  45.671  60.875
O  32.797  48.779  45.119
O  48.231  24.862  57.899
O  40.994  29.066  45.844
O  54.753  58.186  27.923
O  44.044  75.094  41.270
O  34.037  28.325  40.077
O  38.193  65.739  50.985
O  33.352  70.352  46.707
O  59.592  30.683  50.247
O  72.214  37.538  38.145
O  27.983  60.910  39.081
O  62.221  51.380  64.491
O  56.846  34.887  65.445
O  72.151  41.217  54.242
O  49.108  46.522  74.573
O  34.258  33.082  47.966
O  41.933  55.569  42.033
O  58.452  45.335  30.017
O  63.860  26.827  44.266
O  42.753  44.263  52.889
O  60.257  76.043  46.638
O  39.613  45.106  73.871
O  33.813  61.316  38.546
O  44.149  41.092  53.066
O  39.745  67.204  59.875
O  31.762  65.823  54.494
O  72.577  34.152  46.704
O  39.384  58.830  32.358
O  65.161  50.700  64.285
O  37.868  56.538  47.519
O  56.095  58.369  44.432
O  52.403  35.823  68.420
O  50.588  56.888  63.865
O  50.196  27.327  36.280
O  64.876  74.312  47.657
O  26.425  39.607  43.422
O  47.213  54.536  39.920
O  64.776  61.474  47.350
O  48.699  36.072  67.873
O  56.978  77.539  49.443
O  56.980  60.562  66.722
O  58.433  41.558  42.132
O  42.317  63.039  71.100
O  44.458  39.212  63.340
O  62.576  54.624  34.954
O  26.238  57.451  38.097
O  71.010  45.990  37.311
O  71.716  54.041  53.220
O  43.098  70.179  40.638
O  60.681  62.234  35.964
O  60.579  36.578  72.624
O  59.190  61.601  68.073
O  47.190  36.503  59.694
O  53.409  41.605  65.612
O  27.712  62.050  61.200
O  52.111  74.633  39.413
O  64.197  69.974  56.520
O  55.217  32.108  61.654
O  69.997  63.097  63.520
O  62.793  52.811  25.956
O  50.207  38.747  61.368
O  59.646  45.389  73.289
O  63.318  29.346  46.853
O  49.175  50.309  60.497
O  24.393  54.788  47.941
O  40.941  70.148  38.419
O  62.556  30.463  49.454
O  39.041  60.128  74.755
O  63.657  43.582  35.383
O  42.748  49.192  40.915
O  39.919  52.882  75.824
O  31.836  68.919  61.952
O  61.855  32.080  61.164
O  32.348  53.351  60.963
O  42.894  28.720  55.491
O  31.402  56.116  42.228
O  62.815  63.943  71.465
O  28.023  38.056  41.813
O  33.772  48.913  30.017
O  64.854  34.357  36.519
O  28.725  51.542  51.370
O  66.069  35.967  32.269
O  27.619  57.482  65.711
O  36.147  57.812  33.004
O  58.890  30.107  43.389
O  47.598  63.397  59.953
O  41.402  71.381  42.679
O  27.336  49.038  38.493
O  42.393  58.967  26.879
O  66.859  50.423  62.748
O  51.173  64.468  34.860
O  28.442  40.010  49.477
O  55.367  32.471  39.807
O  36.888  30.501  59.723
O  45.127  59.032  38.774
O  29.980  63.965  43.940
O  65.856  69.461  50.672
O  66.557  54.011  37.145
O  56.106  64.102  38.940
O  44.393  40.428  39.713
O  40.273  46.599  66.324
O  45.961  66.170  60.436
O  41.392  33.647  61.331
O  28.560  44.612  46.296
O  68.226  39.876  60.060
O  43.419  55.696  69.244
O  31.856  42.075  51.344
O  72.435  67.383  52.604
O  51.779  48.306  33.325
O  44.725  22.778  53.810
O  64.514  30.735  44.941
O  26.614  57.166  35.826
O  41.978  44.981  57.240
O  44.072  43.093  77.072
O  62.953  37.861  62.205
O  62.076  57.695  71.164
O  59.828  46.770  58.799
O  51.268  71.498  57.668
O  46.755  23.549  48.196
O  66.352  60.679  45.215
O  30.034  48.849  33.101
O  25.997  58.045  40.661
O  73.042  60.866  61.175
O  70.851  34.655  48.904
O  43.320  77.590  50.488
O  48.117  25.256  44.478
O  27.638  63.760  58.977
O  44.133  45.460  23.235
O  63.386  67.575  46.992
O  64.992  64.305  43.019
O  28.423  58.855  61.079
O  42.619  38.214  59.242
O  46.689  74.321  41.093
O  27.284  56.445  55.170
O  46.779  54.865  62.718
O  48.071  49.520  54.977
O  58.458  57.823  67.425
O  63.799  61.686  60.141
O  51.920  51.411  55.176
O  49.142  45.685  46.808
O  53.279  46.824  47.234
O  53.909  51.883  51.516
O  48.823  49.078  45.427
O  50.216  53.991  53.223
O  49.254  50.835  51.332
O  30.590  45.459  35.718
O  66.249  46.975  28.373
O  26.624  44.223  51.627
O  27.145  58.618  57.399
O  50.711  49.703  48.531
O  36.412  51.197  35.023
O  55.509  43.993  61.837
O  60.472  60.793  70.111
O  55.520  32.106  58.908
O  41.826  55.084  74.448
O  48.053  45.832  64.371
O  42.510  34.876  41.406
O  47.378  65.309  52.582
O  44.179  77.301  57.101
O  61.055  53.363  73.103
O  27.731  64.779  49.334
O  38.569  46.105  42.768
O  56.577  44.769  28.000
O  36.136  34.562  47.346
O  25.965  45.265  48.006
O  46.365  51.887  31.225
O  35.048  50.161  51.206
O  42.266  26.589  47.441
O  66.287  34.312  54.995
O  48.980  76.995  48.253
O  57.526  42.685  46.122
O  61.736  31.715  45.473
O  62.565  65.073  62.742
O  35.702  48.472  33.032
O  58.499  76.392  53.345
O  57.254  30.703  62.964
O  68.596  61.266  46.516
O  48.450  43.376  70.428
O  54.157  73.048  36.812
O  62.103  55.702  69.216
O  76.865  52.572  39.802
O  57.528  27.141  41.071
O  49.000  70.450  51.073
O  48.398  63.489  69.294
O  36.721  60.612  55.973
O  59.893  50.761  47.076
O  62.792  59.443  42.334
O  76.748  47.577  41.912
O  43.408  43.698  58.616
O  50.363  29.032  50.361
O  62.466  68.359  31.933
O  52.593  52.897  32.344
O  49.820  63.240  39.055
O  52.726  59.910  41.398
O  42.447  24.102  45.125
O  45.144  50.770  61.744
O  52.099  33.944  60.395
O  47.881  39.227  23.919
O  58.574  46.413  37.227
O  45.979  47.671  70.455
O  33.876  50.518  36.966
O  28.026  35.135  40.592
O  67.228  29.595  40.695
O  42.089  69.075  31.659
O  65.362  57.609  31.010
O  51.981  58.911  29.040
O  63.544  52.400  73.384
O  56.162  58.177  58.527
O  72.487  59.341  48.653
O  51.489  74.047  41.806
O  67.347  50.880  30.696
O  65.866  64.716  46.947
O  75.362  45.410  43.868
O  44.248  31.151  68.265
O  34.164  51.629  34.059
O  40.637  48.907  58.153
O  59.286  50.403  42.692
O  60.880  46.332  45.236
O  56.713  36.236  54.544
O  49.346  63.781  50.652
O  38.949  49.011  28.384
O  50.911  64.352  27.117
O  37.884  29.867  35.021
O  69.539  60.801  55.854
O  39.218  66.013  38.565
O  67.623  32.755  44.669
O  75.248  42.700  45.427
O  67.201  35.483  61.332
O  56.841  40.634  47.137
O  61.193  41.496  53.096
O  41.801  53.037  34.762
O  64.185  55.747  26.608
O  68.608  70.206  44.309
O  69.123  63.662  50.746
O  47.904  47.856  25.360
O  46.347  78.546  52.062
O  37.787  49.247  54.850
O  34.634  36.167  42.461
O  55.993  67.332  59.689
O  53.927  44.780  70.759
O  60.264  52.805  42.042
O  60.236  32.273  39.741
O  49.681  78.275  52.167
O  43.089  69.085  36.618
O  33.946  44.565  49.074
O  43.732  46.655  63.062
O  37.757  43.926  44.871
O  68.346  69.199  58.640
O  61.571  40.118  58.650
O  49.212  25.017  48.265
O  55.589  73.153  34.760
O  70.250  65.831  56.326
O  61.265  42.606  60.328
O  72.939  61.369  45.994
O  59.603  52.881  39.805
O  43.436  54.510  38.349
O  52.727  62.404  39.104
O  58.580  48.828  49.102
O  38.535  43.865  32.662
O  34.085  65.026  52.711
O  58.983  48.315  76.712
O  44.764  35.876  65.712
O  57.696  61.037  61.824
O  36.233  49.045  35.967
O  37.193  54.712  67.557
O  44.896  76.030  53.219
O  47.988  60.846  42.756
O  31.725  59.786  54.712
O  22.400  48.357  46.583
O  46.644  68.847  52.428
O  26.196  53.804  50.529
O  55.716  36.647  61.764
O  33.229  36.747  39.663
O  44.283  33.842  30.925
O  47.805  65.629  47.502
O  35.969  40.787  63.729
O  55.445  60.614  43.888
O  52.449  67.475  38.594
O  54.892  29.219  37.488
O  48.998  49.471  73.495
O  45.915  34.524  40.462
O  58.136  55.783  52.152
O  27.700  41.322  57.591
O  57.915  71.760  37.407
O  45.076  55.100  64.394
O  49.162  61.042  69.868
O  64.043  55.792  48.868
O  45.152  35.393  56.960
O  62.434  38.081  65.074
O  30.826  45.263  41.627
O  55.599  28.529  49.682
O  31.302  34.600  56.618
O  53.470  47.731  59.198
O  38.211  45.203  46.696
O  53.954  38.353  59.968
O  33.057  35.134  64.610
O  45.598  57.898  45.411
O  41.851  39.445  30.139
O  63.564  66.846  42.064
O  66.343  45.905  66.400
O  59.415  46.807  42.031
O  38.191  43.039  54.945
O  55.035  70.205  57.136
O  30.951  53.205  40.879
O  47.820  36.236  36.152
O  50.494  60.770  60.484
O  36.888  28.974  39.235
O  35.068  57.198  28.248
O  58.324  54.095  48.948
O  66.447  35.407  49.073
O  36.654  47.696  50.524
O  37.982  59.887  42.654
O  55.442  46.943  60.079
O  67.017  59.063  48.537
O  45.996  33.497  68.862
O  54.948  31.352  31.663
O  45.482  27.526  42.129
O  37.543  45.550  52.797
O  65.428  51.230  71.391
O  41.849  29.125  32.013
O  64.542  30.120  51.238
O  29.250  46.590  38.506
O  51.646  68.268  59.323
O  34.726  62.615  67.072
O  35.052  36.654  57.010
O  41.134  62.884  68.444
O  55.531  41.687  27.050
O  50.995  27.432  57.660
O  50.109  65.883  36.555
O  32.657  70.768  53.151
O  46.135  57.270  32.365
O  25.798  44.319  43.517
O  48.619  38.686  57.416
O  60.428  58.494  47.958
O  63.234  53.315  68.291
O  45.871  40.347  61.534
O  70.633  60.193  37.283
O  47.035  45.182  25.772
O  48.307  49.338  69.076
O  46.347  38.523  41.156
O  65.853  31.074  35.637
O  72.573  53.244  33.780
O  27.720  63.286  54.487
O  26.125  66.373  50.043
O  26.129  65.531  53.710
O  69.801  41.090  54.138
O  57.796  47.154  66.851
O  29.241  62.423  35.397
O  58.145  49.485  31.135
O  50.129  46.276  31.899
O  53.659  46.976  33.735
O  59.484  32.646  51.589
O  40.835  46.553  71.063
O  73.756  52.458  50.232
O  52.983  23.906  49.171
O  64.127  39.659  31.793
O  63.845  62.115  44.889
O  40.728  49.812  63.063
O  40.120  53.061  26.604
O  37.670  39.727  27.149
O  35.476  61.185  34.085
O  65.562  59.296  64.551
O  46.386  47.705  49.040
O  33.014  56.424  30.745
O  51.384  33.041  28.405
O  39.395  45.436  29.699
O  37.988  49.108  67.107
O  71.686  66.046  40.789
O  71.309  40.305  64.495
O  71.303  39.717  56.830
O  30.596  46.579  48.694
O  37.354  49.577  61.656
O  61.074  32.938  68.553
O  47.874  51.705  39.000
O  55.276  30.654  43.769
O  56.953  33.823  50.321
O  45.678  46.129  73.361
O  68.900  57.469  53.083
O  71.739  56.569  48.567
O  39.786  52.298  62.826
O  38.316  58.491  36.887
O  31.739  47.716  66.948
O  31.847  32.493  46.883
O  38.787  72.784  48.232
O  45.461  72.026  49.321
O  59.036  65.787  58.370
O  44.288  43.057  60.928
O  53.627  66.877  65.318
O  36.518  71.490  40.476
O  54.299  59.594  71.777
O  36.326  31.644  57.648
O  65.509  48.405  35.592
O  58.541  37.603  67.072
O  60.837  74.403  40.656
O  46.850  48.413  73.051
O  45.019  57.814  65.762
O  53.596  39.248  48.110
O  26.241  37.044  59.979
O  35.784  45.404  31.815
O  55.707  41.323  62.997
O  37.191  45.330  27.111
O  50.168  65.281  32.567
O  43.681  60.880  63.101
O  53.523  38.541  45.504
O  30.949  70.350  47.163
O  62.905  50.147  25.632
O  44.058  66.558  62.812
O  35.886  42.165  43.101
O  46.591  64.278  64.221
O  61.837  51.582  54.789
O  38.874  36.842  38.441
O  47.268  67.395  30.960
O  43.609  53.193  64.714
O  64.154  52.325  52.796
O  58.397  44.378  55.738
O  73.051  63.767  43.030
O  46.929  49.359  21.695
O  53.598  34.354  37.630
O  55.209  29.257  61.870
O  59.262  33.623  30.497
O  57.235  45.285  59.183
O  52.382  27.005  63.254
O  37.698  56.653  40.480
O  46.730  41.154  28.039
O  43.072  65.946  44.529
O  48.964  76.547  60.736
O  49.384  46.452  23.497
O  45.675  52.256  27.800
O  56.996  69.858  51.148
O  40.559  56.142  56.523
O  70.204  60.697  61.785
O  26.628  52.456  55.366
O  39.696  29.141  61.987
O  30.129  62.261  55.035
O  52.176  42.891  61.949
O  53.994  33.575  63.824
O  41.238  52.042  41.671
O  63.268  46.935  70.656
O  52.114  26.041  34.091
O  40.891  70.101  67.323
O  37.047  31.586  33.483
O  43.891  51.943  72.855
O  61.439  51.270  49.091
O  40.092  40.723  33.756
O  41.642  51.656  66.897
O  57.576  62.247  45.606
O  47.192  28.085  66.256
O  66.172  51.412  42.594
O  35.911  50.200  56.889
O  57.693  23.282  53.092
O  58.051  60.288  47.210
O  42.055  67.154  29.480
O  60.735  60.634  31.612
O  41.005  43.108  47.523
O  32.484  45.184  45.870
O  61.245  44.728  26.708
O  61.642  42.849  39.707
O  29.167  42.009  35.248
O  41.147  54.972  53.905
O  47.958  30.806  69.010
O  68.557  62.492  42.941
O  53.664  38.164  67.303
O  31.749  38.867  38.923
O  41.950  63.084  34.158
O  50.006  77.728  54.678
O  62.987  61.969  56.481
O  65.180  47.057  46.323
O  33.937  41.078  66.348
O  44.483  36.254  46.113
O  28.050  58.045  51.114
O  50.915  71.741  47.111
O  27.839  50.880  34.889
O  32.407  38.648  47.665
O  37.839  70.073  54.699
O  69.365  42.038  49.243
O  47.555  29.642  44.787
O  65.047  40.585  34.791
O  69.556  38.427  49.630
O  64.134  35.507  33.564
O  62.258  47.116  67.801
O  42.044  61.824  43.200
O  53.245  69.408  32.861
O  60.272  33.614  56.392
O  49.456  60.931  26.036
O  58.688  39.075  60.415
O  41.981  33.873  39.341
O  57.440  37.526  70.277
O  73.194  56.059  53.540
O  50.575  53.079  74.364
O  60.217  71.809  39.247
O  55.303  24.166  60.204
O  64.498  51.842  33.811
O  41.873  32.105  51.556
O  37.274  50.693  53.122
O  48.323  43.525  28.507
O  49.955  69.603  45.119
O  66.865  57.518  45.351
O  44.845  51.636  69.118
O  40.606  27.378  64.363
O  57.120  58.841  72.245
O  41.478  52.666  56.217
O  53.959  30.116  64.246
O  35.299  64.738  36.848
O  54.545  51.979  70.251
O  33.128  39.812  69.969
O  30.213  62.768  64.210
O  30.910  51.026  60.644
O  45.860  63.213  61.690
O  76.683  48.018  50.159
O  48.435  60.037  37.351
O  41.836  55.710  63.793
O  52.485  64.859  52.747
O  57.582  42.915  50.614
O  48.325  21.719  49.237
O  46.673  52.703  24.928
O  65.668  39.930  45.927
O  37.405  64.446  70.779
O  28.643  56.212  38.991
O  44.667  67.098  42.121
O  29.309  39.672  37.987
O  44.240  25.462  35.875
O  39.977  61.549  70.556
O  62.640  36.903  52.618
O  71.053  54.017  50.979
O  31.007  48.193  29.146
O  61.188  72.628  42.539
O  64.320  43.581  40.132
O  68.477  53.572  52.779
O  57.092  30.160  60.666
O  58.788  56.875  59.642
O  46.562  63.955  55.058
O  55.043  62.943  73.354
O  62.793  60.373  46.225
O  47.853  63.818  36.879
O  56.604  27.236  45.164
O  55.170  26.914  52.312
O  38.816  46.439  48.519
O  47.720  42.604  57.495
O  29.828  57.634  52.665
O  64.709  34.912  43.953
O  41.687  30.632  60.987
O  42.573  40.625  34.222
O  47.007  38.636  31.731
O  59.694  49.769  39.550
O  43.386  62.899  25.844
O  59.561  66.045  50.183
O  36.342  63.278  50.175
O  67.232  58.399  62.247
O  65.291  30.090  62.971
O  28.717  36.289  46.576
O  51.383  44.878  23.003
O  55.246  26.100  64.664
O  52.247  49.199  35.823
O  46.194  40.405  33.329
O  41.973  73.231  56.513
O  45.516  37.020  70.988
O  27.504  37.827  39.493
O  57.611  53.775  23.624
O  58.646  46.393  64.358
O  67.119  49.419  44.745
O  67.067  39.782  48.915
O  51.755  56.609  61.230
O  33.519  44.731  56.299
O  69.503  31.469  58.198
O  46.076  44.186  40.476
O  46.392  67.538  39.835
O  38.813  52.743  57.633
O  48.698  45.166  76.430
O  30.711  49.249  42.821
O  60.959  59.766  44.488
O  26.008  55.122  40.197
O  35.249  29.089  56.845
O  49.660  29.989  58.462
O  50.760  35.445  65.648
O  49.155  52.098  26.011
O  75.152  50.791  56.371
O  56.951  40.309  49.909
O  57.743  34.147  53.607
O  67.569  63.475  65.445
O  32.645  38.003  53.428
O  31.394  42.316  56.542
O  45.572  31.339  64.079
O  70.012  49.498  62.395
O  59.477  68.965  31.630
O  34.861  72.427  55.642
O  40.527  69.169  35.065
O  66.328  46.777  48.383
O  47.023  63.388  71.982
O  35.338  55.031  31.019
O  58.402  64.319  69.652
O  69.827  42.627  69.639
O  33.794  47.166  47.416
O  73.835  36.100  44.589
O  61.791  55.792  45.973
O  40.365  52.806  48.426
O  64.141  40.618  39.325
O  74.668  38.420  40.968
O  49.884  37.026  33.530
O  60.989  45.433  23.719
O  75.014  38.167  53.554
O  70.367  41.273  47.200
O  69.696  64.095  39.521
O  49.814  75.332  54.560
O  46.920  52.431  76.819
O  65.482  38.963  56.313
O  73.106  56.038  37.222
O  38.952  53.999  40.929
O  45.706  26.147  47.806
O  63.389  41.106  54.455
O  54.523  37.407  49.606
O  61.213  38.047  45.818
O  28.551  37.406  64.140
O  33.137  46.719  29.524
O  56.973  38.672  30.574
O  38.407  32.868  54.369
O  57.021  55.035  44.207
O  49.073  54.339  36.624
O  59.619  64.399  29.458
O  41.904  43.467  39.987
O  30.719  55.774  29.429
O  41.953  42.124  66.768
O  71.989  52.003  39.050
O  41.930  47.473  35.779
O  41.119  76.028  56.049
O  54.211  54.979  43.065
O  44.821  43.626  32.620
O  33.376  60.594  52.766
O  38.777  56.660  44.762
O  37.985  57.183  62.012
O  66.209  41.060  58.758
O  62.854  36.685  27.860
O  30.217  48.050  61.616
O  36.839  47.612  47.871
O  52.110  35.952  34.780
O  38.191  65.432  32.934
O  72.694  51.384  52.964
O  40.501  68.591  45.994
O  46.253  37.971  55.301
O  33.187  27.636  43.214
O  40.092  36.840  33.646
O  55.689  39.034  42.208
O  45.547  42.964  54.850
O  67.588  37.311  48.433
O  45.200  38.280  66.435
O  40.370  50.859  27.634
O  55.847  60.059  56.166
O  35.600  48.951  42.228
O  39.238  47.138  34.953
O  71.342  58.421  44.589
O  49.184  66.567  29.854
O  59.276  32.551  63.309
O  59.406  55.070  42.732
O  73.801  48.102  35.846
O  24.455  57.144  57.351
O  48.053  50.598  36.005
O  39.253  63.372  36.565
O  31.896  51.588  30.446
O  31.205  67.090  60.716
O  47.487  26.407  51.059
O  54.138  34.329  35.412
O  42.631  53.503  70.985
O  28.990  45.544  52.347
O  32.687  63.911  62.347
O  71.569  44.251  35.454
O  56.251  63.734  58.875
O  41.798  34.539  56.339
O  73.345  65.495  56.755
O  58.340  70.780  46.052
O  54.885  59.986  67.857
O  47.640  38.837  73.803
O  59.425  57.462  41.473
O  61.097  58.954  57.001
O  36.165  47.913  57.170
O  53.639  54.928  36.973
O  68.698  54.619  29.409
O  37.663  39.467  51.331
O  38.962  38.513  36.027
O  40.735  50.212  68.506
O  37.590  38.779  63.689
O  62.074  43.912  37.596
O  61.627  61.402  54.431
O  69.673  46.670  34.671
O  47.527  49.772  77.265
O  40.482  46.948  63.046
O  40.787  37.194  69.171
O  43.266  61.331  31.970
O  46.760  55.325  70.061
O  66.420  67.525  57.113
O  35.393  34.237  58.344
O  71.535  55.490  64.274
O  36.664  67.609  41.372
O  29.968  50.034  55.628
O  49.917  34.981  58.190
O  43.667  63.124  63.540
O  67.457  70.244  60.449
O  57.147  67.572  68.062
O  73.885  46.855  49.552
O  63.546  41.188  46.711
O  32.816  39.941  49.579
O  55.207  42.130  23.321
O  47.753  71.317  68.651
O  46.431  21.706  45.726
O  48.514  67.834  37.368
O  60.832  54.225  28.665
O  43.004  57.317  50.223
O  62.026  26.853  49.752
O  65.814  46.917  43.006
O  69.970  38.552  46.467
O  50.559  26.510  44.827
O  33.328  49.145  41.333
O  40.551  39.143  59.982
O  47.440  69.775  41.154
O  66.019  49.335  32.218
O  50.338  31.846  38.329
O  42.393  51.734  47.770
O  64.731  61.147  39.255
O  53.920  72.671  41.642
O  40.164  45.097  54.485
O  57.036  72.785  59.529
O  37.730  73.591  59.473
O  40.322  48.281  23.522
O  37.695  70.478  44.698
O  72.931  36.747  54.370
O  49.751  27.985  47.378
O  61.709  48.459  48.043
O  53.990  29.495  54.755
O  33.724  57.476  36.036
O  71.555  42.017  41.669
O  37.726  40.295  34.997
O  62.698  56.686  39.422
O  51.642  43.424  71.236
O  51.807  45.650  25.769
O  66.602  43.975  42.383
O  65.255  55.068  32.032
O  40.024  61.017  33.694
O  43.950  64.883  61.095
O  63.777  64.355  40.417
O  64.614  31.397  60.663
O  46.761  50.064  71.351
O  61.035  40.554  73.528
O  44.145  68.382  39.441
O  39.890  28.030  42.519
O  38.357  70.215  48.232
O  65.258  67.846  39.822
O  32.086  40.891  43.559
O  56.047  56.909  74.986
O  28.285  36.538  56.805
O  31.677  61.266  66.661
O  39.374  48.926  72.789
O  39.796  71.238  61.218
O  61.937  41.806  56.643
O  64.258  45.195  42.555
O  63.036  26.381  46.741
O  53.023  35.457  62.744
O  57.653  35.173  56.609
O  56.884  54.858  68.313
O  48.680  60.732  73.188
O  42.130  34.845  48.646
O  32.021  59.037  39.056
O  57.394  50.902  72.072
O  38.635  57.469  57.227
O  34.437  31.570  59.754
O  33.806  56.819  46.117
O  39.889  36.730  64.837
O  51.705  23.122  55.902
O  45.079  66.057  70.422
O  48.261  51.415  67.619
O  44.928  69.394  49.999
O  39.548  34.664  58.769
O  52.187  25.216  58.946
O  44.498  32.016  38.259
O  51.371  38.643  57.089
O  24.858  62.187  53.688
O  70.365  65.812  48.922
O  67.267  36.913  44.995
O  27.033  56.019  62.607
O  36.082  41.215  68.212
O  48.582  41.901  23.239
O  66.276  39.056  38.060
O  46.051  68.411  64.572
O  51.692  59.205  57.719
O  62.810  61.881  41.094
O  68.345  48.067  68.247
O  63.399  63.357  46.828
O  65.780  38.182  34.539
O  38.232  28.932  37.102
O  36.259  36.619  49.467
O  62.095  31.905  51.569
O  61.891  75.610  52.644
O  46.119  61.592  35.771
O  52.835  63.136  63.650
O  44.062  70.784  47.136
O  50.523  72.595  35.707
O  66.046  41.198  61.393
O  35.487  64.509  62.433
O  65.881  53.460  30.001
O  52.249  43.958  64.216
O  51.180  26.658  41.961
O  64.846  52.139  55.150
O  32.701  37.143  58.661
O  67.189  43.576  62.121
O  66.426  42.591  45.034
O  49.152  68.130  50.575
O  65.744  54.392  48.144
O  59.128  60.691  52.615
O  50.478  51.183  36.605
O  39.952  54.052  60.533
O  59.078  42.261  54.174
O  29.261  57.336  47.759
O  65.521  52.675  44.613
O  25.040  46.844  39.640
O  44.838  52.125  39.135
O  36.395  39.739  33.220
O  31.428  51.355  36.642
O  50.478  25.720  52.179
O  54.224  40.378  53.394
O  72.767  38.731  44.311
O  68.842  50.789  45.610
O  62.644  28.240  52.416
O  28.043  51.120  54.013
O  61.457  44.768  48.202
O  37.342  43.290  36.625
O  64.931  62.347  66.909
O  76.547  40.543  43.801
O  44.940  72.049  63.880
O  58.396  75.540  50.238
O  44.430  61.706  54.348
O  35.973  33.076  43.309
O  68.614  46.870  47.904
O  55.784  60.627  40.328
O  34.645  35.412  53.990
O  53.793  22.381  44.670
O  63.130  43.132  58.607
O  64.930  40.909  70.967
O  36.085  52.297  37.828
O  63.141  49.175  57.105
O  45.228  45.172  57.603
O  39.376  60.330  55.972
O  55.174  25.421  42.766
O  51.880  36.481  56.151
O  41.359  64.827  58.196
O  57.026  33.501  31.865
O  31.618  39.949  31.333
O  54.082  29.610  51.967
O  56.187  27.557  59.507
O  43.884  67.971  71.469
O  48.822  45.110  36.590
O  26.283  62.567  46.279
O  58.443  23.371  50.233
O  36.074  66.330  35.201
O  39.229  72.096  57.692
O  25.115  49.190  37.161
O  36.889  36.468  71.477
O  24.976  60.281  44.803
O  47.795  65.482  32.417
O  70.992  53.453  60.162
O  37.584  63.390  67.696
O  41.642  47.039  74.745
O  60.857  45.828  66.320
O  62.910  31.680  54.165
O  26.368  48.134  66.410
O  34.102  71.075  39.654
O  53.852  28.104  34.514
O  75.158  56.869  38.098
O  33.438  28.097  53.844
O  67.292  31.443  55.443
O  44.621  45.709  69.196
O  68.928  44.116  41.921
O  50.109  71.054  62.897
O  39.802  36.790  72.695
O  62.076  61.935  28.070
O  64.408  56.928  66.891
O  73.923  61.727  48.074
O  72.233  46.245  42.655
O  45.803  53.863  60.660
O  37.757  60.277  59.146
O  52.055  39.379  30.208
O  55.942  56.601  25.717
O  42.485  44.706  31.816
O  58.327  68.853  61.619
O  39.766  33.039  48.837
O  57.779  65.849  55.629
O  65.923  61.968  43.285
O  69.753  33.435  53.289
O  32.848  52.016  52.387
O  44.804  60.512  60.760
O  65.975  35.284  38.342
O  45.659  62.425  44.640
O  29.769  46.054  56.673
O  67.794  68.676  45.778
O  56.807  66.032  70.449
O  44.177  66.278  55.735
O  58.960  40.672  62.421
O  53.798  28.187  57.168
O  47.309  56.682  66.579
O  63.085  48.913  72.293
O  77.433  45.167  48.210
O  67.893  36.898  68.453
O  59.282  59.527  71.613
O  57.977  62.757  72.820
O  24.325  60.732  42.286
O  42.985  62.214  36.732
O  57.493  39.365  44.823
O  72.427  52.357  63.941
O  43.806  59.830  48.498
O  46.933  63.793  30.490
O  69.042  44.600  57.218
O  35.752  40.685  50.863
O  39.900  60.204  68.310
O  59.527  47.550  70.035
O  31.502  44.809  29.279
O  38.894  37.520  26.442
O  56.514  29.913  53.873
O  42.377  74.376  51.355
O  29.150  42.044  40.581
O  36.191  68.167  47.914
O  55.795  70.438  43.088
O  70.931  59.170  53.703
O  51.579  36.826  28.314
O  59.559  53.404  75.430
O  25.852  57.849  47.833
O  33.487  56.900  48.622
O  36.787  31.272  41.030
O  31.946  67.309  45.957
O  52.732  68.814  43.283
O  36.878  27.514  57.845
O  38.086  51.284  27.882
O  64.626  70.131  53.393
O  38.041  53.941  32.849
O  57.648  64.505  48.083
O  32.175  34.851  40.515
O  59.059  65.616  65.126
O  37.507  63.708  63.207
O  48.937  50.372  40.772
O  67.417  64.687  62.122
O  48.985  75.829  43.478
O  70.537  50.061  31.016
O  54.935  66.245  56.160
O  61.400  58.078  26.933
O  41.808  65.041  38.892
O  46.821  61.447  46.885
O  36.635  56.430  65.254
O  65.719  61.290  58.881
O  35.306  54.457  35.556
O  56.082  50.313  69.889
O  47.898  60.971  61.126
O  54.194  71.726  44.890
O  40.608  44.510  37.499
O  42.519  66.305  68.905
O  41.542  35.053  29.978
O  62.510  37.279  37.766
O  42.565  54.308  57.950
O  62.239  60.758  71.656
O  27.433  57.182  42.614
O  70.190  47.650  29.792
O  59.436  45.027  61.578
O  54.942  32.044  51.889
O  51.228  52.412  70.553
O  58.561  52.528  28.232
O  50.022  26.611  50.090
O  57.282  73.398  62.754
O  63.320  59.945  67.875
O  60.738  26.408  60.445
O  60.029  23.876  45.348
O  41.927  55.772  32.384
O  50.298  37.320  38.282
O  69.267  43.899  67.430
O  45.422  75.386  45.814
O  54.589  43.596  28.483
O  62.795  52.352  46.163
O  34.395  57.690  42.094
O  38.762  48.356  45.348
O  36.522  26.919  49.265
O  39.704  51.033  46.699
O  30.160  49.376  53.319
O  51.853  28.984  46.785
O  49.027  39.205  42.226
O  34.779  41.605  60.600
O  32.465  60.614  30.018
O  69.335  41.921  58.595
O  48.705  61.074  40.338
O  59.852  66.898  53.999
O  50.090  37.710  31.108
O  34.725  43.475  26.412
O  54.552  65.378  49.176
O  29.747  43.319  53.914
O  39.889  55.294  47.048
O  26.494  39.501  61.279
O  50.511  21.845  51.271
O  46.766  72.500  55.941
O  37.195  33.994  50.007
O  36.693  48.852  30.060
O  51.332  53.259  23.978
O  50.407  60.496  41.933
O  49.410  23.457  53.407
O  58.724  58.309  25.554
O  43.281  49.319  65.999
O  33.593  60.490  32.166
O  41.251  25.536  53.971
O  66.099  43.752  53.480
O  25.227  53.806  62.833
O  73.655  44.476  54.015
O  53.387  65.608  36.107
O  51.559  51.159  22.512
O  48.141  65.590  49.701
O  60.938  67.138  67.724
O  32.784  67.912  58.419
O  34.922  47.220  55.362
O  45.153  45.193  77.493
O  34.546  28.502  47.579
O  50.284  29.566  63.061
O  53.631  56.026  24.444
O  53.206  41.825  24.886
O  37.103  37.578  69.407
O  43.296  37.866  53.813
O  70.414  48.813  66.627
O  50.574  46.274  64.941
O  57.327  71.048  68.337
O  61.124  35.498  70.281
O  59.593  70.092  37.538
O  59.285  51.245  58.674
O  33.586  46.782  43.611
O  39.652  72.373  53.951
O  59.197  61.001  29.070
O  36.988  46.796  44.385
O  27.178  44.941  40.141
O  53.198  61.558  27.842
O  30.187  50.945  34.617
O  22.437  54.590  46.369
O  33.417  42.969  54.545
O  55.731  41.850  36.113
O  60.222  31.590  47.234
O  66.716  44.057  59.083
O  29.186  55.513  42.483
O  74.293  42.515  49.215
O  47.327  35.253  55.782
O  59.146  49.541  52.359
O  56.859  71.932  56.803
O  29.638  52.220  65.637
O  31.818  55.300  47.975
O  41.654  65.369  60.427
O  31.719  47.509  40.828
O  47.728  59.700  44.829
O  59.622  44.425  49.919
O  61.963  50.656  59.529
O  39.268  63.400  48.715
O  65.292  50.366  26.166
O  55.039  31.817  55.372
O  58.717  50.297  26.376
O  42.702  66.804  51.555
O  74.767  41.467  51.638
O  31.385  39.242  36.542
O  39.377  58.066  42.339
O  72.987  56.453  62.719
O  35.555  72.067  57.937
O  61.703  59.257  29.073
O  34.087  32.304  35.863
O  61.836  63.019  59.718
O  66.111  31.050  42.241
O  41.467  50.779  31.018
O  61.234  67.383  63.616
O  25.918  42.914  64.131
O  32.187  53.523  45.483
O  36.473  53.970  73.915
O  33.940  62.417  48.555
O  57.308  30.767  33.853
O  45.707  27.634  55.383
O  32.901  48.549  33.616
O  52.342  67.562  35.413
O  39.553  27.756  48.113
O  57.698  51.732  33.932
O  32.050  65.520  43.181
O  42.479  57.299  53.947
O  67.871  40.357  36.179
O  64.996  55.127  54.128
O  29.972  43.419  31.101
O  62.277  49.496  69.420
O  50.415  59.849  32.748
O  45.557  29.312  37.744
O  50.358  40.474  38.268
O  39.624  39.571  56.349
O  39.651  63.438  60.680
O  47.862  28.094  61.288
O  52.647  30.428  56.485
O  63.260  56.842  29.456
O  61.375  64.982  39.066
O  40.708  34.039  46.909
O  60.617  39.000  52.725
O  61.953  55.117  25.091
O  62.264  63.870  49.281
O  33.528  55.893  43.449
O  41.887  39.832  54.860
O  34.661  42.477  47.107
O  63.208  49.032  63.191
O  55.279  69.906  61.530
O  60.433  51.653  51.854
O  43.509  31.424  62.907
O  65.237  43.940  46.591
O  45.743  48.512  31.945
O  41.400  59.915  45.346
O  39.650  51.137  52.774
O  29.221  61.215  49.927
O  44.063  24.826  43.605
O  37.574  46.909  31.983
O  50.785  40.543  51.656
O  54.716  50.081  37.244
O  31.745  36.683  67.602
O  68.408  57.275  37.345
O  42.645  28.922  37.577
O  42.512  34.962  32.517
O  56.494  66.797  36.605
O  51.401  41.066  23.352
O  36.999  71.157  36.166
O  72.711  40.458  37.452
O  40.373  65.527  28.333
O  30.169  64.251  49.922
O  24.426  52.119  58.113
O  58.126  71.844  33.123
O  62.006  56.912  63.287
O  62.762  29.331  54.991
O  42.328  26.668  57.831
O  47.344  54.108  66.304
O  40.863  56.221  58.855
O  67.742  46.969  58.790
O  62.369  69.962  37.114
O  41.936  71.845  45.231
O  47.078  60.233  27.991
O  56.010  59.682  62.999
O  44.265  24.984  38.435
O  69.933  57.538  41.014
O  33.798  45.448  71.959
O  58.146  51.774  74.511
O  48.989  71.823  41.077
O  39.506  44.407  34.861
O  42.564  60.674  40.719
O  39.186  67.705  44.222
O  60.320  48.353  64.747
O  32.616  46.100  34.718
O  49.716  32.973  36.300
O  62.614  75.273  45.874
O  52.335  61.132  68.725
O  43.783  73.967  38.912
O  62.799  58.014  44.393
O  69.453  35.394  54.544
O  64.708  51.024  61.037
O  41.029  44.282  67.324
O  38.806  41.970  52.525
O  57.580  66.401  42.606
O  52.399  36.979  65.211
O  51.028  49.638  71.177
O  26.818  60.026  54.408
O  31.731  50.326  50.550
O  29.191  43.407  62.639
O  50.511  34.200  69.451
O  31.759  65.225  35.267
O  51.776  59.616  43.649
O  37.532  56.037  29.939
O  35.593  49.557  66.737
O  72.151  52.322  56.924
O  38.092  54.313  27.399
O  55.380  40.451  69.108
O  43.409  31.755  44.187
O  63.151  64.237  36.162
O  45.037  54.038  36.798
O  70.944  50.643  59.733
O  60.217  42.926  62.546
O  56.891  25.392  37.276
O  41.456  67.482  37.073
O  58.104  54.503  60.784
O  63.485  36.477  59.754
O  44.233  27.863  45.249
O  65.695  56.131  29.136
O  39.414  31.649  33.105
O  43.871  59.358  44.765
O  49.356  58.576  25.970
O  56.529  45.801  74.457
O  68.147  62.726  34.020
O  50.854  32.322  67.936
O  25.808  52.090  64.410
O  41.608  68.764  43.783
O  34.650  36.046  33.546
O  59.158  64.354  37.038
O  33.603  72.578  49.861
O  64.181  33.120  48.970
O  42.020  62.717  61.919
O  65.995  51.810  48.362
O  71.283  40.412  49.264
O  57.589  54.017  31.964
O  32.344  43.489  36.278
O  47.745  42.710  62.720
O  56.089  51.005  30.495
O  46.557  21.868  52.596
O  40.224  67.630  32.445
O  33.994  51.894  48.479
O  63.738  46.694  48.442
O  35.360  36.431  63.457
O  43.484  37.548  32.893
O  63.385  32.794  57.004
O  44.279  56.973  30.899
O  58.341  42.169  32.222
O  67.344  48.823  50.339
O  48.181  35.963  28.932
O  49.046  73.735  49.739
O  39.108  70.604  42.094
O  60.141  24.216  52.639
O  32.464  39.834  55.890
O  50.663  38.262  70.758
O  67.080  54.343  55.668
O  58.888  25.859  38.634
O  64.942  40.947  43.165
O  36.864  74.538  51.004
O  64.207  48.649  42.439
O  38.130  26.040  47.249
O  36.519  65.435  42.504
O  67.398  45.660  45.547
O  68.368  43.155  54.523
O  59.894  61.890  26.708
O  24.854  52.240  52.023
O  61.091  36.667  55.334
O  71.259  56.153  59.272
O  48.570  63.628  27.619
O  48.290  50.217  24.349
O  56.071  66.318  33.919
O  55.547  54.520  33.109
O  66.310  65.929  54.181
O  29.601  40.329  64.994
O  44.352  25.924  53.420
O  46.972  28.615  48.729
O  64.833  28.394  58.976
O  74.838  41.863  41.841
O  61.893  49.012  33.944
O  54.524  42.978  67.823
O  42.146  30.789  30.370
O  68.984  51.406  66.460
O  48.919  74.663  45.785
O  69.788  48.466  46.007
O  47.419  45.263  53.916
O  30.231  50.386  57.921
O  50.392  29.024  39.514
O  47.737  27.359  63.912
O  41.506  38.632  48.594
O  55.067  30.062  34.032
O  34.333  51.119  28.454
O  55.727  53.275  41.342
O  37.602  51.633  71.492
O  44.325  31.573  52.498
O  62.876  59.286  50.483
O  37.078  69.447  33.305
O  37.460  38.598  54.256
O  54.145  49.312  31.486
O  43.164  63.677  30.889
O  59.917  64.588  44.043
O  59.541  53.549  70.472
O  55.050  53.175  37.551
O  33.676  67.465  34.198
O  50.974  28.411  43.566
O  41.817  69.620  59.620
O  69.023  44.124  31.601
O  69.034  34.284  57.504
O  61.932  45.304  59.185
O  54.433  56.750  39.844
O  41.434  32.393  57.665
O  43.189  35.477  71.594
O  40.443  62.894  63.665
O  59.387  49.103  23.273
O  40.458  71.044  32.731
O  48.256  54.679  60.150
O  46.790  61.298  68.321
O  21.955  43.697  52.204
O  48.093  32.533  34.096
O  70.066  31.703  41.894
O  40.857  39.469  66.715
O  45.317  43.447  68.478
O  64.263  71.431  37.672
O  63.211  58.134  58.499
O  46.410  36.743  32.996
O  34.959  69.171  43.216
O  61.586  64.691  56.708
O  27.265  63.303  40.097
O  28.097  60.534  48.003
O  31.241  45.372  62.345
O  51.633  31.136  47.592
O  40.626  71.975  51.299
O  59.610  55.715  38.491
O  41.117  27.706  39.321
O  30.312  32.674  40.872
O  32.876  35.412  44.010
O  34.026  67.151  54.791
O  65.620  36.543  46.662
O  30.977  47.235  58.516
O  56.284  43.523  70.450
O  27.794  46.222  43.778
O  37.443  59.522  39.389
O  68.065  44.458  39.399
O  44.559  69.544  54.414
O  67.061  60.820  37.858
O  32.854  59.845  43.042
O  30.112  53.114  49.099
O  35.954  54.066  51.179
O  46.951  56.239  24.172
O  55.987  47.341  32.978
O  53.942  62.212  47.422
O  35.899  40.307  38.121
O  38.109  53.781  52.412
O  57.365  47.558  30.006
O  50.534  26.240  60.318
O  63.738  51.878  40.393
O  70.871  45.063  49.579
O  50.149  59.580  35.827
O  58.599  68.311  40.630
O  66.084  60.769  52.102
O  51.415  76.246  42.640
O  31.473  49.895  38.686
O  53.169  36.096  58.389
O  52.607  51.834  35.898
O  25.517  57.278  53.399
O  34.675  53.475  32.702
O  67.045  61.773  48.911
O  57.021  69.775  55.471
O  45.293  58.541  56.988
O  46.799  66.046  72.550
O  47.926  32.295  56.353
O  41.968  35.933  58.257
O  55.631  72.692  54.918
O  46.498  42.101  30.253
O  39.092  52.780  54.907
O  55.534  65.339  64.874
O  63.651  51.272  66.610
O  52.704  53.572  40.852
O  36.787  54.494  44.048
O  34.371  47.089  35.879
O  38.508  57.924  74.063
O  28.293  61.169  64.258
O  26.171  52.808  46.674
O  72.555  43.320  37.797
O  46.270  44.803  70.697
O  58.930  67.621  35.430
O  71.447  61.607  54.922
O  61.588  55.578  41.593
O  61.024  47.215  39.805
O  29.585  46.725  46.271
O  47.514  65.998  41.778
O  65.124  55.069  45.534
O  36.690  59.231  51.624
O  38.587  33.239  44.321
O  63.425  35.850  47.012
O  71.965  37.527  42.537
O  52.305  31.810  35.177
O  27.372  33.790  43.550
O  50.418  46.948  61.900
O  30.386  37.823  43.637
O  61.932  24.330  50.783
O  37.019  71.186  63.437
O  39.943  61.565  41.695
O  51.935  69.588  51.662
O  49.457  42.992  75.946
O  37.749  56.931  68.303
O  44.297  36.009  68.602
O  21.931  47.001  50.794
O  43.886  40.151  73.430
O  51.367  72.070  54.326
O  49.265  60.478  57.865
O  29.039  50.182  48.380
O  59.869  34.407  65.422
O  53.668  45.968  67.697
O  34.457  52.618  66.530
O  60.026  66.647  37.411
O  70.976  45.462  40.050
O  48.170  36.817  72.497
O  26.446  66.308  46.954
O  72.278  57.228  40.688
O  75.021  43.459  56.953
O  35.834  42.518  57.255
O  67.813  53.636  41.007
O  37.856  49.321  42.789
O  34.884  40.138  40.228
O  50.802  72.242  50.505
O  45.142  32.171  55.145
O  56.031  64.022  69.070
O  70.196  65.755  44.403
O  50.121  42.848  68.871
O  35.215  26.815  52.802
O  62.653  26.534  40.375
O  41.348  64.506  42.558
O  66.996  66.804  63.287
O  26.012  54.569  53.653
O  49.596  74.116  56.861
O  38.692  57.875  54.701
O  24.708  40.349  47.286
O  62.127  48.048  24.302
O  65.080  50.223  57.849
O  71.944  50.254  46.072
O  38.931  51.956  32.036
O  67.571  37.842  41.371
O  24.298  48.307  61.427
O  65.424  44.013  70.595
O  66.719  42.656  35.551
O  35.055  57.533  39.711
O  38.598  65.197  44.079
O  39.197  41.394  60.668
O  31.415  53.593  63.143
O  49.593  50.327  28.416
O  47.752  37.400  66.115
O  55.813  39.165  67.171
O  41.835  46.828  68.201
O  49.132  68.785  64.590
O  43.143  71.931  49.390
O  57.769  30.465  65.992
O  36.152  44.890  69.356
O  32.692  61.383  63.493
O  52.151  39.238  54.931
O  35.591  45.576  28.813
O  42.119  72.815  36.643
O  56.221  49.306  25.145
O  25.895  52.167  35.093
O  73.436  53.022  59.458
O  61.023  51.255  23.787
O  62.162  42.588  47.947
O  30.623  62.060  51.797
O  49.490  57.741  28.331
O  70.059  54.803  62.614
O  65.549  73.739  52.523
O  72.074  35.189  40.466
O  67.500  68.352  48.906
O  48.122  70.571  66.162
O  45.375  31.747  35.131
O  60.819  42.286  27.223
O  33.484  49.561  62.083
O  42.231  51.871  52.941
O  48.246  32.309  52.314
O  36.128  54.679  47.013
O  60.153  35.915  57.623
O  30.352  38.437  57.997
O  37.152  39.712  71.731
O  37.579  54.106  36.865
O  66.905  61.158  65.687
O  45.900  31.843  71.022
O  70.087  34.200  42.587
O  49.503  40.314  75.379
O  30.811  55.983  50.686
O  72.355  50.604  55.325
O  64.073  35.201  56.270
O  39.955  73.629  37.167
O  28.918  36.030  59.270
O  66.089  64.356  51.063
O  32.780  56.612  52.818
O  49.213  73.193  64.781
O  30.378  34.620  60.462
O  49.281  54.564  65.016
O  58.286  35.592  61.569
O  48.030  51.831  61.902
O  58.727  59.333  64.918
O  30.269  41.006  61.499
O  50.525  47.972  30.305
O  57.798  65.453  45.366
O  65.969  48.355  72.962
O  60.650  44.285  52.593
O  69.712  53.013  35.088
O  32.210  48.210  51.921
O  73.476  42.183  35.595
O  28.281  44.098  42.199
O  37.848  65.131  59.352
O  41.287  35.808  27.544
O  43.621  42.789  24.647
O  64.332  47.785  55.339
O  63.100  48.715  45.297
O  63.459  72.913  53.650
O  31.516  59.128  57.609
O  63.650  72.555  40.901
O  48.677  49.352  33.583
O  65.025  58.185  53.764
O  65.581  49.989  67.237
O  43.118  47.575  32.944
O  61.192  51.766  61.795
O  35.052  50.377  70.502
O  40.064  48.481  69.983
O  32.535  68.550  39.626
O  44.786  72.798  57.893
O  62.117  40.268  36.594
O  40.305  33.605  31.393
O  42.088  48.183  38.017
O  56.121  49.536  27.929
O  60.612  53.305  37.643
O  48.508  61.300  49.643
O  62.134  44.370  42.695
O  50.525  39.142  25.159
O  41.706  58.105  41.782
O  41.933  22.695  53.331
O  42.600  59.840  35.907
O  56.798  50.377  36.173
O  41.725  65.536  63.849
O  38.843  49.048  31.208
O  60.949  62.184  43.168
O  53.165  70.080  36.947
O  64.757  41.680  68.178
O  65.219  34.148  61.480
O  68.885  42.978  45.342
O  75.744  43.972  41.172
O  33.328  39.721  62.029
O  48.205  71.403  38.598
O  32.353  37.133  51.294
O  34.049  66.757  37.715
O  51.189  74.519  48.115
O  51.359  55.150  22.650
O  26.631  45.558  64.998
O  40.313  57.393  34.489
O  58.425  26.087  47.383
O  45.495  37.964  38.994
O  36.054  32.712  54.853
O  44.497  28.906  33.240
O  49.277  33.616  65.750
O  39.767  44.753  60.612
O  26.645  49.714  47.156
O  50.827  43.884  30.828
O  59.204  71.748  44.099
O  58.836  39.416  28.539
O  47.880  57.754  41.348
O  66.890  40.916  53.776
O  53.395  46.400  31.068
O  72.971  61.644  53.282
O  55.164  36.585  65.796
O  63.520  43.278  52.272
O  60.525  37.553  28.998
O  31.110  55.807  33.694
O  52.704  54.832  75.192
O  59.672  62.566  61.178
O  65.797  33.626  33.638
O  28.725  68.729  48.972
O  63.958  57.883  46.773
O  60.237  52.523  65.740
O  49.467  35.795  24.965
O  39.735  33.087  36.272
O  62.927  65.098  51.131
O  35.295  59.972  30.344
O  47.225  59.048  58.260
O  44.248  43.055  29.812
O  35.422  33.830  37.627
O  60.120  38.913  37.671
O  49.149  47.636  66.865
O  34.121  44.234  44.324
O  26.621  61.454  43.155
O  51.143  41.219  32.406
O  48.685  62.276  64.545
O  45.032  44.137  65.259
O  24.012  44.468  57.326
O  73.311  44.136  46.250
O  50.146  59.743  45.358
O  62.109  48.672  30.457
O  23.471  43.204  47.551
O  61.702  69.985  63.931
O  62.068  55.216  65.897
O  34.634  59.597  60.528
O  38.432  35.721  29.346
O  33.407  48.422  26.479
O  35.242  30.592  38.079
O  60.393  34.011  38.168
O  60.889  35.438  60.626
O  73.392  37.326  49.923
O  41.455  60.513  49.131
O  56.689  35.980  49.071
O  44.885  46.989  25.398
O  56.018  35.002  26.515
O  54.086  23.476  57.445
O  65.018  69.546  64.073
O  43.493  63.399  56.669
O  53.967  39.917  56.199
O  65.060  46.096  59.576
O  44.627  25.079  56.685
O  35.690  60.686  40.807
O  65.479  65.464  37.639
O  22.313  55.080  50.615
O  58.717  31.088  30.035
O  34.363  42.300  49.540
O  56.739  40.441  57.063
O  72.143  46.038  33.242
O  68.577  48.293  43.131
O  31.751  57.306  45.048
O  68.983  30.483  53.336
O  59.792  52.808  25.377
O  73.240  54.034  43.075
O  53.400  32.540  66.258
O  40.293  57.208  52.427
O  63.225  35.457  62.271
O  68.292  54.149  67.872
O  39.646  58.176  60.335
O  33.512  31.677  55.121
O  47.062  65.905  68.417
O  67.234  56.178  63.682
O  34.366  47.389  70.844
O  26.307  47.262  41.651
O  31.120  37.491  45.987
O  40.295  36.073  40.660
O  64.799  59.738  55.956
O  39.751  63.753  72.622
O  52.182  29.365  37.908
O  55.645  44.459  65.784
O  52.163  68.607  63.912
O  58.304  55.319  26.590
O  28.131  36.562  61.385
O  36.748  61.669  37.703
O  76.403  53.861  56.039
O  43.210  30.579  46.833
O  64.436  32.006  40.168
O  37.451  62.981  54.276
O  43.091  32.634  34.906
O  41.939  55.927  36.889
O  42.303  57.186  66.598
O  48.510  64.229  44.436
O  40.043  39.515  51.910
O  72.704  42.182  44.109
O  40.718  37.612  44.911
O  33.031  29.576  44.660
O  42.627  54.321  27.008
O  48.975  72.136  44.544
O  26.387  55.857  44.228
O  42.874  41.111  38.124
O  30.101  48.316  36.143
O  34.224  44.384  67.605
O  64.384  61.945  70.046
O  67.686  67.669  42.728
O  50.388  44.509  61.855
O  62.019  41.186  50.534
O  75.259  50.545  51.283
O  38.306  61.831  61.783
O  40.633  40.024  74.738
O  44.142  58.385  59.349
O  33.696  43.210  58.921
O  68.340  46.569  41.553
O  68.863  31.524  60.824
O  26.381  53.211  41.432
O  27.764  47.837  57.229
O  32.639  27.373  46.042
O  59.791  40.022  31.605
O  64.724  38.536  65.144
O  54.389  42.709  54.162
O  31.645  64.013  47.380
O  56.904  48.666  42.030
O  57.651  74.747  46.398
O  60.648  28.098  39.518
O  51.819  37.150  49.601
O  58.949  55.678  72.053
O  31.601  64.008  40.762
O  43.335  37.628  56.251
O  32.308  49.126  47.464
O  60.060  61.855  50.705
O  57.042  56.809  31.577
O  56.086  28.490  65.698
O  29.283  61.709  40.914
O  64.370  67.720  37.305
O  57.699  43.340  24.326
O  46.676  32.304  32.029
O  55.003  57.892  22.699
O  44.367  38.194  51.556
O  59.003  44.904  39.046
O  54.264  72.316  50.323
O  38.185  56.363  34.881
O  57.130  58.009  29.464
O  30.787  47.069  43.892
O  42.240  50.038  26.284
O  51.486  32.656  64.299
O  57.068  61.983  36.609
O  32.060  63.767  38.435
O  32.170  64.141  59.602
O  44.182  47.376  77.281
O  41.961  30.846  40.642
O  60.217  38.514  63.948
O  24.350  45.550  51.465
O  34.350  33.371  45.231
O  40.029  27.217  36.865
O  56.526  40.535  54.041
O  72.834  63.567  50.285
O  61.320  48.574  54.567
O  54.608  33.226  33.483
O  32.649  41.822  39.014
O  33.233  55.008  41.059
O  52.660  62.008  61.540
O  68.338  41.241  55.975
O  39.363  30.432  53.325
O  33.020  37.509  31.232
O  74.780  49.208  53.677
O  34.281  62.450  41.666
O  62.251  42.215  29.098
O  41.044  40.575  71.502
O  66.320  29.085  61.023
O  38.241  67.774  61.834
O  59.055  56.592  63.042
O  53.267  47.746  37.315
O  38.928  54.705  24.711
O  50.485  34.176  45.069
O  60.099  50.099  73.465
O  63.170  31.403  34.880
O  35.955  57.645  36.852
O  53.292  59.852  59.460
O  65.279  49.895  29.752
O  59.206  46.993  46.860
O  53.907  51.556  67.522
O  58.742  30.550  58.518
O  67.342  47.919  62.267
O  70.035  55.057  49.253
O  64.048  57.588  61.954
O  55.099  36.923  43.964
O  66.751  55.795  66.254
O  65.279  61.012  30.036
O  60.910  28.978  65.289
O  35.285  65.174  59.474
O  51.936  47.176  70.184
O  37.860  65.403  53.499
O  39.916  54.154  73.362
O  31.897  61.246  48.254
O  46.639  71.777  52.911
O  64.764  53.147  50.223
O  53.445  41.031  61.408
O  54.741  36.674  40.544
O  25.765  49.617  55.079
O  33.563  58.418  51.116
O  29.768  66.541  51.060
O  38.598  36.081  47.513
O  61.155  72.253  45.522
O  65.517  57.100  37.395
O  27.960  52.524  62.201
O  64.859  28.354  42.479
O  61.701  25.436  43.325
O  68.986  64.123  45.671
O  38.587  51.694  41.367
O  51.627  31.081  43.987
O  33.899  43.568  40.397
O  51.222  52.953  38.121
O  35.057  64.307  34.016
O  60.763  57.664  74.449
O  27.751  46.637  48.484
O  66.560  56.939  69.472
O  31.355  56.453  39.613
O  33.096  33.858  52.252
O  37.996  56.643  51.611
O  66.576  36.893  53.679
O  38.504  38.730  32.297
O  63.048  38.772  59.831
O  40.870  40.085  41.617
O  35.486  46.780  64.907
O  22.953  51.094  41.527
O  76.566  56.395  40.698
O  52.225  51.862  61.501
O  64.344  66.578  62.275
O  28.523  45.596  34.740
O  61.024  62.679  39.659
O  72.391  61.600  39.221
O  40.341  42.573  36.034
O  60.357  65.649  33.805
O  51.333  75.591  51.867
O  36.996  55.016  57.389
O  52.203  70.036  46.038
O  61.514  38.111  31.047
O  47.970  32.393  44.165
O  54.591  60.269  35.153
O  72.199  65.360  47.096
O  48.501  54.109  21.481
O  41.339  52.158  24.268
O  67.967  44.515  47.849
O  49.407  51.435  31.005
O  52.191  58.061  35.946
O  48.335  69.814  54.180
O  71.930  43.824  48.044
O  38.629  48.818  37.861
O  36.543  48.854  45.707
O  23.600  49.714  51.707
O  76.190  42.222  55.339
O  62.335  70.042  60.861
O  32.202  45.401  66.577
O  45.747  60.767  25.928
O  52.389  55.013  31.033
O  50.839  68.954  30.931
O  52.100  42.420  57.714
O  38.199  41.395  37.642
O  41.783  54.913  23.630
O  61.381  48.500  42.362
O  48.312  69.720  43.428
O  44.144  57.991  52.260
O  53.488  27.805  66.733
O  74.408  43.682  39.353
O  54.133  49.106  69.283
O  39.738  69.245  57.560
O  66.119  63.057  38.983
O  67.742  62.443  60.533
O  51.084  50.541  33.286
O  41.237  62.057  28.182
O  60.194  56.515  24.124
O  59.227  28.641  48.947
O  46.698  68.873  70.759
O  52.441  69.582  54.271
O  69.094  35.885  46.066
O  70.496  57.397  55.894
O  29.609  38.247  66.719
O  57.505  48.344  59.010
O  38.573  53.956  50.136
O  27.120  44.520  37.503
O  63.190  39.401  67.683
O  67.178  39.165  51.723
O  74.317  51.146  38.155
O  48.373  65.130  39.731
O  57.816  72.238  52.943
O  56.523  64.563  30.291
O  36.892  65.102  47.481
O  54.738  42.602  30.634
O  51.253  56.520  26.057
O  51.551  69.245  56.637
O  48.441  31.187  65.503
O  62.881  34.591  68.114
O  27.079  40.574  39.312
O  43.844  58.267  29.049
O  45.941  42.441  42.521
O  50.263  60.141  67.505
O  64.227  38.505  40.809
O  41.837  41.953  31.696
O  58.386  34.226  47.167
O  41.042  73.706  47.542
O  69.150  67.150  54.685
O  41.860  27.673  60.249
O  61.492  62.586  66.851
O  34.414  62.967  30.542
O  36.983  43.195  62.634
O  44.006  33.385  61.367
O  29.348  50.499  63.299
O  58.332  42.445  58.640
O  42.923  56.537  56.152
O  76.427  51.202  53.843
O  63.220  46.429  57.578
O  76.378  46.794  39.039
O  47.948  41.498  59.944
O  67.872  52.899  64.841
O  44.392  32.665  42.136
O  50.196  49.753  63.742
O  54.211  59.349  38.089
O  67.069  54.716  50.130
O  59.158  53.679  33.848
O  65.449  33.383  63.922
O  29.045  46.134  59.399
O  29.265  42.159  45.352
O  54.191  62.059  70.337
O  44.430  56.090  26.014
O  49.391  37.641  52.397
O  40.306  58.285  65.280
O  47.741  28.958  36.108
O  27.443  65.671  43.052
O  56.820  42.316  65.620
O  44.196  35.579  60.379
O  58.909  49.103  28.419
O  72.634  63.484  60.049
O  52.690  26.966  38.267
O  47.618  68.308  55.996
O  48.923  62.312  31.869
O  49.595  23.199  44.035
O  68.526  55.150  58.289
O  33.607  53.498  30.493
O  58.875  43.435  65.595
O  59.235  57.682  49.861
O  42.066  49.454  28.815
O  66.264  30.525  58.296
O  29.471  54.425  36.754
O  38.188  64.451  40.789
O  65.903  43.081  57.025
O  29.407  64.510  61.506
O  51.768  36.562  25.093
O  39.652  55.797  66.730
O  69.314  52.474  30.535
O  69.573  68.943  50.715
O  36.008  56.498  49.219
O  63.904  50.045  47.757
O  66.708  32.655  50.146
O  43.532  40.328  66.476
O  31.794  59.207  68.150
O  24.632  52.115  48.692
O  71.017  36.694  56.228
O  57.973  31.843  54.274
O  47.707  58.335  55.040
O  61.290  54.080  55.432
O  42.312  36.064  66.934
O  35.783  54.920  38.195
O  62.540  46.238  75.713
O  61.424  47.605  73.529
O  57.563  52.304  44.464
O  33.072  56.088  65.027
O  40.198  51.662  39.205
O  53.518  54.441  26.170
O  45.586  66.141  46.825
O  41.077  59.050  57.201
O  59.955  56.279  35.464
O  64.425  39.544  50.052
O  53.716  55.816  28.704
O  53.417  41.302  42.531
O  32.968  47.199  64.353
O  61.490  56.315  56.207
O  49.471  22.710  57.710
O  38.629  68.183  49.271
O  30.137  65.463  56.639
O  37.545  35.110  45.620
O  25.874  36.801  45.852
O  34.701  40.474  31.597
O  59.056  34.180  59.242
O  66.358  33.762  46.954
O  57.401  73.200  40.097
O  40.578  57.920  37.297
O  65.234  70.618  41.024
O  69.775  35.508  51.401
O  52.879  32.999  57.264
O  32.355  54.530  38.514
O  27.383  60.715  52.230
O  65.158  45.814  34.138
O  58.297  59.510  44.992
O  64.958  52.952  27.919
O  29.395  64.566  38.194
O  29.907  70.229  51.171
O  60.725  45.312  32.880
O  70.060  53.408  39.461
O  37.749  52.661  61.698
O  67.153  36.453  56.695
O  57.052  50.943  47.439
O  31.378  60.954  59.117
O  51.598  39.448  40.251
O  28.641  61.169  56.963
O  55.402  31.807  29.061
O  36.014  71.265  53.243
O  70.686  57.203  38.194
O  38.181  29.557  49.028
O  29.464  67.169  47.247
O  31.282  56.945  35.769
O  55.880  26.116  34.995
O  37.548  35.144  53.095
O  74.314  57.187  47.437
O  33.201  38.864  66.116
O  25.733  51.590  60.136
O  31.418  32.238  62.708
O  42.141  71.926  60.487
O  43.241  60.055  70.687
O  51.721  53.490  64.708
O  33.459  54.637  51.755
O  71.469  52.626  41.883
O  45.815  68.640  37.668
O  63.993  46.585  31.334
O  61.042  38.189  50.044
O  71.725  61.323  50.735
O  61.365  51.659  68.718
O  51.152  34.924  30.102
O  63.497  44.186  54.728
O  48.461  35.873  42.943
O  48.405  53.647  30.032
O  59.744  73.313  51.054
O  56.699  69.655  40.988
O  49.434  73.702  39.109
O  70.950  55.453  36.119
O  55.761  60.425  59.561
O  63.751  33.916  52.564
O  22.746  56.399  48.488
O  62.600  35.001  50.492
O  64.178  41.050  56.873
O  34.385  51.153  31.615
O  40.731  66.265  71.969
O  40.682  31.586  38.071
O  56.911  35.375  44.571
O  28.440  47.634  53.605
O  40.187  74.794  58.031
O  55.155  34.686  29.899
O  56.019  70.456  65.298
O  63.161  34.209  59.277
O  31.972  67.684  42.061
O  61.143  37.554  41.965
O  40.970  51.917  71.841
O  25.945  43.195  46.973
O  43.326  60.913  51.691
O  29.970  55.779  44.691
O  69.845  43.068  38.294
O  54.935  63.023  55.899
O  35.800  57.688  53.660
O  59.119  40.662  45.937
O  54.040  28.794  31.793
O  63.973  41.044  60.309
O  52.053  41.414  68.688
O  50.874  33.830  72.311
O  60.082  23.926  48.422
O  32.284  50.566  27.177
O  57.321  42.268  61.218
O  52.762  57.807  67.122
O  62.986  35.994  41.146
O  53.487  67.474  57.754
O  66.808  46.948  52.970
O  65.072  66.536  49.119
O  49.409  39.745  27.903
O  54.571  45.902  25.153
O  52.234  38.474  42.619
O  61.625  60.679  49.044
O  42.563  50.593  60.007
O  26.820  38.738  48.088
O  36.568  34.862  41.913
O  48.433  33.525  39.598
O  52.360  73.408  45.195
O  63.953  44.889  67.325
O  53.857  53.709  68.650
O  67.292  52.058  56.743
O  50.675  50.649  67.219
O  33.387  46.418  50.368
O  64.224  53.985  63.030
O  49.568  27.295  55.097
O  68.831  66.906  61.498
O  67.536  55.419  44.642
O  44.829  26.451  50.597
O  75.023  54.134  52.488
O  33.678  39.948  52.152
O  67.256  55.815  52.596
O  60.854  65.857  69.737
O  36.079  57.454  57.706
O  43.673  50.691  23.481
O  59.580  73.123  56.956
O  21.444  51.208  50.797
O  34.466  56.324  67.255
O  63.946  37.218  50.031
O  56.338  56.852  69.452
O  36.813  37.320  51.698
O  54.489  39.423  31.775
O  65.296  69.122  61.782
O  59.387  41.047  51.577
O  51.193  35.966  47.248
O  60.869  28.411  58.034
O  54.574  68.529  53.190
O  55.754  41.627  42.916
O  66.093  67.008  66.444
O  51.490  73.725  65.683
O  37.027  62.856  34.486
O  54.761  47.582  72.216
O  50.208  42.428  59.352
O  33.514  62.542  33.963
O  72.851  46.478  52.511
O  51.410  60.859  53.451
O  60.941  56.160  50.370
O  29.550  31.096  45.335
O  62.639  68.197  35.227
O  31.305  41.033  53.856
O  46.145  39.885  71.988
O  66.517  35.848  42.105
O  64.029  33.009  44.887
O  38.180  46.417  67.458
O  39.110  25.413  59.877
O  61.238  59.200  53.158
O  34.806  44.751  73.957
O  67.288  61.693  54.288
O  49.524  66.019  51.554
O  70.186  46.141  45.536
O  35.203  61.706  44.440
O  54.024  44.866  60.278
O  25.188  40.262  50.136
O  50.078  62.508  52.404
O  37.515  52.064  65.083
O  59.614  68.735  55.666
O  49.135  66.652  45.467
O  49.725  36.027  55.275
O  60.539  33.734  49.648
O  42.475  75.722  53.317
O  62.921  39.362  43.941
O  35.674  41.809  34.209
O  34.074  35.774  46.546
O  36.904  40.033  58.639
O  41.808  39.663  69.569
O  36.786  43.395  66.466
O  47.048  55.571  75.390
O  37.252  27.478  60.693
O  60.591  43.446  55.939
O  37.171  38.956  40.943
O  61.411  67.371  51.853
O  57.712  36.648  38.256
O  62.444  43.628  45.685
O  71.684  50.998  32.955
O  44.510  70.145  44.293
O  59.733  50.406  70.358
O  64.362  37.323  30.045
O  71.591  62.117  42.103
O  60.792  51.307  31.011
O  50.946  78.838  49.758
O  69.182  52.665  62.979
O  50.435  40.916  56.013
O  34.332  58.476  71.527
O  74.221  38.560  56.512
O  47.018  58.367  29.745
O  71.623  51.400  65.989
O  60.703  58.504  38.058
O  42.425  48.042  61.247
O  46.557  56.289  38.006
O  46.249  56.575  52.648
O  60.520  63.493  55.013
O  52.251  72.280  38.968
O  49.889  57.345  30.628
O  36.769  56.493  71.427
O  33.907  56.451  59.721
O  59.348  70.745  66.152
O  57.576  36.708  73.388
O  73.722  51.725  42.767
O  64.902  49.861  54.106
O  27.777  49.075  59.257
O  56.589  37.730  36.089
O  31.967  42.946  66.252
O  34.682  64.671  41.262
O  29.922  38.172  61.743
O  51.071  31.948  54.301
O  54.149  46.563  63.829
O  66.784  29.922  45.886
O  62.893  59.121  73.241
O  46.734  45.313  28.782
O  49.301  56.786  75.836
O  38.663  30.872  43.223
O  55.556  72.901  65.898
O  51.608  39.172  68.613
O  31.262  44.961  32.981
O  47.466  65.981  56.110
O  43.732  50.272  77.196
O  67.539  49.776  57.813
O  56.202  37.344  33.441
O  35.144  40.525  27.156
O  31.549  56.703  55.163
O  36.697  46.892  40.556
O  69.281  68.984  56.548
O  46.389  62.359  52.049
O  22.626  41.641  50.148
O  56.381  46.636  69.786
O  41.752  60.243  65.809
O  36.412  47.668  52.989
O  75.340  40.328  46.636
O  59.378  69.056  68.039
O  34.626  38.402  54.575
O  39.577  62.221  31.059
O  60.494  36.296  47.265
O  59.136  57.993  54.920
O  38.175  46.362  70.369
O  39.340  44.182  24.821
O  35.536  37.477  31.590
O  30.038  65.586  59.363
O  51.546  32.483  41.045
O  59.651  41.284  39.146
O  35.670  68.427  39.169
O  55.834  25.711  50.368
O  65.502  34.789  58.126
O  41.694  43.472  61.314
O  64.206  39.971  62.448
O  47.981  41.122  32.139
O  68.606  50.938  61.241
O  71.250  63.102  47.568
O  54.944  41.793  33.903
O  35.959  53.783  65.097
O  39.168  39.056  43.945
O  46.138  62.295  32.145
O  40.354  75.687  51.717
O  52.033  57.516  23.079
O  44.941  48.716  62.970
O  66.697  69.220  37.259
O  65.825  31.946  38.297
O  69.200  46.200  62.479
O  47.556  76.106  57.675
O  42.254  57.336  25.209
O  65.065  35.405  65.920
O  52.173  61.005  55.795
O  36.652  68.782  52.358
O  56.969  41.720  39.811
O  53.643  33.966  72.421
O  66.634  59.380  41.849
O  38.775  44.132  50.685
O  28.606  60.129  43.224
O  53.630  73.713  48.656
O  42.532  51.093  70.210
O  58.092  35.828  32.369
O  44.536  64.473  65.465
O  63.675  62.238  31.405
O  47.599  41.139  41.197
O  34.035  37.996  34.733
O  54.927  71.078  38.700
O  43.223  64.968  49.407
O  38.273  51.260  74.680
O  62.073  47.763  59.270
O  53.239  39.592  64.220
O  48.502  71.139  59.948
O  28.024  55.346  50.767
O  45.213  56.670  62.396
O  68.614  34.014  48.936
O  35.873  64.148  45.229
O  32.858  62.140  56.754
O  62.568  54.397  30.314
O  40.591  75.011  44.748
O  47.041  57.806  61.631
O  44.194  44.019  38.075
O  34.486  30.786  46.715
O  45.380  47.892  56.962
O  37.791  47.772  64.434
O  36.927  64.128  38.368
O  42.512  64.711  36.480
O  60.603  62.856  33.197
O  50.450  40.537  64.239
O  43.072  37.454  28.318
O  41.589  31.830  54.311
O  56.347  51.588  63.359
O  34.772  68.685  36.515
O  54.589  64.222  51.769
O  39.373  47.598  53.493
O  46.726  33.151  29.245
O  48.949  40.702  69.769
O  45.913  73.709  35.495
O  33.291  41.159  41.529
O  40.548  58.413  30.323
O  35.977  47.258  25.678
O  39.276  50.142  64.862
O  24.673  54.236  59.796
O  23.397  55.223  53.175
O  65.568  68.675  46.392
O  57.452  43.795  42.199
O  57.176  27.552  63.002
O  60.151  29.773  62.800
O  55.046  54.714  74.556
O  66.993  52.572  60.527
O  26.831  46.387  62.352
O  55.670  59.164  75.941
O  49.667  57.913  23.028
O  38.779  59.394  62.221
O  54.323  47.583  22.273
O  37.551  44.812  75.426
O  75.806  51.272  43.972
O  64.181  63.191  52.600
O  47.073  40.963  68.275
O  53.143  40.697  50.982
O  70.489  65.382  59.249
O  71.191  53.532  67.985
O  35.222  43.808  64.766
O  24.052  55.905  43.307
O  55.819  32.193  65.024
O  35.487  47.701  62.102
O  36.453  46.357  37.545
O  58.279  43.351  27.219
O  40.038  33.802  65.608
O  60.755  65.194  60.813
O  46.978  74.743  59.790
O  42.727  71.354  65.520
O  43.791  36.730  49.085
O  35.231  44.381  37.281
O  44.372  40.103  42.535
O  36.321  55.235  62.810
O  39.126  61.133  37.297
O  58.443  63.262  32.286
O  45.472  62.692  38.482
O  26.063  42.110  41.784
O  57.866  68.533  65.346
O  53.940  28.670  59.883
O  59.425  49.058  44.734
O  63.379  58.766  38.538
O  43.256  53.641  61.000
O  42.198  38.143  73.707
O  43.313  58.997  68.135
O  53.696  64.166  67.322
O  29.540  42.770  50.695
O  41.137  31.695  43.362
O  69.448  49.174  48.565
O  67.846  55.278  60.546
O  71.802  55.087  56.794
O  40.205  71.607  35.458
O  67.835  60.478  61.727
O  48.151  55.514  32.381
O  50.983  37.164  62.965
O  63.230  47.096  33.717
O  55.803  60.657  52.089
O  70.241  31.593  55.984
O  42.027  63.836  45.315
O  38.109  30.053  55.743
O  35.903  26.755  42.581
O  58.645  28.240  55.107
O  25.712  41.828  60.596
O  32.281  46.722  56.654
O  49.650  59.673  54.880
O  44.870  22.638  50.426
O  44.660  45.779  30.714
O  49.917  52.015  65.229
O  51.157  56.393  77.619
O  69.308  66.476  41.428
O  35.838  45.879  42.528
O  43.803  41.700  57.317
O  41.880  43.277  74.891
O  44.039  42.989  35.479
O  65.572  48.920  59.790
O  72.353  38.560  47.305
O  31.847  50.662  64.604
O  35.900  36.964  66.668
O  60.134  65.549  47.898
O  60.931  37.721  58.840
O  67.888  48.055  64.677
O  45.589  58.106  22.811
O  42.374  51.418  63.616
O  68.011  29.968  50.606
O  38.843  33.170  60.610
O  69.322  36.128  35.882
O  56.993  65.586  66.760
O  43.712  34.121  44.307
O  63.091  72.364  47.336
O  38.970  75.706  55.182
O  45.796  56.995  72.930
O  40.481  66.142  48.611
O  56.552  62.578  64.879
O  31.621  42.590  45.701
O  55.360  37.618  73.455
O  60.007  44.340  41.653
O  34.145  48.451  59.488
O  58.903  62.738  56.582
O  43.920  34.055  50.075
O  64.127  56.614  64.580
O  62.883  52.384  57.502
O  76.712  39.830  51.274
O  66.114  29.508  53.866
O  50.929  58.442  40.068
O  45.275  62.122  71.225
O  35.840  45.386  61.707
O  44.571  51.926  66.329
O  42.832  45.407  66.201
O  50.602  24.341  39.669
O  32.452  32.965  39.190
O  40.527  28.858  66.642
O  68.764  38.857  66.133
O  66.974  42.559  49.939
O  39.274  72.268  46.009
O  50.012  54.716  33.628
O  44.374  38.211  36.682
O  32.066  47.233  54.394
O  34.023  64.287  46.616
N  47.733  49.360  48.307
N  54.454  50.634  53.991
N  50.117  52.261  56.202
N  47.152  45.012  48.828
N  51.774  52.461  51.057
N  52.829  50.034  49.215
N  48.399  51.550  54.058
N  47.263  47.467  45.648
N  47.591  49.324  51.479
N  52.336  53.942  53.973
N  51.795  48.240  46.307
N  50.485  46.055  45.051
C  51.340  52.412  55.566
C  53.352  49.105  51.433
C  48.215  50.482  51.856
C  52.737  45.333  44.703
C  47.088  49.531  46.997
C  50.753  46.308  43.588
C  47.522  51.319  52.898
C  51.364  54.803  49.181
C  48.151  44.713  49.874
C  48.028  46.484  44.861
C  47.355  48.421  49.229
C  53.042  54.112  56.380
C  47.089  51.010  46.614
C  52.525  50.142  50.660
C  46.191  52.403  51.052
C  51.879  53.846  51.544
C  52.269  46.076  43.417
C  46.489  42.467  46.788
C  44.884  50.859  45.347
C  51.061  54.821  50.707
C  52.148  50.673  45.938
C  54.299  53.270  56.255
C  52.403  49.458  46.867
C  56.516  52.943  55.367
C  46.220  53.475  53.317
C  47.175  45.307  44.358
C  55.339  53.667  55.413
C  52.308  46.983  46.522
C  46.357  51.281  45.289
C  52.914  48.970  52.923
C  54.466  52.132  57.043
C  51.757  45.783  45.808
C  48.598  50.614  55.043
C  48.973  45.928  50.286
C  44.627  43.977  46.849
C  51.897  49.719  48.261
C  49.349  53.363  56.887
C  51.405  53.930  52.969
C  49.233  46.051  45.647
C  45.259  44.798  45.934
C  50.380  53.908  48.423
C  56.671  51.818  56.160
C  48.153  48.358  50.510
C  49.386  50.947  56.277
C  48.156  46.954  51.128
C  52.800  51.551  51.131
C  48.433  51.140  57.477
C  52.894  51.900  46.468
C  47.127  43.288  45.878
C  52.569  50.402  44.490
C  47.802  48.688  45.963
C  45.240  42.811  47.275
C  54.058  49.215  53.900
C  47.032  52.664  52.305
C  46.518  44.462  45.436
C  46.470  52.762  44.949
C  48.120  52.663  57.505
C  55.647  51.416  56.999
C  51.925  53.783  55.377
C  51.307  56.227  48.628
H  45.789  74.854  45.095
H  60.756  24.100  44.735
H  43.310  43.375  76.540
H  68.597  44.406  67.917
H  48.346  39.730  42.680
H  48.628  39.061  41.351
H  71.730  35.032  49.035
H  49.961  37.619  39.156
H  50.984  36.668  38.519
H  69.035  44.035  66.497
H  61.879  58.837  26.551
H  59.277  23.711  44.752
H  63.157  61.049  71.659
H  44.822  43.123  76.452
H  62.190  59.862  71.255
H  42.368  44.959  56.346
H  61.478  57.348  26.299
H  41.337  44.242  57.267
H  37.587  53.950  33.701
H  37.445  54.334  32.187
H  57.324  64.480  49.000
H  57.146  41.000  40.446
H  70.401  35.225  48.244
H  33.040  49.339  30.496
H  40.174  50.823  26.682
H  39.789  57.195  42.380
H  54.228  27.321  57.301
H  54.490  28.751  56.755
H  45.845  38.777  66.964
H  59.499  40.988  61.667
H  58.634  41.519  62.796
H  44.808  66.794  56.265
H  44.659  65.952  54.950
H  41.164  51.405  27.706
H  33.861  56.577  49.461
H  32.608  57.273  48.841
H  61.972  67.832  63.175
H  57.012  63.989  47.559
H  25.548  58.423  47.103
H  59.915  53.990  76.102
H  58.814  53.875  74.999
H  41.171  34.580  55.606
H  59.258  47.263  69.144
H  60.405  47.947  69.921
H  42.677  34.293  56.018
H  73.483  57.271  62.629
H  72.409  56.330  61.958
H  38.900  58.137  41.490
H  26.828  57.824  47.770
H  65.177  30.157  44.547
H  30.346  50.332  53.317
H  45.849  76.265  45.756
H  61.869  52.291  46.466
H  48.519  60.222  61.188
H  63.701  30.742  44.403
H  56.737  49.757  69.458
H  41.233  44.469  36.753
H  48.830  50.244  41.727
H  49.875  50.578  40.619
H  59.800  47.292  59.627
H  68.569  42.233  45.894
H  68.501  42.744  44.472
H  63.060  53.253  46.431
H  58.603  66.433  65.416
H  31.154  41.504  51.718
H  33.135  34.661  40.552
H  31.763  34.421  41.268
H  32.091  42.642  52.105
H  39.745  44.530  37.072
H  55.873  49.901  70.748
H  60.038  28.789  57.677
H  61.539  28.669  57.376
H  68.160  39.965  59.100
H  54.359  69.478  53.117
H  60.003  65.778  65.278
H  47.873  61.226  60.182
H  62.591  37.410  62.993
H  33.719  57.924  41.434
H  53.992  42.835  28.529
H  54.879  65.929  57.091
H  39.337  51.604  46.001
H  41.177  55.205  32.648
H  42.428  55.971  33.188
H  26.459  44.627  52.495
H  26.998  56.576  41.981
H  27.552  58.047  42.207
H  26.461  44.961  51.000
H  52.595  29.117  47.395
H  35.159  58.243  41.894
H  52.033  28.210  46.243
H  55.364  63.324  58.872
H  61.246  57.250  71.402
H  40.387  50.497  46.265
H  54.071  44.392  28.662
H  62.752  57.313  71.750
H  37.386  26.704  49.678
H  36.027  27.357  49.981
H  39.572  48.826  45.129
H  38.824  47.961  46.233
H  63.923  37.824  62.345
H  29.602  49.209  52.534
H  30.802  38.482  36.725
H  42.062  53.694  70.226
H  56.083  64.660  58.613
H  35.779  54.457  30.386
H  64.719  69.566  54.183
H  64.639  71.032  53.760
H  37.504  50.606  27.514
H  37.921  52.155  27.496
H  50.615  26.260  49.412
H  45.772  31.008  63.173
H  49.256  27.005  49.660
H  31.970  64.039  62.978
H  37.343  26.852  58.377
H  69.486  47.118  30.203
H  36.284  27.980  58.463
H  68.204  37.585  67.837
H  31.484  56.215  29.017
H  77.176  44.397  48.743
H  78.379  45.323  48.330
H  31.041  54.879  29.643
H  63.843  48.890  72.900
H  55.427  31.956  52.723
H  51.959  52.841  71.037
H  30.787  47.353  41.018
H  43.025  44.079  31.288
H  67.304  36.338  67.924
H  24.468  61.421  42.965
H  70.980  47.495  30.344
H  60.010  45.701  61.177
H  45.258  52.035  67.001
H  49.638  36.299  34.118
H  59.544  73.029  50.147
H  60.408  74.014  50.961
H  50.841  37.033  33.418
H  35.928  68.816  53.003
H  37.434  69.117  52.805
H  52.778  60.907  56.540
H  52.021  60.100  55.461
H  64.593  41.090  40.051
H  35.915  55.720  31.369
H  45.273  64.141  66.017
H  63.247  40.429  39.672
H  65.947  35.358  66.313
H  64.804  36.333  65.988
H  47.054  76.761  58.188
H  41.687  64.520  60.902
H  32.056  46.734  40.362
H  66.273  47.593  48.904
H  33.506  63.824  62.896
H  55.540  32.543  51.306
H  59.220  44.387  60.877
H  43.891  64.869  66.066
H  31.253  39.472  35.618
H  24.968  60.056  42.578
H  42.685  62.387  37.637
H  43.279  67.392  51.034
H  43.029  65.905  51.376
H  71.576  44.257  34.486
H  59.242  49.655  25.864
H  57.900  50.433  25.865
H  70.629  44.324  35.704
H  54.533  32.305  56.060
H  55.268  30.964  55.798
H  65.144  49.605  25.576
H  55.544  68.487  53.161
H  75.570  41.960  51.887
H  44.466  38.075  67.039
H  38.369  63.761  48.641
H  43.545  53.647  70.690
H  61.954  50.006  60.261
H  62.242  51.480  59.984
H  34.673  72.025  58.353
H  36.259  72.168  58.586
H  48.164  25.751  51.292
H  59.631  45.248  49.388
H  59.840  43.693  49.317
H  47.360  26.942  51.864
H  39.732  63.830  47.960
H  65.889  46.065  48.868
H  74.836  40.620  52.115
H  47.971  57.049  65.974
H  42.183  62.281  36.181
H  32.638  67.832  45.508
H  32.157  66.389  45.707
H  40.958  69.409  34.224
H  37.169  30.634  41.667
H  37.484  31.952  40.930
H  41.085  69.605  35.749
H  41.844  45.080  31.191
H  50.449  52.514  71.133
H  67.764  69.351  46.487
H  65.356  51.138  25.575
H  67.773  67.813  46.208
H  56.071  29.085  54.117
H  57.291  29.676  53.333
H  60.151  69.192  30.970
H  56.214  65.752  71.163
H  56.409  66.805  70.020
H  57.955  51.979  27.701
H  59.374  51.985  28.261
H  45.460  32.299  63.949
H  63.092  49.779  71.865
H  46.643  56.268  65.994
H  59.820  68.170  32.074
H  69.042  40.280  60.393
H  44.888  23.614  54.276
H  55.851  40.827  43.464
H  55.366  56.861  69.431
H  56.627  57.161  70.324
H  51.209  72.794  65.756
H  52.170  73.717  64.996
H  43.904  41.163  40.121
H  37.370  46.414  67.971
H  38.918  46.201  68.051
H  44.803  39.885  40.398
H  50.385  36.243  46.783
H  51.808  35.758  46.525
H  40.134  47.512  66.044
H  34.279  57.511  71.639
H  25.981  42.074  63.640
H  28.042  49.008  37.832
H  42.449  59.552  27.644
H  34.174  57.093  60.409
H  33.144  56.002  60.133
H  41.709  59.277  26.262
H  61.246  68.106  52.460
H  61.345  66.590  52.432
H  73.269  51.039  43.275
H  73.656  51.523  41.825
H  28.443  44.275  45.393
H  26.753  48.278  38.327
H  36.162  37.005  52.333
H  40.307  46.011  65.559
H  63.290  39.473  43.041
H  63.629  39.758  44.492
H  65.515  46.799  28.998
H  40.893  35.723  29.706
H  42.327  35.150  29.430
H  38.583  25.722  60.638
H  40.021  25.325  60.204
H  44.145  55.650  69.891
H  41.764  65.565  69.010
H  47.244  56.120  76.175
H  37.645  37.463  52.180
H  56.356  64.484  38.081
H  60.056  68.650  56.526
H  42.879  76.017  54.145
H  43.491  45.840  23.860
H  59.062  41.819  52.067
H  59.229  41.183  50.637
H  44.990  45.777  23.568
H  64.862  69.776  61.217
H  65.298  68.260  61.338
H  54.378  39.950  30.964
H  53.999  38.605  31.584
H  59.926  69.591  55.313
H  67.076  46.713  28.792
H  64.175  50.065  54.732
H  48.316  66.195  55.688
H  73.566  45.861  52.303
H  51.593  64.049  35.629
H  36.860  62.386  35.327
H  32.815  61.916  34.184
H  33.484  62.704  33.004
H  51.836  65.110  34.558
H  49.799  41.954  58.607
H  49.797  43.299  59.360
H  54.010  47.838  71.656
H  55.494  47.463  71.586
H  52.114  60.226  53.259
H  66.168  49.773  62.520
H  65.860  35.585  41.436
H  66.638  51.249  62.286
H  29.425  63.356  44.462
H  49.690  55.990  75.441
H  49.016  57.343  75.097
H  46.225  28.435  55.216
H  60.395  27.167  60.943
H  66.716  35.344  31.919
H  47.558  57.619  30.043
H  46.210  58.356  30.259
H  66.140  36.591  42.608
H  65.633  49.656  54.722
H  50.569  60.477  53.122
H  60.810  55.273  50.730
H  65.518  66.424  65.920
H  46.820  66.331  55.456
H  30.339  44.848  32.696
H  31.744  45.307  32.209
H  66.232  53.222  37.605
H  51.353  38.244  68.644
H  52.111  39.330  69.445
H  67.329  54.299  37.657
H  54.795  73.454  66.135
H  55.618  72.234  66.609
H  28.625  39.066  49.278
H  38.172  31.074  44.037
H  66.947  67.008  65.974
H  37.311  63.758  34.680
H  31.055  40.188  54.277
H  72.713  46.374  53.469
H  62.100  68.806  34.688
H  63.347  67.910  34.619
H  29.398  30.515  44.569
H  29.260  31.980  45.042
H  28.989  40.220  50.250
H  61.120  56.755  51.121
H  38.746  31.733  42.763
H  35.650  41.221  34.982
H  42.581  76.407  52.639
H  36.629  41.836  33.968
H  71.336  49.567  31.282
H  69.781  49.482  31.190
H  72.343  68.177  52.046
H  48.123  75.674  43.902
H  54.825  65.433  55.644
H  42.585  55.765  69.721
H  35.190  58.626  71.093
H  32.745  48.869  48.320
H  43.028  38.092  60.116
H  66.959  61.131  55.013
H  71.623  66.863  52.457
H  66.946  62.584  54.485
H  35.571  45.038  74.473
H  29.193  59.324  61.444
H  61.848  58.451  53.068
H  60.430  58.958  52.660
H  28.041  59.475  60.433
H  76.360  43.446  40.636
H  75.777  44.863  40.814
H  31.488  48.572  47.470
H  49.240  66.509  52.343
H  64.442  63.776  42.406
H  34.911  43.801  73.793
H  65.169  34.124  60.514
H  42.186  64.148  38.977
H  54.691  72.342  45.453
H  36.770  57.197  72.103
H  36.472  55.693  71.897
H  27.728  44.516  46.792
H  59.504  45.885  59.032
H  68.245  64.269  61.828
H  66.933  64.967  61.323
H  48.890  76.603  42.896
H  35.828  55.206  35.902
H  35.424  53.813  36.294
H  45.163  22.074  54.325
H  41.142  64.950  38.176
H  65.918  61.317  57.938
H  43.780  51.615  66.788
H  35.865  56.267  64.676
H  36.999  57.289  64.988
H  46.814  62.406  47.065
H  46.162  61.093  47.515
H  52.451  48.505  32.630
H  62.866  38.116  38.106
H  63.287  36.782  37.457
H  50.958  48.101  32.860
H  54.054  70.927  45.425
H  66.066  60.455  59.221
H  64.660  33.428  61.811
H  65.479  64.917  42.437
H  65.647  37.230  47.338
H  47.332  75.050  41.135
H  53.768  45.619  60.843
H  53.505  44.903  59.467
H  45.988  74.610  40.462
H  36.027  61.924  44.912
H  34.997  60.796  44.699
H  71.058  46.550  45.378
H  63.128  67.887  46.104
H  59.857  34.416  49.744
H  60.063  32.908  49.462
H  24.609  39.741  49.561
H  34.385  35.574  45.576
H  56.449  63.199  38.954
H  37.421  42.699  66.657
H  36.494  43.805  67.289
H  41.279  40.271  69.039
H  42.329  39.102  68.988
H  27.922  56.799  55.812
H  36.090  39.711  59.060
H  37.285  40.696  59.243
H  27.680  56.603  54.293
H  33.199  35.325  46.567
H  46.348  56.052  74.917
H  25.695  40.811  49.518
H  50.424  63.393  52.594
H  50.471  62.284  51.535
H  66.348  35.930  46.789
H  37.584  27.605  61.600
H  37.781  28.093  60.153
H  63.175  68.302  47.599
H  50.045  35.371  54.630
H  49.333  36.749  54.761
H  50.340  65.532  51.700
H  42.601  39.185  59.108
H  42.337  66.817  67.960
H  38.199  52.257  65.730
H  53.845  50.177  64.017
H  58.781  58.671  67.768
H  65.036  59.884  65.123
H  66.046  58.759  65.204
H  57.540  57.747  67.740
H  43.682  46.443  75.331
H  44.683  45.257  75.315
H  49.647  65.819  45.430
H  48.296  66.399  45.027
H  47.244  55.678  62.499
H  37.819  52.334  64.203
H  47.340  54.135  62.991
H  69.981  45.632  44.737
H  55.503  42.330  43.534
H  48.588  54.453  29.517
H  39.220  38.629  43.072
H  75.677  37.509  53.842
H  27.082  61.339  61.417
H  43.933  37.195  54.121
H  60.663  35.967  69.565
H  28.334  62.050  61.951
H  22.545  55.170  45.601
H  22.934  53.784  46.156
H  57.221  70.898  67.384
H  56.770  70.375  68.760
H  47.500  35.630  59.212
H  71.284  48.654  66.227
H  62.284  31.871  60.312
H  69.772  48.632  65.918
H  42.462  37.381  53.723
H  36.696  38.283  69.938
H  37.963  34.589  50.097
H  37.225  37.886  68.505
H  60.968  37.424  72.352
H  60.623  66.314  67.315
H  61.907  67.106  67.742
H  60.176  36.751  73.489
H  50.665  45.559  64.294
H  51.464  46.606  65.142
H  47.016  37.207  58.952
H  47.750  66.464  49.576
H  59.117  58.566  26.400
H  40.022  55.836  47.842
H  49.154  22.916  52.633
H  48.929  24.300  53.308
H  51.697  72.310  57.984
H  49.710  59.827  41.942
H  50.007  61.315  42.244
H  50.956  71.051  58.473
H  52.126  53.132  23.404
H  50.619  52.936  23.398
H  54.184  65.987  35.704
H  53.569  64.693  36.354
H  40.396  55.739  46.333
H  72.869  61.714  61.621
H  58.006  57.692  25.763
H  73.203  60.238  61.900
H  46.697  73.441  56.206
H  46.738  71.973  56.749
H  42.441  48.863  65.796
H  43.353  50.001  65.306
H  25.439  58.094  41.457
H  51.235  21.396  50.795
H  49.836  21.156  51.410
H  26.379  58.937  40.586
H  36.705  49.703  29.590
H  36.658  49.087  31.012
H  47.464  65.038  50.102
H  37.582  33.160  49.686
H  69.168  42.345  68.981
H  58.672  60.157  71.166
H  45.053  60.362  59.822
H  35.222  49.836  42.061
H  66.635  34.585  38.178
H  65.886  35.350  39.303
H  54.805  64.439  49.111
H  43.923  77.163  51.111
H  35.391  43.847  27.014
H  34.059  43.049  26.980
H  55.889  56.264  26.630
H  49.608  38.063  30.346
H  45.561  39.926  32.766
H  59.767  66.309  54.769
H  59.175  66.610  53.380
H  45.829  41.291  33.474
H  47.736  61.130  40.295
H  48.988  60.578  39.556
H  33.897  59.570  32.240
H  32.654  60.460  32.423
H  72.124  58.662  44.054
H  59.900  49.278  52.922
H  50.050  38.416  31.777
H  62.548  31.866  61.814
H  55.825  57.568  25.791
H  58.825  69.419  61.004
H  29.571  42.364  53.988
H  30.084  43.569  54.791
H  42.540  77.865  51.006
H  59.194  64.013  28.678
H  45.116  59.708  61.208
H  32.382  51.294  52.845
H  32.781  52.792  52.976
H  41.065  43.766  39.581
H  70.490  34.002  52.973
H  69.059  33.537  52.622
H  69.854  43.595  69.549
H  41.729  42.634  40.444
H  65.490  61.309  42.718
H  57.605  65.000  56.074
H  56.903  66.126  55.299
H  39.770  34.014  48.921
H  54.657  65.602  50.115
H  39.719  32.680  49.735
H  59.219  63.972  30.237
H  45.601  62.598  43.675
H  46.569  62.120  44.804
H  57.777  68.298  61.043
H  66.345  62.624  42.702
H  69.463  38.565  62.642
H  33.184  50.385  62.494
H  53.040  36.694  65.889
H  39.038  57.426  58.107
H  38.938  58.314  56.822
H  61.068  57.580  43.083
H  44.178  31.297  38.838
H  44.769  32.730  38.880
H  56.662  51.062  72.685
H  57.477  51.675  71.500
H  42.819  34.408  48.102
H  53.347  35.780  63.608
H  41.907  34.182  49.321
H  59.671  58.131  43.539
H  52.044  26.777  50.950
H  48.281  61.314  72.526
H  40.515  37.419  65.137
H  39.115  37.226  64.514
H  54.423  24.862  45.762
H  57.461  54.219  68.755
H  57.470  55.573  67.982
H  55.958  24.561  45.816
H  52.119  35.170  62.961
H  36.388  42.346  56.474
H  36.405  42.319  58.012
H  49.059  59.971  72.707
H  48.826  46.357  28.975
H  34.645  31.042  58.961
H  33.767  55.856  46.186
H  39.474  71.101  60.314
H  28.230  32.782  54.014
H  39.680  49.682  72.255
H  39.859  49.001  73.631
H  27.044  33.259  54.863
H  36.956  70.206  45.270
H  62.303  26.007  46.239
H  71.312  53.598  61.070
H  70.025  53.418  60.229
H  74.171  52.940  56.170
H  34.035  30.959  60.390
H  64.651  55.837  32.064
H  73.039  53.686  55.400
H  46.854  65.691  32.340
H  48.098  65.346  31.494
H  62.051  61.270  41.090
H  63.548  61.377  41.468
H  48.082  46.624  27.674
H  46.663  30.185  52.699
H  62.777  26.417  47.681
H  40.965  65.490  30.440
H  53.611  26.937  50.765
H  65.148  54.619  32.890
H  46.760  25.439  53.333
H  44.805  30.942  30.831
H  50.628  60.273  35.348
H  72.631  56.929  41.546
H  72.211  56.422  40.140
H  69.141  59.737  49.041
H  26.749  66.665  46.101
H  26.080  65.431  46.728
H  70.160  60.829  48.739
H  47.667  37.392  71.899
H  49.034  37.245  72.596
H  48.134  66.665  41.415
H  46.701  66.132  41.252
H  74.101  43.559  57.225
H  31.415  59.809  37.106
H  30.504  46.921  46.517
H  31.253  61.356  37.081
H  60.565  47.821  40.418
H  61.671  46.705  40.329
H  56.280  65.655  64.335
H  54.784  65.264  64.258
H  36.511  36.422  28.418
H  51.829  76.547  41.815
H  52.114  75.733  43.091
H  36.960  37.813  28.914
H  29.066  47.544  46.247
H  66.753  61.471  52.069
H  66.489  59.987  51.693
H  59.169  68.327  39.854
H  50.634  59.473  36.671
H  44.701  29.416  30.434
H  70.643  45.956  49.284
H  70.164  44.491  49.234
H  64.257  51.125  40.707
H  63.124  52.076  41.121
H  46.871  24.024  52.611
H  67.942  54.410  40.437
H  68.540  53.673  41.655
H  37.541  48.692  43.466
H  75.524  44.252  57.182
H  37.884  50.197  43.197
H  35.336  40.512  41.002
H  35.048  39.186  40.257
H  33.473  30.973  48.960
H  50.953  71.282  50.582
H  50.926  72.500  49.570
H  34.874  30.388  48.942
H  59.433  67.125  38.012
H  60.813  67.192  37.273
H  55.822  63.813  68.150
H  55.379  64.684  69.366
H  59.163  68.126  41.390
H  58.411  49.627  52.991
H  47.553  53.334  29.673
H  70.616  58.357  43.937
H  57.155  71.145  57.291
H  35.452  39.757  50.778
H  36.075  40.922  49.977
H  65.856  39.676  55.771
H  68.649  45.185  56.548
H  69.781  45.104  57.606
H  46.913  63.077  29.822
H  46.497  64.565  30.098
H  70.637  64.319  39.483
H  44.441  59.212  48.099
H  43.177  60.052  47.772
H  51.951  68.740  42.708
H  69.589  63.126  39.518
H  53.146  69.663  43.071
H  41.603  66.081  61.072
H  47.851  51.311  36.628
H  57.625  70.445  46.605
H  31.722  55.088  48.931
H  31.114  55.967  47.849
H  58.620  70.062  45.455
H  70.116  41.758  59.158
H  68.599  42.122  59.199
H  32.662  59.694  29.770
H  57.918  34.371  54.548
H  33.334  61.062  29.950
H  64.718  38.669  55.789
H  31.180  45.424  28.597
H  42.690  56.488  53.455
H  42.163  57.917  53.274
H  49.945  50.673  60.973
H  31.635  65.451  42.293
H  31.486  66.194  43.616
H  65.276  44.258  53.273
H  66.184  43.129  52.728
H  60.470  44.930  73.056
H  46.356  29.434  38.270
H  59.187  58.702  71.106
H  40.867  60.147  68.392
H  57.131  63.050  72.449
H  39.769  60.480  67.384
H  43.125  74.279  50.759
H  42.053  73.527  51.699
H  39.513  36.789  26.609
H  38.267  37.461  27.182
H  57.517  54.363  43.711
H  50.973  37.504  27.956
H  52.440  37.276  28.396
H  57.187  55.864  43.738
H  31.132  45.172  30.109
H  60.986  66.675  62.992
H  49.358  49.385  60.277
H  47.366  49.931  36.180
H  35.333  41.642  59.801
H  51.885  58.366  23.523
H  52.549  57.709  22.282
H  39.764  74.923  51.609
H  56.930  38.611  45.042
H  60.897  51.409  54.973
H  45.378  61.915  31.680
H  46.489  61.646  32.769
H  62.307  51.437  55.635
H  38.315  39.494  44.006
H  65.680  36.502  31.562
H  48.745  55.254  36.685
H  35.187  54.305  65.344
H  45.154  26.861  47.448
H  40.853  32.218  54.817
H  42.133  31.406  54.992
H  69.261  46.960  63.069
H  70.082  45.790  62.449
H  62.122  55.721  46.880
H  46.866  75.565  57.255
H  74.566  38.435  54.374
H  57.466  72.969  63.608
H  57.432  72.707  62.084
H  35.874  53.554  64.158
H  34.619  42.548  60.808
H  44.066  48.904  63.361
H  49.004  53.984  37.520
H  42.300  54.657  57.074
H  56.772  34.025  53.624
H  41.699  54.205  58.390
H  70.248  59.203  54.402
H  71.729  58.855  54.166
H  58.810  64.112  68.799
H  55.188  70.155  42.375
H  56.152  69.605  43.435
H  58.914  63.857  70.338
H  36.693  67.605  48.519
H  45.408  48.211  63.655
H  36.547  69.056  47.998
H  29.488  42.454  41.404
H  71.740  52.702  63.359
H  72.992  51.756  63.435
H  57.521  39.436  43.861
H  40.160  76.047  52.597
H  61.994  54.963  45.508
H  66.520  31.854  37.637
H  65.381  32.795  38.152
H  66.990  68.466  37.794
H  66.468  69.906  37.904
H  29.855  41.440  40.300
H  66.910  40.524  36.066
H  68.127  39.995  35.310
H  64.727  54.314  53.670
H  53.072  67.825  36.016
H  55.711  32.636  61.002
H  62.326  62.732  58.926
H  60.953  63.267  59.413
H  47.776  34.966  54.970
H  39.271  40.365  55.914
H  40.130  27.149  47.624
H  59.094  70.096  38.387
H  55.573  40.951  36.434
H  34.524  48.852  30.629
H  51.593  68.145  35.565
H  42.035  49.999  31.123
H  65.803  31.871  41.819
H  65.513  30.345  41.889
H  27.579  37.895  42.654
H  59.402  31.678  47.734
H  60.973  31.644  47.848
H  28.040  39.015  41.666
H  61.294  59.852  28.419
H  60.988  59.059  29.695
H  54.935  42.378  36.273
H  31.558  55.248  42.645
H  42.052  51.429  30.578
H  63.217  64.715  71.039
H  54.884  31.337  61.153
H  34.689  31.734  35.355
H  29.119  52.811  66.209
H  29.587  52.620  64.751
H  35.119  48.557  42.966
H  61.686  36.160  70.720
H  59.360  69.288  37.057
H  58.307  63.501  73.349
H  67.638  44.034  58.761
H  39.990  39.033  55.621
H  57.990  29.773  43.562
H  58.391  51.393  33.332
H  33.475  32.680  35.210
H  57.051  52.126  33.328
H  74.586  43.262  48.670
H  74.060  41.813  48.583
H  29.253  56.266  41.865
H  28.991  54.711  42.000
H  42.525  28.911  54.614
H  66.711  44.082  60.053
H  42.189  28.307  56.015
H  39.978  27.978  48.953
H  48.047  60.156  45.631
H  48.235  58.870  44.758
H  58.967  30.149  42.419
H  52.388  50.789  22.170
H  51.077  51.541  21.767
H  63.490  63.274  71.617
H  39.007  72.868  54.489
H  40.378  72.133  54.559
H  64.741  69.446  57.129
H  33.925  46.452  44.464
H  33.192  45.977  43.224
H  64.402  70.906  56.766
H  60.047  51.802  58.901
H  58.760  51.266  59.489
H  41.788  25.446  54.782
H  41.257  26.492  53.778
H  59.334  60.491  29.886
H  59.620  46.168  72.712
H  39.851  60.326  74.259
H  51.340  60.056  32.558
H  50.077  60.602  33.254
H  63.215  49.353  69.604
H  62.135  49.240  68.493
H  40.682  69.361  37.900
H  29.347  44.061  30.713
H  29.486  42.573  31.101
H  40.856  70.891  37.800
H  65.425  55.732  53.511
H  44.786  29.229  38.326
H  59.885  61.687  29.069
H  63.246  42.792  35.777
H  49.850  40.760  37.496
H  73.507  44.231  54.932
H  74.560  44.177  53.825
H  26.098  53.793  62.406
H  24.606  53.481  62.168
H  31.450  56.688  43.006
H  32.732  49.482  33.856
H  33.011  48.570  32.641
H  48.041  35.376  56.435
H  38.314  60.484  74.214
H  50.814  39.658  37.988
H  36.130  46.397  44.606
H  26.894  39.779  62.120
H  26.029  38.667  61.443
H  49.749  39.566  61.639
H  29.869  50.113  34.991
H  30.881  50.703  33.961
H  49.517  38.151  60.989
H  52.292  61.375  28.157
H  53.763  60.846  28.181
H  27.772  45.321  39.464
H  26.746  44.185  39.717
H  63.138  43.781  34.583
H  37.638  46.469  45.025
H  56.469  72.547  57.444
H  62.593  59.643  68.451
H  35.922  54.501  74.530
H  30.223  45.477  56.037
H  41.922  64.624  45.894
H  42.983  63.680  45.280
H  42.698  66.580  29.031
H  70.292  32.441  55.534
H  71.057  31.115  55.788
H  41.620  67.644  28.762
H  56.564  60.075  51.990
H  55.735  61.198  51.277
H  33.231  46.889  56.748
H  69.202  62.999  42.417
H  38.582  29.461  55.119
H  50.963  32.434  29.041
H  63.733  47.867  33.391
H  68.326  61.727  42.380
H  50.752  36.699  63.781
H  51.934  37.373  63.036
H  66.913  60.558  61.428
H  67.917  61.066  62.494
H  66.879  51.242  41.953
H  54.091  55.953  23.596
H  53.925  56.862  24.846
H  66.304  50.777  43.329
H  63.141  47.288  34.664
H  40.546  42.255  47.621
H  38.203  29.625  56.614
H  51.221  33.404  71.514
H  57.413  68.088  64.613
H  25.489  42.171  42.568
H  26.949  42.408  42.065
H  56.686  33.766  49.382
H  44.907  62.409  37.734
H  45.906  61.871  38.774
H  57.710  34.451  50.306
H  57.873  63.105  33.060
H  45.581  61.814  52.080
H  48.453  54.647  32.002
H  31.806  47.576  56.599
H  48.737  56.171  31.940
H  43.016  53.924  60.094
H  43.720  54.408  61.411
H  47.492  51.845  39.891
H  49.423  59.710  55.827
H  50.266  58.933  54.755
H  45.584  23.169  50.806
H  44.388  22.337  51.207
H  32.065  33.214  47.522
H  60.977  24.218  48.638
H  50.592  34.713  72.026
H  48.553  52.399  38.916
H  57.960  69.465  65.043
H  36.672  27.308  42.350
H  40.304  43.740  47.283
H  73.175  39.053  47.160
H  67.573  48.915  64.995
H  27.995  58.570  50.303
H  59.886  66.246  47.273
H  60.458  64.776  47.409
H  36.281  36.175  67.087
H  35.372  37.383  67.371
H  34.230  41.948  66.066
H  32.002  49.905  65.211
H  31.652  51.384  65.231
H  53.646  34.817  72.885
H  33.881  41.050  67.315
H  66.274  49.094  60.434
H  27.695  58.617  51.821
H  65.970  48.362  59.105
H  63.622  62.642  56.184
H  47.318  41.818  67.872
H  47.287  40.326  67.572
H  63.392  61.471  57.201
H  59.841  58.654  54.983
H  59.437  57.359  54.252
H  38.625  45.528  70.134
H  72.525  37.664  46.965
H  35.741  26.953  43.517
H  63.609  51.592  33.501
H  58.249  27.466  55.555
H  52.244  42.350  68.846
H  52.776  41.029  68.173
H  51.202  32.672  27.526
H  63.731  40.781  59.418
H  63.554  41.863  60.581
H  65.776  66.069  48.645
H  64.254  66.437  48.615
H  38.948  73.103  49.126
H  42.363  38.892  74.314
H  41.887  37.404  74.249
H  62.664  34.345  58.456
H  37.924  73.106  47.928
H  43.324  59.952  68.303
H  54.286  64.434  66.590
H  52.870  63.890  66.881
H  54.802  34.076  64.017
H  29.010  42.253  51.318
H  29.665  42.261  49.877
H  54.023  33.407  62.866
H  26.145  41.750  61.466
H  26.435  41.838  59.947
H  58.042  28.978  55.294
H  43.357  58.586  69.019
H  69.246  57.304  53.964
H  60.204  48.863  44.165
H  58.789  48.354  44.500
H  58.482  50.331  31.444
H  37.025  40.403  72.434
H  37.168  40.236  70.900
H  29.982  39.224  57.561
H  51.587  50.270  70.683
H  30.194  62.614  35.365
H  39.922  74.032  38.044
H  39.590  72.726  37.221
H  29.037  62.158  34.482
H  61.066  35.590  57.566
H  67.644  61.219  66.323
H  59.760  35.716  56.755
H  47.602  32.599  52.990
H  36.179  51.843  35.712
H  42.737  52.134  53.731
H  41.648  52.630  52.781
H  69.381  34.821  42.336
H  70.895  34.716  42.704
H  49.389  46.911  31.971
H  49.820  41.158  74.996
H  65.056  39.890  31.971
H  68.263  68.180  48.321
H  48.552  33.133  51.891
H  66.753  68.472  48.287
H  67.371  61.113  64.827
H  35.491  55.276  47.464
H  48.767  35.208  42.304
H  49.409  29.241  63.334
H  36.557  31.381  34.300
H  50.784  28.765  62.830
H  33.495  39.312  49.847
H  32.680  40.554  50.310
H  61.614  51.705  49.945
H  72.471  35.838  39.862
H  71.686  34.513  39.880
H  61.523  50.316  49.287
H  57.221  49.350  31.397
H  65.277  74.159  53.360
H  69.524  54.761  63.441
H  69.439  54.991  61.895
H  27.310  59.932  55.229
H  26.572  60.971  54.305
H  50.138  50.017  71.076
H  31.073  38.129  57.415
H  50.031  45.913  30.988
H  46.674  31.844  70.429
H  46.189  32.332  71.806
H  36.413  54.112  47.752
H  65.956  72.898  52.784
H  63.751  39.449  32.663
H  47.789  69.654  66.089
H  49.084  70.442  66.039
H  72.200  39.471  57.106
H  66.285  46.876  52.152
H  66.578  47.811  53.365
H  53.819  68.077  57.068
H  52.878  66.887  57.273
H  63.870  36.377  41.016
H  31.507  31.768  47.438
H  62.749  36.122  42.090
H  71.703  65.166  41.206
H  52.026  58.433  67.237
H  60.813  44.287  56.363
H  52.621  57.108  67.785
H  57.027  42.994  60.649
H  38.816  46.081  29.249
H  31.678  50.714  27.915
H  32.670  51.438  26.984
H  39.088  45.465  30.625
H  60.061  23.659  47.491
H  39.579  44.288  50.150
H  46.713  62.268  51.136
H  71.201  54.612  56.190
H  58.234  62.560  31.644
H  57.657  41.575  60.629
H  60.089  42.943  56.623
H  71.217  39.295  55.957
H  36.237  47.408  39.883
H  45.481  31.917  34.184
H  45.827  30.920  35.334
H  73.005  52.913  49.815
H  61.525  41.869  26.702
H  60.173  42.645  26.598
H  74.369  52.226  49.511
H  49.441  58.694  28.146
H  50.075  57.353  27.652
H  64.223  36.033  55.800
H  63.445  34.628  55.796
H  59.773  31.858  52.085
H  72.382  49.942  54.626
H  72.083  50.152  56.143
H  58.862  33.128  52.144
H  30.493  55.669  51.553
H  30.601  56.939  50.726
H  49.333  40.494  76.319
H  67.178  55.291  61.243
H  72.378  55.631  56.227
H  68.839  58.417  52.910
H  71.993  66.658  41.484
H  38.194  44.927  50.510
H  37.464  46.448  40.164
H  37.832  46.193  71.262
H  47.816  36.434  42.480
H  41.043  33.808  39.096
H  67.525  47.358  65.259
H  49.945  35.764  66.073
H  37.296  47.673  53.393
H  36.082  48.570  52.914
H  51.137  34.813  66.287
H  42.615  60.265  66.250
H  41.340  61.112  65.967
H  57.104  46.631  69.138
H  34.546  46.562  47.286
H  48.595  41.846  32.261
H  48.468  40.326  32.409
H  74.519  40.850  46.610
H  41.220  28.958  67.318
H  61.596  38.671  46.454
H  39.446  71.419  45.582
H  39.252  72.976  45.353
H  67.423  41.687  49.899
H  66.285  42.472  50.626
H  41.791  46.518  35.751
H  68.084  39.411  66.535
H  68.465  38.519  65.269
H  41.055  47.847  36.050
H  39.893  29.577  66.812
H  50.388  53.958  34.109
H  32.283  32.166  38.685
H  75.477  40.043  47.554
H  59.544  69.656  68.781
H  29.372  59.573  43.049
H  28.305  59.868  44.115
H  33.934  47.891  46.758
H  75.230  51.967  44.341
H  76.316  51.710  43.275
H  60.015  35.799  47.935
H  35.545  29.729  56.181
H  42.655  43.397  74.317
H  35.371  38.024  54.079
H  54.565  33.824  72.147
H  60.138  69.105  67.434
H  64.209  40.627  54.659
H  67.264  59.645  42.541
H  63.567  41.663  53.678
H  63.572  62.457  52.404
H  65.010  62.868  52.191
H  38.937  62.073  30.332
H  40.120  62.984  30.779
H  74.479  50.528  57.026
H  34.844  38.314  55.514
H  75.832  51.264  56.886
H  55.587  46.519  69.230
H  65.813  59.167  42.333
H  53.307  74.471  49.171
H  35.859  44.262  64.182
H  41.806  75.668  56.631
H  60.151  43.592  41.054
H  60.610  45.028  41.292
H  55.448  36.829  74.029
H  55.326  38.386  74.037
H  33.420  45.793  29.523
H  33.362  64.531  45.947
H  34.133  63.324  46.500
H  33.476  47.123  28.697
H  32.945  47.559  54.688
H  31.443  47.970  54.458
H  56.724  38.132  29.801
H  31.941  64.923  47.566
H  31.469  68.369  42.533
H  46.896  44.633  40.757
H  38.120  52.543  58.296
H  40.854  57.586  30.749
H  39.587  58.240  30.198
H  38.815  53.717  57.597
H  42.530  45.326  65.274
H  43.303  46.249  66.312
H  37.049  48.377  64.629
H  38.438  48.329  63.968
H  36.857  63.880  50.738
H  32.975  33.567  38.647
H  56.634  63.546  64.850
H  56.475  39.503  30.469
H  50.046  24.363  40.465
H  50.861  25.263  39.499
H  41.443  76.816  55.590
H  35.959  45.224  41.816
H  35.194  46.532  42.166
H  43.029  41.771  56.729
H  44.489  42.197  56.836
H  64.441  40.993  35.427
H  41.142  43.103  74.284
H  50.554  54.862  32.835
H  57.387  62.230  64.519
H  61.926  37.755  45.234
H  44.526  37.274  36.909
H  35.158  42.922  64.379
H  73.369  36.753  45.148
H  44.878  57.478  22.599
H  45.669  58.060  23.782
H  74.109  36.631  43.827
H  68.882  65.888  42.079
H  69.806  67.115  41.975
H  61.470  37.233  59.494
H  59.994  37.644  59.048
H  43.515  38.176  36.215
H  52.891  73.081  48.662
H  56.575  39.521  49.463
H  42.119  51.611  69.492
H  42.122  52.192  63.080
H  38.911  44.986  24.488
H  42.427  33.113  38.946
H  33.629  31.169  46.481
H  54.138  71.305  39.222
H  53.399  38.890  63.576
H  52.535  39.266  64.804
H  52.958  48.837  35.272
H  61.854  47.771  60.218
H  61.523  48.392  58.779
H  42.910  50.887  63.005
H  39.011  51.062  74.079
H  28.591  35.574  45.921
H  43.008  64.346  48.683
H  43.862  65.590  49.001
H  28.921  35.829  47.414
H  55.533  71.813  38.871
H  35.086  30.985  45.984
H  45.346  56.125  61.596
H  44.879  57.542  62.133
H  67.656  58.802  63.040
H  36.748  65.073  38.534
H  37.519  51.422  74.097
H  36.885  63.674  39.224
H  51.610  71.391  47.722
H  45.580  56.526  72.111
H  41.108  65.418  48.786
H  43.689  43.787  35.933
H  70.138  35.723  35.550
H  39.309  76.398  54.582
H  38.620  74.993  54.633
H  70.230  42.299  49.621
H  63.640  71.607  47.601
H  62.516  72.524  48.106
H  69.218  42.648  48.493
H  44.661  33.937  44.457
H  46.767  57.038  73.018
H  43.367  34.364  45.179
H  32.548  42.807  45.880
H  32.281  38.069  48.437
H  69.350  37.070  35.593
H  40.162  66.015  47.695
H  33.363  38.821  47.617
H  39.217  32.314  60.837
H  38.728  33.669  61.433
H  67.960  30.903  50.890
H  68.728  29.938  49.951
H  50.103  71.812  47.641
H  31.095  43.365  45.976
H  66.474  57.926  62.606
H  69.259  46.251  41.696
H  67.824  46.225  42.303
H  69.058  33.152  49.019
H  47.776  38.063  31.607
H  27.646  55.637  51.608
H  43.845  42.272  36.106
H  65.457  41.352  34.354
H  30.954  64.108  46.701
H  57.407  35.414  32.921
H  35.196  28.257  56.348
H  22.301  42.539  49.973
H  23.598  41.730  50.134
H  68.384  34.091  47.993
H  68.082  50.225  60.838
H  60.468  60.172  43.752
H  71.680  63.539  48.325
H  70.352  62.875  47.842
H  60.944  60.348  45.264
H  55.696  41.735  33.295
H  54.118  41.784  33.406
H  58.354  36.636  32.827
H  61.358  36.588  47.589
H  57.356  39.915  50.708
H  43.108  50.465  69.755
H  69.085  51.408  60.546
H  46.656  38.861  30.863
H  44.540  48.039  57.430
H  45.147  47.739  56.030
H  43.248  64.448  37.071
H  42.936  65.221  35.772
H  36.965  62.596  49.874
H  51.552  49.481  35.221
H  48.110  70.962  60.807
H  49.273  70.564  59.794
H  28.627  56.043  50.476
H  43.906  43.105  38.216
H  45.081  44.049  37.696
H  73.428  56.810  54.107
H  47.011  58.758  61.797
H  46.853  57.683  60.680
H  73.704  55.289  53.856
H  41.390  75.553  44.587
H  40.750  74.535  45.585
H  43.626  36.730  28.655
H  42.254  37.398  28.846
H  45.295  35.751  46.288
H  62.038  55.219  30.257
H  63.432  54.648  30.660
H  44.504  37.011  46.719
H  36.681  64.116  44.707
H  35.102  64.053  44.644
H  38.732  43.452  24.612
H  63.814  60.557  68.463
H  40.583  40.134  33.165
H  53.278  40.906  24.543
H  60.589  37.733  49.314
H  64.605  45.916  30.984
H  64.116  47.381  30.790
H  48.174  63.317  60.732
H  45.564  69.489  38.084
H  45.153  68.499  36.967
H  47.170  64.276  60.013
H  50.120  39.603  27.255
H  49.049  38.856  28.104
H  62.748  43.713  54.325
H  59.920  63.072  54.389
H  64.113  43.520  55.062
H  22.207  51.762  51.036
H  21.192  50.761  51.623
H  31.125  45.969  36.346
H  63.361  37.676  50.672
H  64.741  36.955  50.536
H  50.578  56.666  30.543
H  50.347  58.172  30.339
H  39.307  53.505  75.406
H  51.813  72.158  39.824
H  51.544  72.329  38.304
H  30.429  44.585  36.104
H  40.524  52.616  75.118
H  61.394  63.625  54.620
H  46.050  56.514  53.602
H  47.137  56.897  38.522
H  65.723  68.599  50.240
H  42.148  48.045  60.321
H  43.379  47.852  61.255
H  34.389  40.963  27.590
H  35.551  41.216  26.611
H  45.737  58.556  38.179
H  56.792  38.114  33.434
H  55.520  37.580  32.799
H  67.387  50.084  58.717
H  46.527  57.498  52.497
H  60.627  39.069  50.067
H  66.339  30.649  46.371
H  66.984  29.282  46.600
H  37.610  31.145  59.813
H  37.930  38.382  40.772
H  37.427  39.858  40.676
H  37.088  29.972  58.928
H  63.594  33.664  45.459
H  63.476  32.933  44.095
H  45.633  40.425  71.365
H  46.655  39.280  71.420
H  68.283  49.154  57.859
H  45.995  55.875  38.705
H  46.613  26.492  47.837
H  36.943  51.664  34.362
H  48.690  60.471  70.491
H  45.845  52.349  28.746
H  31.923  61.074  59.909
H  35.140  70.861  53.390
H  46.411  51.784  27.385
H  56.005  31.859  29.824
H  54.522  31.738  29.464
H  29.306  61.002  57.658
H  28.280  62.052  57.166
H  62.869  37.318  65.504
H  53.533  27.974  31.682
H  52.016  38.602  40.040
H  62.324  38.734  65.793
H  31.153  61.826  58.761
H  57.314  51.474  48.212
H  35.941  57.102  54.419
H  56.653  50.135  47.801
H  63.697  54.973  48.433
H  66.551  37.184  56.929
H  66.903  36.318  55.753
H  64.623  56.176  48.168
H  41.686  72.457  61.165
H  50.751  39.210  40.670
H  57.067  42.498  40.386
H  34.802  47.944  62.752
H  40.844  53.340  26.021
H  39.361  33.115  65.475
H  44.284  35.973  48.702
H  43.233  36.259  49.738
H  58.282  71.856  36.510
H  42.791  70.638  64.862
H  41.969  71.875  65.206
H  57.004  71.449  37.299
H  53.467  28.055  59.305
H  54.342  29.325  59.283
H  47.364  73.872  59.949
H  36.372  47.892  62.445
H  46.174  74.774  60.329
H  39.759  34.564  65.064
H  54.875  28.633  31.322
H  55.710  28.517  48.719
H  58.291  44.104  26.596
H  57.984  42.579  26.709
H  36.858  47.132  37.141
H  37.069  45.598  37.515
H  39.320  53.011  26.039
H  34.752  45.109  36.815
H  34.894  43.518  37.024
H  56.498  28.382  50.027
H  66.759  69.740  50.424
H  44.480  59.443  38.172
H  27.224  57.704  57.728
H  46.648  46.095  29.344
H  40.766  71.620  43.381
H  54.404  45.626  63.968
H  53.174  46.530  63.751
H  51.632  32.732  54.422
H  51.541  31.263  54.813
H  35.406  57.947  32.384
H  30.326  38.454  60.913
H  29.842  38.992  62.258
H  36.942  57.771  32.452
H  46.548  44.543  29.354
H  35.238  64.196  40.616
H  31.972  42.666  67.176
H  31.042  42.952  65.949
H  28.336  58.133  65.719
H  56.234  36.907  36.467
H  57.413  37.882  36.585
H  55.367  31.530  40.052
H  31.803  41.487  54.574
H  69.829  52.498  62.285
H  71.533  50.781  66.719
H  59.691  71.504  66.652
H  34.053  65.202  40.771
H  60.037  70.498  65.511
H  42.203  71.132  43.170
H  42.918  50.112  77.695
H  29.442  46.823  56.165
H  28.354  50.637  51.362
H  46.303  26.888  55.216
H  29.688  51.413  51.449
H  30.453  64.509  44.604
H  58.074  30.569  34.407
H  56.871  31.543  34.248
H  34.615  62.391  49.246
H  34.089  61.664  47.955
H  65.736  34.092  36.202
H  44.278  49.472  77.284
H  37.141  53.595  74.523
H  64.238  34.222  35.791
H  31.441  53.507  44.867
H  32.148  54.352  45.986
H  25.471  43.523  63.516
H  60.938  26.777  59.565
H  28.422  49.780  59.432
H  28.236  48.223  59.460
H  27.540  57.166  66.623
H  30.603  56.851  55.363
H  31.916  56.406  56.017
H  40.463  70.537  61.366
H  48.895  25.431  43.916
H  63.432  59.855  73.581
H  62.015  59.251  73.648
H  60.096  51.227  30.332
H  61.603  51.144  30.494
H  41.935  33.140  60.701
H  71.269  62.868  41.582
H  72.296  61.704  41.585
H  63.924  38.152  29.756
H  64.545  36.851  29.212
H  73.836  37.906  57.117
H  58.078  35.817  37.910
H  75.166  38.603  56.755
H  40.898  34.265  60.778
H  46.389  65.895  61.264
H  59.185  49.738  70.807
H  71.118  50.390  33.452
H  72.569  50.861  33.321
H  26.766  57.039  34.885
H  61.876  44.423  45.606
H  61.786  42.906  45.733
H  26.124  58.004  35.942
H  56.906  36.393  38.759
H  70.810  61.556  50.982
H  71.767  60.362  50.838
H  60.297  50.757  71.069
H  51.597  78.506  49.114
H  50.093  78.606  49.353
H  68.322  52.715  62.526
H  58.162  36.433  72.672
H  58.015  36.516  74.229
H  63.905  61.337  61.036
H  45.260  70.769  44.233
H  44.452  69.755  43.405
H  64.270  62.541  60.116
H  70.970  51.148  65.317
H  49.728  41.405  56.466
H  34.455  56.159  68.213
H  35.400  56.509  67.039
H  27.678  62.802  59.149
H  60.971  59.334  38.481
H  60.895  57.811  38.707
H  27.456  64.124  59.856
H  51.898  34.971  29.484
H  50.369  35.057  29.548
H  61.091  52.354  69.338
H  60.540  51.192  68.491
H  27.783  59.135  57.922
H  48.360  25.433  45.396
H  50.128  39.991  55.930
H  56.043  32.925  40.326
H  46.647  66.612  59.911
H  42.779  71.381  60.968
H  53.097  42.328  24.040
H  54.442  62.184  55.889
H  49.466  61.809  70.387
H  56.356  26.885  34.645
H  31.613  56.431  36.514
H  31.473  57.873  35.966
H  49.575  75.953  60.273
H  29.988  67.797  46.708
H  28.531  67.453  47.145
H  48.200  76.591  60.140
H  30.769  32.124  61.999
H  31.409  33.186  62.952
H  70.874  53.799  39.835
H  54.951  26.292  34.769
H  70.226  53.449  38.503
H  61.468  45.937  32.841
H  47.568  48.630  21.592
H  61.941  34.597  51.088
H  63.212  35.477  51.092
H  21.825  56.122  48.587
H  22.890  57.197  49.006
H  73.580  64.503  42.696
H  64.286  34.130  53.347
H  64.380  33.460  51.970
H  72.719  63.939  43.920
H  37.408  56.950  39.602
H  55.092  61.044  59.905
H  47.240  30.165  68.857
H  37.505  35.213  52.127
H  60.715  64.938  69.488
H  61.801  65.992  69.876
H  67.858  55.438  51.910
H  66.864  56.578  52.136
H  26.390  65.470  52.771
H  33.235  40.377  52.904
H  34.221  39.256  52.576
H  33.662  51.808  31.827
H  47.341  50.126  21.255
H  63.982  40.230  57.353
H  64.223  41.757  57.543
H  36.664  34.806  53.337
H  36.806  52.566  61.483
H  35.032  49.877  56.652
H  26.302  50.931  59.705
H  25.950  52.434  59.691
H  35.851  50.651  57.754
H  33.884  38.900  66.808
H  33.033  37.954  65.858
H  75.182  57.627  47.441
H  73.676  57.918  47.538
H  47.914  31.411  68.247
H  38.219  52.509  60.852
H  50.622  65.282  37.126
H  56.589  60.650  60.012
H  71.432  56.266  35.872
H  56.376  42.926  69.694
H  32.265  65.678  35.966
H  31.388  64.419  35.670
H  62.255  42.340  39.137
H  49.821  34.677  68.948
H  51.044  34.904  69.860
H  28.353  43.002  62.922
H  28.912  44.219  62.180
H  38.174  44.317  47.103
H  32.617  50.074  50.882
H  62.146  43.687  39.808
H  31.052  49.824  51.046
H  37.198  32.545  33.459
H  56.550  44.409  70.124
H  68.115  56.203  60.375
H  39.675  41.377  33.180
H  46.744  28.610  66.933
H  68.480  49.148  48.513
H  69.737  48.305  48.885
H  47.331  27.204  66.639
H  41.482  32.595  43.529
H  40.854  31.351  44.226
H  39.061  45.221  46.218
H  71.675  54.801  36.156
H  52.049  58.702  43.793
H  37.837  56.956  29.804
H  63.694  51.562  53.200
H  29.298  47.486  54.064
H  28.132  48.490  53.950
H  65.049  51.983  52.623
H  50.211  74.029  38.624
H  48.761  74.402  39.087
H  42.597  59.401  71.009
H  42.710  60.833  70.456
H  37.033  57.031  41.087
H  60.871  44.683  32.156
H  37.328  55.691  29.051
H  57.440  65.263  67.550
H  63.550  33.330  59.210
H  52.480  60.215  43.925
H  29.198  36.824  58.791
H  28.651  35.328  58.666
H  30.392  47.965  58.762
H  31.373  46.857  59.316
H  51.238  25.738  34.393
H  48.108  45.424  54.584
H  46.824  44.587  54.305
H  52.683  25.931  34.876
H  43.842  46.048  30.262
H  36.402  58.209  58.227
H  35.566  56.890  58.317
H  50.352  66.788  36.818
H  34.325  49.191  58.879
H  39.509  51.501  62.316
H  56.058  65.698  67.020
H  51.185  58.922  39.254
H  41.225  54.715  54.831
H  39.135  61.306  38.254
H  39.931  60.653  37.075
H  50.716  51.558  64.883
H  29.994  62.628  55.933
H  71.663  53.772  67.174
H  34.029  47.670  58.924
H  71.487  54.169  68.654
H  71.233  66.006  59.405
H  26.001  52.480  56.100
H  53.942  41.026  50.528
H  52.475  40.576  50.268
H  27.265  53.175  55.511
H  60.285  64.620  61.434
H  61.681  64.889  60.789
H  64.292  58.579  38.805
H  63.401  58.976  37.593
H  40.066  56.488  55.763
H  70.294  64.979  60.104
H  56.581  32.788  65.127
H  39.959  51.929  63.700
H  45.122  62.221  72.181
H  35.787  58.578  54.037
H  23.386  55.422  42.796
H  24.481  56.493  42.660
H  30.419  63.001  54.469
H  56.821  62.861  45.567
H  51.552  57.691  40.105
H  66.866  29.309  53.279
H  65.336  29.165  53.390
H  28.452  42.501  35.688
H  76.110  39.857  50.509
H  44.432  62.113  70.776
H  77.225  40.656  51.211
H  63.452  52.360  58.295
H  62.031  52.034  57.840
H  65.040  56.931  64.548
H  63.601  57.397  64.843
H  43.433  34.005  50.913
H  49.263  51.991  64.516
H  43.858  33.185  49.651
H  58.173  62.614  46.289
H  58.311  62.944  55.836
H  58.897  63.523  57.156
H  29.784  42.722  34.998
H  55.475  32.007  65.915
H  40.047  55.420  56.934
H  35.694  55.371  62.078
H  40.882  31.169  37.215
H  54.364  28.935  62.206
H  40.267  66.051  71.129
H  41.562  66.723  71.711
H  34.173  50.384  32.179
H  54.259  45.718  26.057
H  40.674  73.960  58.135
H  37.895  29.784  49.928
H  44.209  51.055  22.759
H  65.060  51.771  33.020
H  40.288  30.896  38.627
H  69.173  42.364  38.315
H  59.038  41.008  45.018
H  60.055  40.503  46.113
H  60.979  72.158  39.730
H  32.444  46.468  50.612
H  33.531  47.109  49.695
H  60.046  72.407  38.506
H  51.852  39.024  43.316
H  53.118  38.192  42.879
H  43.096  50.031  23.066
H  26.018  64.607  53.998
H  69.518  43.703  37.632
H  55.633  28.521  61.375
H  57.266  36.249  44.330
H  56.317  35.578  45.319
H  36.949  54.556  62.478
H  50.560  57.167  77.575
H  50.730  55.801  78.261
H  40.343  55.516  53.812
H  35.839  72.195  53.023
H  37.703  28.722  48.807
H  44.525  46.038  31.637
H  34.134  55.185  51.305
H  55.376  45.363  25.042
H  47.484  41.002  27.456
H  56.913  70.189  40.211
H  57.394  69.898  41.643
H  46.595  42.131  28.035
H  70.774  57.722  39.011
H  70.995  57.743  37.448
H  51.221  53.790  65.501
H  51.053  53.570  64.008
H  57.223  45.547  58.241
H  32.614  54.913  51.338
H  57.772  44.466  59.194
H  39.710  74.736  57.178
H  71.526  52.329  42.822
H  70.524  52.777  41.728
H  55.574  62.917  56.628
H  61.739  41.185  55.922
H  42.728  36.462  57.951
H  45.886  28.853  52.714
H  70.977  50.317  46.220
H  72.326  49.865  46.876
H  64.435  66.672  41.676
H  41.668  36.460  26.927
H  42.448  46.926  68.941
H  37.071  46.869  51.026
H  62.036  51.655  62.268
H  60.801  42.375  63.085
H  58.751  47.187  67.017
H  64.319  36.028  59.958
H  63.327  67.733  41.727
H  63.385  36.422  58.789
H  58.873  54.452  61.388
H  44.666  27.727  42.608
H  40.908  67.046  37.732
H  41.400  66.946  36.268
H  45.423  26.751  41.558
H  57.417  25.615  36.486
H  56.299  26.151  37.391
H  59.763  43.516  63.176
H  43.562  28.009  45.933
H  40.445  62.768  67.764
H  57.369  54.428  61.423
H  71.465  51.301  59.242
H  43.253  42.225  23.946
H  63.394  47.544  55.257
H  65.214  42.422  67.765
H  65.353  40.917  68.214
H  57.452  61.821  62.349
H  41.115  39.166  29.558
H  28.808  43.944  42.992
H  28.381  45.053  42.001
H  40.891  35.112  26.997
H  38.083  51.803  32.515
H  39.498  52.300  32.759
H  55.596  69.402  57.088
H  44.038  43.531  24.167
H  66.915  37.575  40.697
H  54.668  70.281  56.238
H  31.716  59.757  56.895
H  30.877  58.488  57.269
H  62.496  72.969  53.745
H  63.607  72.695  52.708
H  58.992  46.470  42.845
H  62.135  48.837  45.247
H  63.282  48.632  46.251
H  58.898  46.411  41.304
H  64.678  47.711  54.433
H  67.123  38.448  41.979
H  62.479  43.557  43.097
H  70.958  49.840  59.183
H  45.075  55.034  36.853
H  49.131  58.267  25.077
H  46.880  37.728  40.960
H  43.270  58.598  44.723
H  43.959  59.521  45.720
H  45.733  38.266  41.859
H  63.921  32.304  49.436
H  64.283  33.800  49.652
H  39.104  32.257  32.408
H  34.238  36.460  56.507
H  25.632  51.939  65.348
H  50.293  58.860  25.867
H  26.486  52.794  64.394
H  33.316  45.861  34.097
H  36.642  45.532  53.434
H  40.044  67.228  44.136
H  39.100  68.221  43.402
H  41.635  44.680  67.968
H  40.105  44.355  67.577
H  46.338  34.103  68.185
H  37.353  54.825  27.026
H  38.899  54.813  27.161
H  45.871  32.639  68.413
H  65.432  55.296  28.725
H  41.969  62.891  67.940
H  55.737  45.243  74.459
H  39.687  32.233  33.836
H  45.697  53.754  37.449
H  62.699  64.295  35.306
H  63.493  63.325  36.203
H  35.684  35.936  56.795
H  49.935  32.420  68.266
H  51.321  32.183  68.783
H  44.495  26.934  45.363
H  57.634  46.337  66.321
H  29.981  62.501  52.378
H  67.505  63.256  34.527
H  56.321  46.508  73.833
H  51.701  37.429  65.735
H  37.615  53.573  36.046
H  37.937  53.487  37.537
H  25.776  65.656  50.609
H  57.396  65.461  42.470
H  58.552  66.443  42.638
H  59.517  48.344  65.294
H  61.058  48.464  65.367
H  71.622  53.037  33.746
H  67.815  61.816  34.089
H  72.878  52.883  34.622
H  26.649  66.958  50.610
H  65.442  56.874  28.563
H  61.970  44.971  43.439
H  51.392  38.994  24.740
H  42.911  59.296  36.656
H  61.677  62.163  43.816
H  34.268  65.548  51.919
H  39.808  49.002  31.171
H  38.667  50.014  31.225
H  41.668  64.990  63.051
H  42.038  66.410  63.550
H  58.584  49.764  48.857
H  56.837  49.544  35.671
H  56.479  51.044  35.533
H  37.746  62.816  68.463
H  59.520  48.605  49.204
H  42.171  23.546  53.737
H  33.611  65.573  53.360
H  42.019  22.858  52.373
H  49.618  50.188  73.699
H  41.176  58.079  40.960
H  42.618  58.303  41.538
H  49.415  48.869  72.858
H  52.235  69.797  36.860
H  53.586  69.491  37.586
H  29.543  41.337  62.063
H  43.378  60.377  35.645
H  31.062  41.282  61.971
H  36.599  59.894  56.606
H  48.364  67.027  37.892
H  54.359  56.108  39.111
H  54.800  56.236  40.589
H  52.952  58.889  28.921
H  61.551  45.137  58.299
H  61.625  44.634  59.804
H  68.296  34.905  57.622
H  69.779  34.849  57.229
H  38.031  43.005  44.774
H  68.831  44.701  32.365
H  69.789  44.547  31.168
H  49.020  49.613  24.583
H  37.292  44.205  44.070
H  48.398  48.748  32.875
H  35.168  52.454  67.169
H  33.616  52.628  67.000
H  34.763  44.848  48.612
H  25.874  59.933  44.954
H  24.356  59.613  45.133
H  33.206  44.867  48.516
H  66.468  62.231  49.543
H  67.828  61.480  49.417
H  48.700  68.568  37.969
H  48.251  49.011  34.389
H  59.446  49.095  77.065
H  58.781  55.779  51.431
H  60.159  62.459  43.674
H  47.838  51.604  62.830
H  37.424  65.201  60.227
H  57.270  55.712  51.723
H  50.451  47.850  29.344
H  66.311  47.859  72.196
H  74.011  41.787  36.306
H  72.600  41.755  35.672
H  42.617  39.526  29.553
H  31.553  47.583  52.267
H  32.572  48.621  52.727
H  47.351  51.327  61.396
H  64.080  73.225  40.343
H  32.868  36.002  65.019
H  69.989  53.930  34.942
H  69.282  53.027  35.959
H  32.754  35.261  63.680
H  66.303  47.839  73.720
H  51.447  47.733  30.530
H  57.028  64.992  44.998
H  58.270  64.801  45.915
H  58.379  48.044  77.426
H  50.098  38.271  25.072
H  63.549  71.790  40.301
H  37.648  65.990  58.934
H  45.924  41.016  60.834
H  60.991  53.752  36.874
H  65.056  50.285  68.012
H  42.042  47.532  67.554
H  48.489  72.650  65.116
H  24.815  47.511  61.609
H  23.900  48.584  62.261
H  57.547  53.530  49.098
H  58.314  34.660  61.273
H  57.656  36.041  60.975
H  58.831  53.663  48.243
H  49.358  55.461  65.375
H  59.686  53.092  37.420
H  49.161  54.666  64.061
H  30.455  34.376  61.395
H  47.153  44.404  26.332
H  49.295  73.972  65.359
H  66.470  50.351  67.357
H  47.933  45.416  25.478
H  60.943  44.545  53.475
H  59.809  43.820  52.688
H  64.085  58.196  53.514
H  65.518  58.107  52.929
H  45.157  39.737  61.276
H  30.807  35.501  60.371
H  55.413  41.014  68.302
H  40.986  69.298  43.247
H  55.033  40.999  69.823
H  32.153  35.603  44.624
H  42.443  36.298  46.839
H  26.657  63.839  40.625
H  27.835  63.917  39.592
H  33.625  67.873  54.287
H  34.582  67.534  55.493
H  48.733  71.320  50.735
H  35.358  69.853  43.788
H  34.373  68.678  43.817
H  48.188  69.936  51.309
H  32.460  34.925  43.275
H  44.255  57.892  31.228
H  64.303  70.947  36.823
H  63.641  72.163  37.509
H  52.195  41.035  72.535
H  45.358  42.863  67.710
H  46.232  43.557  68.802
H  44.267  52.528  62.676
H  43.951  34.921  71.366
H  32.913  62.072  64.147
H  51.871  40.098  54.592
H  39.391  65.000  43.537
H  43.857  56.440  31.588
H  38.176  65.971  43.628
H  41.165  37.181  46.961
H  27.484  59.883  47.638
H  43.590  37.831  33.817
H  42.991  42.921  59.020
H  47.156  41.952  62.828
H  43.564  44.361  59.303
H  46.906  23.487  43.889
H  72.007  56.775  59.213
H  70.593  56.464  58.634
H  30.140  39.833  64.354
H  28.679  40.269  64.698
H  63.641  59.138  42.721
H  28.955  60.455  47.547
H  68.912  48.333  46.387
H  62.486  60.126  42.967
H  65.955  66.804  54.443
H  66.384  65.440  55.026
H  56.130  65.754  34.713
H  70.771  32.026  42.482
H  40.895  39.755  65.786
H  40.090  38.863  66.776
H  52.364  40.537  73.992
H  30.405  45.861  62.255
H  31.348  44.873  61.516
H  70.424  48.286  46.722
H  42.636  37.061  32.870
H  36.631  41.028  64.401
H  34.531  57.249  38.948
H  35.206  57.020  29.193
H  57.734  30.154  66.915
H  58.061  31.392  66.053
H  35.842  56.780  27.815
H  42.442  72.279  49.955
H  42.766  71.254  48.794
H  60.307  50.909  24.362
H  60.526  51.839  23.188
H  49.924  68.323  64.911
H  31.396  52.675  63.459
H  35.499  44.256  69.710
H  49.336  68.977  63.662
H  56.707  38.941  67.450
H  55.801  39.297  66.219
H  48.134  38.232  66.435
H  47.189  37.613  65.361
H  51.902  67.905  37.918
H  49.472  49.803  29.227
H  49.174  51.169  28.630
H  52.870  66.720  38.153
H  30.980  54.203  63.752
H  42.788  48.827  37.803
H  50.582  61.377  59.737
H  34.981  58.504  39.724
H  35.603  45.502  68.827
H  50.722  59.870  60.179
H  67.390  42.782  36.249
H  67.137  42.866  34.708
H  62.380  53.265  67.806
H  64.536  43.653  70.755
H  65.676  43.687  69.711
H  63.827  53.830  67.720
H  51.825  38.499  54.413
H  38.374  41.131  61.129
H  35.571  46.388  29.337
H  35.128  45.780  27.975
H  32.699  60.544  63.986
H  44.518  33.632  31.845
H  42.765  73.135  36.000
H  44.487  33.037  30.425
H  55.783  48.971  24.345
H  55.827  50.191  25.254
H  56.480  48.816  27.387
H  56.331  50.327  27.404
H  27.008  53.538  50.056
H  36.400  40.916  62.868
H  39.739  41.804  61.373
H  45.636  52.814  63.397
H  42.536  72.213  37.276
H  62.111  64.317  57.425
H  60.821  65.149  57.093
H  28.557  34.974  41.385
H  64.724  30.846  51.859
H  43.821  73.002  39.064
H  44.655  74.257  38.616
H  53.056  60.488  68.846
H  52.408  61.344  67.782
H  41.677  28.457  32.686
H  63.402  75.137  45.321
H  62.009  75.814  45.324
H  41.902  30.011  32.431
H  50.661  33.065  36.073
H  62.259  57.792  45.168
H  49.559  33.655  36.979
H  58.016  60.407  62.504
H  56.870  66.119  33.409
H  44.554  63.606  35.028
H  52.787  49.404  77.858
H  58.722  41.592  32.903
H  57.476  41.788  31.993
H  53.206  50.887  77.716
H  48.064  53.833  60.600
H  49.104  54.504  59.700
H  46.202  60.623  68.690
H  60.814  52.588  62.152
H  46.458  61.504  67.433
H  63.723  57.854  44.611
H  68.869  35.489  55.307
H  56.389  46.996  60.241
H  33.151  73.423  50.024
H  34.001  72.331  50.715
H  55.329  46.412  59.265
H  58.299  63.958  37.238
H  59.840  63.842  37.497
H  35.310  48.695  66.387
H  35.190  49.685  67.609
H  35.741  47.339  50.319
H  31.056  61.409  52.377
H  65.384  29.621  51.203
H  31.983  46.627  34.189
H  38.046  42.560  52.400
H  38.566  41.407  53.282
H  42.099  68.186  43.178
H  52.249  69.022  59.231
H  35.006  35.607  32.764
H  35.060  35.668  34.337
H  51.133  68.272  58.497
H  64.131  50.399  60.558
H  64.183  51.449  61.732
H  69.503  36.254  54.101
H  38.382  45.422  53.444
H  44.501  62.861  33.644
H  22.136  44.413  52.839
H  21.764  44.145  51.360
H  49.939  38.867  70.485
H  54.832  37.448  57.913
H  48.614  36.835  28.824
H  31.743  40.056  56.510
H  33.034  39.203  56.363
H  54.389  36.741  56.648
H  60.360  23.463  52.068
H  59.884  24.915  52.016
H  38.707  69.952  41.495
H  39.535  71.262  41.508
H  67.460  53.920  54.884
H  48.508  76.810  45.922
H  49.183  73.571  48.788
H  47.470  77.972  45.667
H  46.517  23.227  42.397
H  52.079  31.827  48.089
H  51.156  30.555  48.231
H  47.478  43.138  61.891
H  69.290  31.635  42.473
H  28.672  35.388  39.914
H  64.591  41.780  42.791
H  65.313  40.469  42.399
H  49.247  74.680  49.843
H  67.691  54.150  56.405
H  54.410  35.144  53.655
H  58.739  24.905  38.715
H  47.771  31.877  34.731
H  66.588  49.417  50.183
H  48.554  33.216  34.604
H  30.866  32.001  41.302
H  29.888  33.172  41.589
H  57.108  42.914  37.544
H  41.045  26.870  39.813
H  41.441  28.416  39.899
H  58.504  42.269  37.601
H  59.416  55.414  37.575
H  60.570  55.630  38.565
H  40.595  71.263  50.635
H  40.038  72.668  50.944
H  67.308  48.647  51.296
H  47.614  35.892  28.140
H  43.514  36.112  72.260
H  50.978  38.632  71.603
H  31.008  50.665  58.426
H  29.611  51.133  57.940
H  36.081  75.049  50.730
H  37.271  74.261  50.162
H  53.701  35.588  52.334
H  58.174  26.265  39.163
H  72.490  60.733  45.429
H  46.777  22.595  45.921
H  45.612  21.871  45.233
H  73.350  62.035  45.425
H  56.154  51.591  29.726
H  62.365  50.522  39.112
H  75.431  42.271  42.510
H  74.356  41.139  42.269
H  32.672  44.392  36.410
H  64.544  29.184  58.480
H  43.811  26.528  52.902
H  40.039  33.498  46.482
H  32.160  56.099  31.098
H  35.866  61.073  55.881
H  55.727  51.532  31.230
H  48.341  64.085  28.448
H  45.998  28.612  48.819
H  47.283  28.145  49.525
H  49.022  63.680  68.573
H  62.021  36.397  55.465
H  60.768  36.128  54.590
H  47.546  63.289  68.861
H  35.760  65.498  43.113
H  36.670  64.472  42.419
H  33.532  56.674  31.537
H  61.524  62.451  35.537
H  48.308  62.697  27.728
H  76.042  52.068  39.690
H  62.060  51.942  38.564
H  47.242  21.992  53.274
H  43.249  26.450  58.037
H  42.070  26.078  57.105
H  70.559  62.454  45.544
H  70.397  57.670  41.865
H  41.509  34.106  46.364
H  55.784  52.938  40.433
H  33.426  51.119  48.547
H  65.804  28.425  58.889
H  71.442  54.751  53.825
H  62.838  32.144  57.480
H  46.993  21.728  51.743
H  63.636  32.357  56.169
H  62.284  49.875  33.741
H  61.646  49.022  34.880
H  63.375  46.849  47.543
H  63.774  45.726  48.519
H  71.296  43.579  58.898
H  34.718  51.816  49.120
H  71.824  45.018  59.141
H  44.011  25.863  54.320
H  39.420  68.157  32.513
H  40.541  67.448  33.342
H  71.657  53.179  53.657
H  58.312  52.189  73.645
H  24.833  51.979  51.081
H  76.624  53.347  40.330
H  32.696  36.531  67.471
H  68.196  58.219  37.230
H  68.733  56.937  36.492
H  48.142  38.725  63.824
H  45.741  37.407  33.248
H  45.929  36.040  32.542
H  47.698  39.530  62.321
H  34.047  44.520  71.845
H  33.089  45.493  72.615
H  59.680  48.486  23.967
H  31.299  36.337  66.811
H  58.537  48.751  22.957
H  64.094  58.415  58.862
H  49.422  31.222  40.284
H  57.401  54.046  31.018
H  58.041  54.847  32.196
H  64.127  47.860  41.875
H  63.648  48.527  43.228
H  61.363  63.891  30.770
H  54.963  55.048  33.677
H  56.208  54.102  33.700
H  62.380  64.076  29.618
H  48.029  66.324  62.892
H  25.641  51.789  52.381
H  64.335  46.505  63.954
H  55.057  49.191  36.993
H  60.499  62.132  25.988
H  59.425  62.709  26.943
H  67.498  43.019  54.944
H  68.328  43.958  54.000
H  60.056  62.135  35.215
H  67.819  45.296  44.750
H  67.953  46.422  45.816
H  32.297  43.084  37.166
H  48.331  31.765  41.246
H  34.984  36.748  64.291
H  34.634  36.108  62.904
H  53.765  50.075  37.086
H  61.296  39.358  52.136
H  41.072  77.280  49.486
H  40.092  63.749  63.926
H  41.289  62.769  64.120
H  42.119  77.728  48.441
H  62.214  65.309  38.713
H  61.233  65.433  39.907
H  63.211  57.692  28.988
H  63.380  56.160  28.775
H  62.994  46.188  64.677
H  59.885  38.804  52.123
H  58.102  50.827  74.338
H  42.206  69.789  50.361
H  34.131  55.264  43.855
H  55.285  60.113  49.314
H  41.485  45.211  41.239
H  62.006  70.829  36.877
H  68.985  57.551  41.187
H  39.938  45.074  41.331
H  56.090  58.756  63.273
H  55.960  59.663  62.023
H  46.133  60.038  28.133
H  47.415  59.375  27.683
H  62.903  60.637  63.010
H  65.715  44.770  46.727
H  42.498  72.536  44.831
H  61.688  59.696  63.487
H  61.624  69.345  37.029
H  68.620  46.855  58.374
H  62.613  55.701  24.671
H  67.642  46.165  59.336
H  74.956  54.309  62.824
H  41.494  56.438  59.556
H  40.064  55.840  59.256
H  74.666  55.388  63.899
H  47.873  54.585  66.975
H  41.456  72.315  45.950
H  46.987  53.320  66.733
H  49.891  72.159  40.952
H  64.876  61.766  35.093
H  45.583  44.883  40.009
H  61.982  63.141  48.716
H  62.241  64.696  48.766
H  58.831  28.449  45.855
H  63.618  29.663  54.656
H  62.993  28.699  55.688
H  57.814  29.611  46.094
H  51.371  40.148  52.327
H  50.077  40.964  52.168
H  37.695  47.158  31.044
H  48.859  71.598  42.007
H  38.347  47.252  32.448
H  44.226  24.371  42.768
H  64.684  44.090  45.802
H  44.927  52.752  74.614
H  29.006  62.045  50.384
H  29.253  60.501  50.583
H  39.368  50.823  53.653
H  40.461  50.640  52.562
H  65.910  62.585  35.904
H  40.620  59.985  45.918
H  42.036  60.574  45.682
H  45.544  54.128  74.230
H  45.051  25.188  38.969
H  43.522  24.894  39.056
H  56.693  59.730  49.829
H  30.812  35.866  53.533
H  37.773  52.510  71.876
H  72.728  51.781  57.488
H  70.663  63.186  44.215
H  61.155  57.370  63.276
H  62.110  56.539  62.393
H  43.913  31.383  62.015
H  27.049  63.154  52.094
H  61.032  50.886  51.913
H  59.737  51.365  51.232
H  44.287  32.509  52.237
H  55.395  69.737  62.481
H  53.742  61.727  52.505
H  63.044  49.697  62.503
H  62.401  49.009  63.723
H  53.083  61.400  51.131
H  34.369  41.685  46.614
H  34.616  43.221  46.488
H  42.629  40.436  55.016
H  41.963  39.641  53.907
H  41.648  68.907  51.476
H  33.620  56.741  43.921
H  55.432  70.862  61.431
H  43.450  31.429  52.908
H  31.607  34.766  54.346
H  63.710  58.808  50.380
H  61.462  54.745  24.332
H  46.084  47.784  31.398
H  45.710  49.300  31.377
H  27.955  64.325  51.662
H  26.056  62.772  50.039
H  71.681  52.914  57.516
H  60.089  54.030  71.119
H  59.299  52.722  70.924
H  59.991  46.496  53.437
H  60.184  64.316  44.939
H  59.970  65.561  44.074
H  58.530  46.777  53.846
H  40.846  32.878  58.257
H  41.964  31.787  58.204
H  42.927  63.762  29.949
H  42.351  63.921  31.381
H  37.783  37.895  54.844
H  43.624  30.537  63.295
H  37.105  39.281  54.850
H  25.104  63.421  51.070
H  36.400  69.432  34.007
H  36.715  68.846  32.627
H  62.218  58.677  50.847
H  38.355  25.472  46.501
H  41.854  48.316  38.944
H  37.164  26.138  47.292
H  49.312  74.852  46.657
H  60.785  31.606  40.170
H  36.259  70.925  35.593
H  37.666  71.615  35.638
H  52.083  40.828  22.698
H  51.055  41.924  23.049
H  57.270  67.326  36.871
H  60.970  40.921  53.850
H  55.799  67.007  37.251
H  60.345  42.487  60.014
H  57.446  71.688  32.449
H  73.373  40.288  38.142
H  57.645  71.926  33.967
H  43.138  34.641  33.187
H  54.808  73.744  34.750
H  42.782  62.650  61.335
H  41.243  62.242  61.601
H  55.248  72.298  34.431
H  66.818  51.363  48.636
H  30.655  63.437  50.129
H  23.898  51.912  58.916
H  49.052  44.702  37.437
H  54.327  48.361  31.408
H  41.620  34.689  32.792
H  34.963  50.375  28.397
H  72.903  39.802  36.760
H  39.474  65.392  27.968
H  42.499  50.908  47.277
H  74.576  44.876  43.647
H  57.737  32.918  32.180
H  57.111  33.457  30.893
H  75.304  45.619  44.815
H  35.222  35.872  54.634
H  33.983  34.966  54.559
H  62.056  62.880  27.817
H  62.299  61.450  27.262
H  66.642  51.519  30.476
H  59.318  32.167  40.027
H  39.513  35.996  72.221
H  67.638  50.586  29.823
H  49.487  71.583  62.381
H  50.784  70.727  62.277
H  68.797  44.268  42.883
H  43.808  68.338  70.569
H  49.580  44.961  35.995
H  26.265  60.829  57.066
H  61.382  41.897  61.003
H  30.252  64.414  48.968
H  40.742  64.631  28.429
H  40.725  36.935  72.419
H  42.772  52.459  47.246
H  33.609  50.819  29.021
H  55.624  29.490  34.608
H  55.361  43.064  23.556
H  55.325  41.658  24.173
H  60.187  52.492  42.953
H  35.513  53.754  33.089
H  33.993  53.752  33.333
H  60.950  52.279  41.604
H  64.235  41.523  46.117
H  62.790  40.991  46.127
H  74.516  47.350  50.101
H  67.783  69.739  58.057
H  48.134  71.838  67.920
H  51.640  58.825  28.129
H  56.626  56.354  74.431
H  69.163  69.727  58.694
H  24.125  61.611  53.395
H  24.715  63.023  53.209
H  57.898  23.010  50.943
H  57.978  24.132  49.855
H  56.490  57.304  58.270
H  70.607  66.471  48.239
H  70.533  66.248  49.776
H  55.892  58.132  59.467
H  55.389  57.329  74.414
H  25.011  60.159  57.632
H  47.730  70.408  68.295
H  72.106  40.916  49.265
H  54.391  30.444  34.612
H  41.907  37.812  48.939
H  40.550  38.551  48.742
H  41.867  23.795  45.833
H  47.089  28.071  64.069
H  47.470  26.917  63.089
H  41.941  24.406  44.353
H  53.467  49.545  30.833
H  23.783  52.434  57.457
H  55.473  53.676  36.815
H  73.625  46.076  50.062
H  54.417  52.598  37.102
H  33.206  67.965  34.886
H  33.973  66.661  34.659
H  45.516  49.979  61.308
H  50.518  29.089  44.075
H  51.380  28.804  42.782
H  42.144  68.711  59.573
H  40.872  69.584  59.396
H  61.265  42.398  53.440
H  66.096  51.895  47.386
H  71.484  39.484  49.063
H  45.583  50.720  62.627
H  31.629  40.837  30.941
H  30.715  39.615  31.197
H  43.625  30.424  68.083
H  67.171  69.345  60.690
H  50.349  30.909  38.097
H  51.132  32.043  38.838
H  57.552  36.659  54.764
H  66.497  50.041  32.692
H  65.719  48.712  32.892
H  48.225  69.383  40.724
H  46.823  69.043  41.327
H  58.971  49.496  42.507
H  39.782  38.896  60.513
H  56.083  36.484  55.250
H  40.322  39.933  59.474
H  51.069  63.392  27.057
H  66.668  70.798  60.444
H  44.861  67.937  71.565
H  67.625  32.222  45.484
H  71.602  59.164  49.009
H  56.476  28.004  58.690
H  55.827  26.702  59.207
H  72.349  60.034  47.989
H  54.833  29.886  51.416
H  53.294  29.600  51.399
H  60.232  50.353  42.451
H  61.040  53.305  28.908
H  63.883  60.702  39.393
H  36.400  46.988  57.032
H  64.020  54.444  37.988
H  68.065  51.651  66.668
H  69.395  52.280  66.307
H  63.782  55.500  36.847
H  42.899  30.638  29.786
H  41.413  31.156  29.863
H  54.146  43.857  67.587
H  54.362  42.901  68.782
H  48.191  64.974  62.156
H  62.996  57.320  59.035
H  36.284  48.166  58.090
H  38.137  51.623  70.678
H  47.821  49.776  23.618
H  65.234  61.197  40.077
H  57.850  67.595  67.381
H  56.395  68.022  67.648
H  40.383  44.910  55.414
H  41.008  44.999  53.994
H  49.182  63.641  49.706
H  53.436  72.114  42.269
H  54.755  72.890  42.075
H  48.568  63.432  51.135
H  55.109  54.031  41.326
H  60.976  54.296  27.712
H  67.032  32.263  44.074
H  42.063  57.174  50.043
H  72.687  45.380  42.622
H  71.311  45.968  42.870
H  53.181  27.923  33.833
H  50.581  25.714  45.378
H  27.072  64.557  48.658
H  26.915  47.969  67.201
H  26.993  47.996  65.668
H  28.056  65.654  49.069
H  62.001  31.358  54.010
H  62.853  32.650  54.084
H  38.527  49.697  55.294
H  60.138  45.499  66.887
H  44.923  77.222  56.482
H  42.193  47.505  74.089
H  40.727  47.154  74.442
H  43.940  45.312  68.636
H  44.747  46.653  69.015
H  55.308  66.853  59.197
H  69.421  43.287  41.880
H  44.156  31.298  69.219
H  57.920  72.847  59.943
H  56.595  73.603  59.815
H  60.416  46.385  65.646
H  75.225  55.997  38.525
H  74.744  57.449  38.757
H  37.156  48.987  55.545
H  43.334  57.963  49.569
H  62.181  27.802  49.585
H  50.624  64.643  26.237
H  61.128  26.808  50.132
H  69.110  38.725  46.059
H  70.648  39.010  45.933
H  70.181  60.808  56.591
H  60.201  58.861  57.356
H  61.103  59.747  56.444
H  68.917  60.087  56.014
H  50.185  34.649  57.319
H  50.500  35.731  58.376
H  44.241  63.872  63.375
H  43.907  62.698  64.377
H  33.877  48.442  40.932
H  33.083  49.675  40.557
H  50.161  27.228  45.371
H  53.416  28.138  35.378
H  56.017  68.232  59.331
H  68.062  31.782  55.922
H  67.571  30.558  55.142
H  33.116  28.898  53.396
H  32.682  27.753  54.343
H  49.693  74.654  45.178
H  25.996  54.684  50.159
H  45.792  36.126  71.214
H  42.148  72.344  56.155
H  52.005  38.912  57.763
H  44.339  65.659  70.914
H  53.185  52.591  63.362
H  51.567  23.695  56.676
H  40.092  50.194  67.773
H  69.445  46.253  35.523
H  69.267  46.078  34.014
H  78.001  51.587  51.242
H  61.350  61.505  53.509
H  62.590  61.265  54.421
H  50.792  37.944  57.419
H  61.201  43.595  37.313
H  55.624  38.527  54.170
H  36.810  38.382  63.268
H  38.174  38.997  62.935
H  54.169  38.097  54.276
H  41.369  49.516  68.250
H  52.432  22.521  56.139
H  39.894  38.265  35.914
H  38.457  37.685  36.003
H  67.714  49.556  55.623
H  29.803  49.081  55.491
H  62.405  44.505  36.907
H  29.092  50.439  55.767
H  49.645  76.526  48.770
H  45.855  52.910  60.887
H  35.232  27.886  47.879
H  31.202  40.869  43.940
H  33.547  68.414  58.754
H  39.175  70.489  47.803
H  37.716  70.927  48.113
H  58.547  76.329  54.315
H  39.882  61.838  34.189
H  40.473  60.437  34.328
H  57.818  75.746  53.087
H  45.596  44.511  78.016
H  45.228  53.928  59.886
H  45.811  45.808  77.129
H  35.196  48.067  54.980
H  61.534  32.608  45.161
H  32.437  68.446  57.682
H  33.872  28.552  48.278
H  61.557  31.093  44.762
H  52.608  39.933  29.630
H  51.493  38.854  29.615
H  38.198  61.054  58.747
H  37.682  60.551  60.078
H  48.293  77.344  48.840
H  35.228  46.545  54.742
H  64.551  67.281  39.444
H  66.827  48.349  56.078
H  66.068  46.220  43.624
H  40.418  38.007  68.786
H  40.183  36.473  68.959
H  29.484  68.817  53.744
H  39.640  46.465  63.007
H  32.475  41.696  43.961
H  68.369  62.090  46.059
H  39.686  48.934  23.862
H  36.461  33.662  43.916
H  47.554  43.005  70.438
H  52.009  35.634  56.608
H  30.653  67.830  53.966
H  52.340  36.440  55.300
H  53.272  21.724  45.157
H  54.709  72.248  36.723
H  55.068  60.894  40.933
H  56.519  60.399  40.929
H  53.364  72.854  36.283
H  69.415  46.478  47.518
H  68.506  46.469  48.803
H  36.422  32.226  43.347
H  62.163  42.994  58.450
H  46.752  47.589  71.037
H  54.536  22.628  45.253
H  66.394  47.677  43.121
H  42.442  61.714  31.603
H  46.537  54.735  70.797
H  37.072  74.120  58.990
H  38.586  73.945  59.164
H  42.100  67.083  46.111
H  78.510  52.475  50.102
H  48.255  50.028  76.680
H  47.891  49.829  78.161
H  40.452  47.477  63.862
H  57.594  35.635  57.461
H  58.074  34.318  56.786
H  55.471  71.195  31.687
H  43.113  61.306  32.926
H  36.190  67.612  42.234
H  54.394  72.133  32.289
H  70.860  56.011  64.727
H  71.894  54.785  64.821
H  34.489  34.227  57.993
H  35.984  33.752  57.755
H  40.102  60.252  51.718
H  65.920  66.849  56.628
H  66.547  68.287  56.527
H  40.791  61.572  51.336
H  46.910  56.216  70.425
H  37.527  67.204  41.605
H  45.648  65.337  70.111
H  53.697  53.929  63.913
H  47.316  51.457  67.823
H  32.808  30.534  51.781
H  31.353  30.885  52.166
H  37.822  55.776  48.136
H  35.023  54.177  58.967
H  36.009  53.100  59.517
H  37.820  56.102  46.639
H  50.078  49.588  22.248
H  50.613  48.616  21.162
H  68.206  58.472  65.493
H  68.919  59.555  64.661
H  39.942  64.248  33.658
H  58.066  67.770  30.522
H  57.031  68.226  29.479
H  40.282  59.238  32.416
H  28.118  67.384  56.930
H  28.195  68.061  55.554
H  69.551  37.567  40.536
H  70.170  36.201  40.812
H  31.270  65.746  53.659
H  62.404  63.587  69.315
H  62.346  62.118  68.840
H  31.532  65.027  55.016
H  51.933  41.297  36.925
H  60.857  40.952  24.822
H  38.806  59.556  32.634
H  50.866  71.165  31.505
H  33.538  36.632  58.619
H  32.014  36.478  58.486
H  33.577  42.441  53.743
H  34.201  43.554  54.615
H  63.257  47.447  50.918
H  39.592  62.639  60.135
H  39.645  64.245  60.145
H  64.665  47.088  50.458
H  47.965  28.524  60.424
H  50.887  36.911  49.483
H  48.183  54.406  39.980
H  52.193  29.736  56.992
H  41.766  74.048  39.844
H  39.639  71.319  34.724
H  41.073  71.783  35.043
H  40.840  72.802  39.704
H  65.229  67.569  36.862
H  63.738  67.148  36.836
H  46.773  51.071  65.242
H  45.845  49.830  65.088
H  52.289  36.460  49.096
H  51.432  72.072  32.657
H  53.421  30.680  57.023
H  41.053  65.340  33.530
H  51.717  36.251  67.877
H  59.724  70.150  35.006
H  47.225  50.497  70.622
H  65.946  67.250  40.166
H  42.273  25.686  47.070
H  39.983  28.914  42.881
H  40.026  28.080  41.555
H  43.433  68.799  38.945
H  43.799  67.841  40.160
H  46.413  51.501  32.117
H  60.659  40.188  74.345
H  61.477  41.376  73.798
H  64.972  56.390  67.466
H  46.010  52.782  31.294
H  64.189  30.772  60.042
H  42.078  26.448  48.391
H  65.169  31.964  60.092
H  32.691  45.634  38.603
H  64.028  65.193  39.988
H  63.457  63.764  39.714
H  33.895  45.599  39.618
H  43.830  64.286  60.349
H  43.801  65.790  60.717
H  48.376  51.625  66.676
H  45.808  50.045  71.174
H  23.516  40.079  51.536
H  33.404  59.577  43.798
H  53.084  35.537  67.784
H  58.198  69.951  35.318
H  53.383  40.858  36.683
H  46.859  54.086  40.711
H  40.650  29.352  57.402
H  40.297  30.377  56.278
H  44.655  50.539  74.421
H  46.137  50.899  74.833
H  26.708  40.338  42.825
H  56.106  50.478  41.105
H  56.049  50.350  39.559
H  26.838  39.800  44.284
H  56.557  54.984  46.936
H  56.732  56.458  46.529
H  73.574  45.474  40.551
H  74.575  46.672  40.548
H  51.131  27.208  36.040
H  65.992  56.783  60.132
H  66.898  58.034  60.156
H  49.710  26.719  35.687
H  45.241  44.964  62.045
H  46.580  45.705  62.020
H  52.626  65.594  70.838
H  52.307  64.100  70.674
H  44.249  61.619  55.300
H  50.177  37.364  42.493
H  45.228  61.175  54.180
H  58.495  75.111  51.105
H  37.662  70.569  63.051
H  47.833  64.788  36.995
H  49.342  42.474  68.419
H  25.667  53.681  53.484
H  25.852  54.799  54.581
H  47.194  63.409  37.470
H  42.296  64.296  42.436
H  40.948  64.142  41.751
H  62.177  26.144  41.126
H  63.588  26.355  40.561
H  48.857  73.886  56.272
H  29.134  39.556  38.933
H  35.131  25.899  53.118
H  28.467  39.897  37.577
H  54.504  25.929  65.268
H  37.665  54.127  43.790
H  36.647  54.365  44.994
H  58.449  67.364  34.629
H  56.935  69.243  54.668
H  28.445  37.575  39.537
H  25.990  53.358  45.891
H  27.117  52.969  46.828
H  34.424  26.946  52.238
H  27.003  37.025  39.293
H  50.366  74.186  56.264
H  38.968  58.375  53.921
H  64.718  50.903  57.268
H  56.514  47.506  30.455
H  68.249  43.624  39.876
H  67.992  45.111  40.119
H  64.360  35.701  43.526
H  27.671  60.679  63.702
H  28.087  62.121  64.150
H  65.412  34.554  43.379
H  38.227  58.478  73.314
H  39.481  57.963  74.043
H  53.503  51.912  29.089
H  34.969  46.943  35.119
H  65.355  49.494  57.249
H  50.433  43.601  68.348
H  71.441  46.120  40.591
H  37.486  72.036  63.501
H  61.840  48.969  24.153
H  61.623  47.486  23.693
H  25.176  40.958  46.689
H  24.160  39.823  46.678
H  52.093  52.090  28.457
H  38.231  57.090  54.372
H  33.739  47.755  35.512
H  57.299  47.756  29.066
H  71.796  42.996  37.285
H  47.026  45.412  70.773
H  63.374  52.108  66.206
H  33.544  43.904  56.797
H  39.149  51.982  55.467
H  39.564  53.434  55.456
H  47.196  42.606  30.703
H  46.204  41.445  30.910
H  66.327  40.142  48.391
H  56.050  73.504  54.586
H  55.597  72.059  54.182
H  67.707  39.435  48.259
H  62.902  50.932  67.119
H  41.203  36.505  58.102
H  48.388  33.008  56.835
H  58.000  47.124  64.295
H  45.845  66.147  72.450
H  47.229  66.870  72.286
H  41.882  66.138  31.494
H  70.579  44.824  40.667
H  34.510  57.125  46.708
H  38.340  69.748  44.754
H  64.518  44.331  42.185
H  63.966  45.691  41.770
H  48.028  32.499  55.411
H  72.535  44.271  37.650
H  32.695  44.714  55.768
H  60.838  55.398  40.995
H  45.699  45.007  71.463
H  61.678  36.963  52.759
H  59.853  67.753  35.146
H  62.992  36.769  53.520
H  56.006  26.251  65.254
H  53.598  63.006  46.965
H  54.783  62.493  47.825
H  55.569  47.987  33.574
H  55.815  46.494  33.425
H  31.060  49.048  29.613
H  62.012  54.716  41.717
H  47.555  56.666  24.809
H  31.103  47.521  29.855
H  35.910  53.970  52.191
H  36.467  53.278  50.909
H  30.884  53.096  48.485
H  57.812  70.323  55.340
H  46.062  58.495  56.370
H  44.493  58.640  56.454
H  59.358  46.683  63.748
H  51.783  53.890  40.804
H  53.081  53.766  39.973
H  47.103  55.276  24.300
H  67.802  67.269  63.574
H  66.874  66.078  63.936
H  66.584  39.813  46.235
H  26.463  62.798  47.204
H  36.556  33.923  47.932
H  44.757  45.788  57.009
H  45.413  44.392  57.052
H  35.711  35.224  47.915
H  36.569  51.451  37.829
H  36.170  52.644  38.742
H  63.989  40.855  70.730
H  48.284  38.359  23.748
H  40.785  64.430  57.532
H  25.905  61.674  46.300
H  41.942  65.475  57.772
H  51.082  46.049  25.264
H  68.968  70.915  43.768
H  49.253  27.157  47.449
H  49.308  28.634  47.946
H  66.314  43.055  42.261
H  66.591  44.122  43.343
H  66.326  57.500  30.970
H  27.345  36.319  56.953
H  28.306  37.511  56.752
H  65.150  58.390  31.530
H  32.567  58.279  38.791
H  31.823  58.860  39.994
H  38.851  61.136  56.081
H  65.267  41.602  70.374
H  58.742  76.442  50.368
H  62.836  49.834  57.758
H  62.718  49.350  56.255
H  48.345  39.557  24.713
H  36.834  65.900  35.631
H  36.357  66.522  34.298
H  63.463  43.782  57.949
H  48.442  44.059  69.723
H  72.362  36.891  53.591
H  54.568  25.851  43.401
H  39.854  60.439  55.136
H  63.919  57.577  67.410
H  74.076  62.397  48.744
H  74.315  60.890  48.350
H  43.007  35.355  42.070
H  39.452  72.273  56.762
H  38.735  71.259  57.665
H  34.535  70.247  39.924
H  34.711  71.431  38.986
H  42.432  54.355  74.265
H  55.609  26.122  42.255
H  42.258  55.915  74.214
H  42.727  33.931  41.502
H  31.509  61.406  65.719
H  53.336  54.474  37.787
H  32.514  60.770  66.739
H  37.179  39.739  35.586
H  38.435  40.659  35.539
H  70.807  41.826  41.081
H  72.286  42.283  41.087
H  48.715  47.473  25.731
H  33.568  57.632  35.092
H  33.946  56.530  36.122
H  47.148  47.462  25.825
H  54.006  30.228  54.117
H  53.931  28.679  54.244
H  26.327  44.705  48.722
H  40.254  47.541  24.154
H  29.356  52.922  48.510
H  65.127  39.434  46.584
H  28.030  55.498  39.203
H  70.740  65.754  43.601
H  69.442  66.349  44.253
H  28.826  56.729  39.789
H  44.210  32.113  54.879
H  45.608  32.650  54.446
H  50.779  25.612  61.024
H  49.930  26.898  60.686
H  43.098  66.468  47.110
H  62.508  55.746  39.571
H  63.294  56.983  40.127
H  25.078  45.550  48.254
H  57.476  40.953  47.807
H  52.491  26.086  59.290
H  52.292  25.278  57.984
H  57.037  39.689  47.022
H  39.741  35.428  59.342
H  39.195  35.018  57.940
H  45.817  69.793  49.942
H  44.350  70.184  50.069
H  68.642  60.596  45.815
H  72.736  35.851  54.685
H  51.700  44.698  25.618
H  69.137  69.397  44.146
H  61.633  47.743  48.705
H  61.363  48.067  47.218
H  53.407  55.859  37.047
H  38.056  45.360  42.417
H  69.092  53.907  28.866
H  68.644  55.384  28.818
H  38.123  46.883  42.404
H  37.559  39.161  50.414
H  37.944  40.394  51.300
H  52.575  43.145  71.194
H  51.434  43.783  70.353
H  45.271  47.922  71.070
H  62.473  42.476  56.162
H  66.728  44.421  62.251
H  47.769  28.854  61.890
H  44.459  52.034  38.244
H  72.194  38.374  61.478
H  66.479  54.990  47.913
H  59.020  34.449  65.877
H  32.274  54.307  35.665
H  29.212  49.235  48.172
H  28.566  50.216  49.240
H  62.496  24.745  50.109
H  39.249  44.311  73.441
H  30.675  38.753  43.618
H  44.763  53.081  39.313
H  29.439  37.841  43.850
H  51.181  47.040  61.294
H  47.151  73.495  51.304
H  27.778  32.916  43.395
H  27.103  33.784  44.488
H  45.602  73.496  51.004
H  51.570  31.783  34.532
H  52.728  32.687  35.097
H  71.918  36.720  42.005
H  71.516  38.222  42.027
H  65.244  53.428  65.981
H  49.678  46.650  61.336
H  63.947  35.049  47.201
H  72.525  37.902  62.910
H  58.514  59.998  52.889
H  50.761  24.795  52.212
H  39.715  62.408  41.271
H  39.808  60.875  41.022
H  40.557  45.128  73.649
H  44.909  67.094  67.999
H  59.995  33.483  65.126
H  37.610  44.027  36.057
H  37.156  42.566  36.001
H  54.235  48.047  76.780
H  25.981  46.603  39.532
H  59.183  61.310  53.362
H  24.674  47.029  38.769
H  29.124  58.293  47.921
H  29.345  56.957  48.652
H  58.238  42.730  54.320
H  59.012  41.445  54.703
H  40.886  53.790  60.564
H  62.387  24.493  51.623
H  39.659  54.013  61.464
H  45.521  66.223  66.893
H  49.957  52.003  36.535
H  50.254  50.787  37.458
H  55.093  49.133  76.106
H  42.490  43.753  52.104
H  62.825  35.636  46.283
H  50.712  72.485  54.906
H  35.474  41.748  68.760
H  36.647  40.757  68.861
H  47.363  63.443  54.906
H  27.845  55.498  62.491
H  26.504  55.901  61.803
H  66.894  36.074  44.680
H  38.370  52.826  52.457
H  70.893  61.333  54.142
H  65.899  41.891  62.052
H  26.995  46.011  44.294
H  45.838  63.317  55.137
H  23.391  39.174  52.791
H  66.645  60.801  36.977
H  35.324  40.740  37.462
H  36.015  39.400  37.776
H  58.810  52.827  40.356
H  45.303  68.911  54.421
H  44.908  70.415  54.627
H  59.721  53.831  39.580
H  38.222  59.968  39.773
H  37.046  59.056  40.150
H  28.472  46.385  44.456
H  67.872  60.296  37.776
H  65.610  52.644  67.249
H  49.100  41.462  23.932
H  66.383  40.018  38.130
H  52.037  71.669  54.903
H  49.146  59.846  58.610
H  48.834  61.295  58.185
H  33.387  53.228  35.649
H  36.070  36.975  71.589
H  66.970  41.166  61.135
H  66.360  42.048  45.849
H  46.378  67.979  65.386
H  38.906  54.280  52.701
H  35.911  49.858  63.209
H  48.521  41.245  22.531
H  64.182  55.086  45.298
H  35.917  51.349  63.670
H  36.656  59.114  50.657
H  35.766  59.118  51.906
H  39.556  33.331  44.367
H  38.298  33.177  45.256
H  62.909  59.792  46.998
H  45.261  68.902  64.875
H  62.693  61.296  46.579
H  71.950  60.820  55.160
H  66.216  38.735  38.973
H  65.307  55.967  45.857
H  65.335  38.043  33.698
H  66.429  38.896  34.405
H  38.167  28.159  37.679
H  41.782  60.142  40.485
H  40.879  33.097  30.785
H  62.022  39.977  35.672
H  62.973  39.936  36.904
H  23.277  48.222  46.191
H  44.454  72.817  56.979
H  45.336  73.595  57.951
H  21.769  48.332  45.849
H  32.627  69.016  40.480
H  32.558  69.254  38.961
H  43.339  60.143  40.471
H  39.160  48.791  70.125
H  47.412  60.209  42.302
H  49.077  60.824  48.999
H  47.988  61.905  49.082
H  47.652  61.722  42.530
H  35.129  51.157  71.075
H  34.592  50.696  69.708
H  42.260  47.614  33.398
H  42.995  48.113  32.140
H  36.264  54.625  67.823
H  33.109  57.364  53.322
H  40.665  49.149  70.362
H  32.668  55.879  53.456
H  66.885  63.846  51.261
H  51.072  29.698  39.755
H  62.962  43.152  47.822
H  62.428  41.889  48.559
H  41.188  73.562  56.037
H  73.378  52.218  59.990
H  73.300  53.773  60.058
H  26.544  52.671  35.620
H  25.554  51.513  35.731
H  45.333  37.510  71.804
H  42.910  31.694  45.010
H  44.327  31.550  44.393
H  65.879  64.273  50.119
H  59.311  59.352  64.129
H  58.997  58.529  65.409
H  39.979  43.815  34.223
H  39.052  45.068  34.320
H  62.975  48.504  39.935
H  41.850  29.308  37.967
H  42.383  28.571  36.699
H  63.767  47.178  39.779
H  41.425  71.069  32.848
H  40.303  70.192  32.286
H  50.824  28.198  39.798
H  39.539  33.862  30.849
H  37.179  54.787  66.585
H  43.385  77.172  56.549
H  36.910  64.037  67.959
H  43.681  44.015  53.035
H  59.651  53.959  68.358
H  61.893  74.658  52.455
H  37.434  36.613  72.258
H  59.277  54.095  66.852
H  49.731  72.278  35.228
H  50.186  72.744  36.611
H  52.434  63.879  63.163
H  53.485  63.512  64.258
H  57.558  47.848  72.639
H  32.060  51.167  35.929
H  46.467  62.488  35.548
H  57.457  48.362  71.178
H  61.171  75.984  52.111
H  62.106  32.287  50.675
H  50.402  26.057  53.080
H  61.860  32.656  52.138
H  68.397  53.867  48.222
H  36.948  37.308  49.503
H  35.464  37.050  49.102
H  68.112  53.202  46.814
H  38.233  29.720  37.665
H  46.009  61.182  34.886
H  53.347  45.912  66.774
H  53.958  46.907  67.739
H  49.739  45.803  74.368
H  33.350  49.659  61.109
H  43.726  35.898  69.377
H  36.724  40.056  32.361
H  35.783  39.019  33.050
H  58.849  44.847  29.288
H  50.079  67.995  50.310
H  48.707  68.421  49.767
H  57.738  44.784  30.360
H  44.131  39.432  72.819
H  43.793  40.933  72.864
H  21.325  46.853  51.532
H  22.797  47.230  51.175
H  33.873  33.229  48.846
H  44.372  35.114  68.235
H  30.925  52.119  36.291
H  34.965  32.418  48.083
H  36.957  57.492  68.268
H  38.394  57.369  68.875
H  50.143  43.530  75.506
H  49.810  42.833  76.840
H  49.597  47.353  74.536
H  51.915  69.260  50.748
H  52.557  70.328  51.722
H  39.593  45.882  48.650
H  67.905  43.591  62.792
H  43.496  55.487  38.354
H  32.096  50.639  38.577
H  24.140  59.118  52.493
H  25.668  59.261  52.444
H  66.905  36.480  51.026
H  44.713  38.652  64.084
H  48.720  25.276  57.169
H  51.215  67.535  52.150
H  50.146  68.562  52.499
H  44.060  40.001  63.716
H  70.957  46.502  51.405
H  69.496  46.342  52.025
H  25.398  57.666  38.520
H  60.120  41.945  47.806
H  46.886  23.745  49.128
H  52.988  33.841  26.259
H  53.646  34.942  27.172
H  46.663  22.591  48.098
H  63.982  74.438  47.310
H  58.234  59.475  75.315
H  57.782  58.228  74.548
H  65.480  74.168  46.913
H  40.273  67.058  51.421
H  39.793  68.139  52.400
H  60.515  40.799  48.734
H  47.751  24.117  57.488
H  48.587  34.688  72.911
H  26.944  57.507  38.763
H  56.283  77.271  48.817
H  64.131  45.752  52.200
H  28.829  57.020  36.935
H  45.724  40.551  55.687
H  46.896  40.840  54.710
H  59.277  41.925  42.448
H  39.985  70.736  63.500
H  41.190  69.781  63.633
H  57.902  41.448  42.946
H  73.999  48.849  43.113
H  47.272  33.892  72.891
H  74.012  47.316  43.274
H  26.053  46.598  54.776
H  71.767  38.067  37.452
H  55.430  25.310  47.806
H  49.493  35.883  62.134
H  48.180  35.426  61.292
H  67.127  35.054  51.488
H  58.279  44.780  47.667
H  59.502  44.649  46.712
H  41.027  46.778  51.907
H  39.604  46.263  51.635
H  24.568  46.554  54.366
H  30.049  43.847  47.842
H  60.549  49.439  37.552
H  28.960  54.112  54.313
H  57.327  35.723  65.292
H  54.937  68.486  70.013
H  54.441  68.826  71.426
H  60.450  27.274  39.036
H  61.607  28.232  39.447
H  28.390  60.310  38.437
H  50.879  21.280  48.401
H  49.351  39.673  67.902
H  28.176  61.811  38.756
H  67.309  55.626  35.435
H  57.946  37.455  46.620
H  67.019  55.123  34.007
H  38.536  51.635  36.529
H  48.573  36.958  68.269
H  42.106  73.667  54.025
H  43.247  72.594  54.249
H  47.795  35.706  67.903
H  43.372  74.055  48.210
H  43.520  75.582  47.963
H  50.408  40.610  67.384
H  43.066  34.888  53.833
H  59.388  41.429  24.924
H  38.175  50.209  36.103
H  61.311  48.179  36.952
H  59.068  38.475  46.137
H  30.760  40.591  67.413
H  29.058  55.239  53.254
H  33.684  48.664  44.727
H  71.758  31.265  50.893
H  70.368  30.704  51.260
H  32.601  49.727  45.036
H  66.162  49.174  41.525
H  65.413  48.855  40.213
H  38.845  56.766  32.142
H  39.475  55.641  31.271
H  58.876  30.757  49.602
H  56.877  34.774  66.418
H  63.791  49.711  49.952
H  60.448  30.703  49.784
H  40.878  68.854  48.806
H  41.843  67.780  49.426
H  56.197  33.734  55.755
H  55.257  34.742  56.425
H  62.467  28.594  44.392
H  23.038  47.836  39.976
H  49.942  36.633  41.126
H  51.450  22.696  48.157
H  31.512  40.781  66.035
H  63.816  50.684  51.175
H  31.200  43.138  48.586
H  57.737  77.790  48.886
H  46.866  49.604  29.516
H  75.828  40.926  44.340
H  76.156  40.127  43.013
H  65.718  62.710  67.351
H  65.102  61.387  66.861
H  62.024  44.233  65.428
H  66.291  52.243  45.027
H  64.787  52.656  45.256
H  61.462  44.620  64.048
H  35.628  64.981  61.594
H  35.693  65.124  63.160
H  32.484  51.368  43.489
H  50.453  26.292  42.498
H  33.627  52.277  40.128
H  53.770  39.707  52.864
H  57.474  29.305  60.441
H  51.523  60.083  58.119
H  50.823  58.952  57.365
H  52.910  44.260  64.861
H  52.377  44.480  63.395
H  48.234  43.215  56.932
H  64.257  52.535  55.808
H  65.552  52.785  55.003
H  51.915  26.616  42.609
H  47.579  41.800  56.948
H  65.105  53.307  30.553
H  32.990  51.338  42.026
H  42.600  54.277  38.769
H  52.656  36.268  59.192
H  53.336  35.141  58.410
H  52.022  52.376  35.330
H  53.151  51.309  35.288
H  38.488  46.802  49.351
H  24.921  56.649  53.844
H  25.890  57.826  54.109
H  67.551  37.429  44.234
H  56.507  30.458  59.960
H  44.568  72.360  64.715
H  66.603  53.813  30.527
H  67.795  47.357  68.618
H  67.751  48.620  67.715
H  32.824  30.143  56.608
H  43.354  70.709  46.469
H  44.859  70.629  46.599
H  32.868  28.605  56.356
H  62.489  63.630  46.639
H  63.850  63.992  47.406
H  25.871  49.232  36.547
H  24.554  49.944  36.909
H  44.644  71.131  63.767
H  61.824  44.835  49.104
H  61.527  45.628  47.774
H  27.396  50.884  53.325
H  72.349  36.659  37.746
H  69.188  60.107  51.574
H  33.265  28.409  40.667
H  33.205  44.699  62.999
H  32.362  44.814  64.277
H  47.479  27.317  44.712
H  46.141  27.993  44.209
H  54.240  57.587  27.345
H  59.072  46.052  51.384
H  59.416  47.560  51.573
H  68.602  60.603  52.942
H  55.001  57.601  28.668
H  37.063  60.881  65.375
H  29.271  58.219  37.791
H  22.609  48.946  40.993
H  63.292  46.763  53.051
H  38.721  62.112  66.310
H  38.621  62.346  64.789
H  61.028  28.939  44.860
H  66.047  71.681  55.429
H  66.528  70.431  56.216
H  47.829  49.964  30.717
H  55.128  26.598  47.001
H  48.035  63.794  33.728
H  47.102  64.871  34.358
H  33.697  61.776  58.742
H  28.526  51.875  53.633
H  58.464  66.443  61.994
H  63.526  28.329  52.015
H  61.998  28.404  51.707
H  58.914  67.382  63.151
H  69.004  50.727  44.643
H  69.224  51.618  45.930
H  73.081  39.160  43.483
H  72.926  39.332  45.048
H  34.714  52.808  41.080
H  54.710  40.979  52.799
H  65.445  53.954  47.333
H  66.436  41.965  44.299
H  32.095  60.294  43.452
H  34.792  28.219  40.683
H  37.155  59.472  64.851
H  48.672  25.468  38.138
H  49.220  26.655  38.946
H  33.704  69.566  46.273
H  44.454  63.296  50.786
H  45.180  62.667  49.570
H  33.469  70.224  47.664
H  34.668  61.202  57.710
H  31.504  49.479  37.796
H  36.653  45.724  62.141
H  51.457  45.852  22.941
H  43.849  40.868  42.826
H  39.179  27.726  57.345
H  47.323  27.608  58.356
H  60.124  34.883  32.058
H  57.875  56.652  65.503
H  59.206  56.159  66.112
H  73.341  33.722  47.129
H  70.856  38.413  65.516
H  56.029  56.957  33.506
H  54.460  57.210  33.577
H  67.814  36.349  38.808
H  39.422  26.297  57.876
H  52.154  71.323  35.279
H  72.649  38.582  51.537
H  51.334  65.675  39.301
H  51.636  64.698  40.498
H  40.240  66.592  59.296
H  71.116  37.017  64.829
H  38.743  53.919  45.732
H  72.729  40.035  52.048
H  39.058  67.626  59.325
H  69.568  37.975  37.601
H  70.064  36.540  37.940
H  53.603  70.891  34.806
H  61.457  45.843  35.074
H  56.973  57.964  44.330
H  50.354  37.902  44.783
H  70.670  47.075  54.064
H  33.975  50.717  46.451
H  41.815  42.383  70.046
H  41.010  43.676  69.852
H  63.013  55.144  50.648
H  63.145  55.793  52.059
H  65.059  28.467  47.900
H  45.463  68.107  34.840
H  46.316  59.441  32.300
H  36.521  68.175  44.589
H  50.317  36.369  44.499
H  36.507  66.637  44.880
H  44.819  59.832  32.131
H  62.181  55.452  74.262
H  60.677  55.165  74.411
H  65.224  49.902  64.828
H  35.734  32.418  52.592
H  37.032  32.718  51.704
H  68.789  29.997  47.713
H  68.933  31.498  47.560
H  48.617  26.827  58.709
H  56.178  58.915  45.245
H  65.199  51.433  64.918
H  41.131  30.506  68.960
H  59.988  46.222  34.973
H  39.794  53.377  44.679
H  66.034  38.947  67.073
H  41.523  36.815  36.629
H  32.148  39.361  42.008
H  51.376  56.552  64.333
H  67.733  40.536  42.068
H  67.185  40.113  43.495
H  57.690  44.755  67.840
H  56.123  44.729  67.916
H  46.989  43.219  33.513
H  47.293  44.251  34.595
H  65.607  37.750  67.980
H  70.127  46.239  37.621
H  71.573  46.199  38.081
H  35.113  59.267  66.566
H  37.746  65.755  29.624
H  38.313  64.339  29.929
H  49.473  67.182  29.161
H  36.755  58.812  61.147
H  35.819  57.726  61.714
H  64.870  62.158  48.035
H  29.184  65.270  53.217
H  28.353  66.136  54.227
H  33.577  38.877  41.874
H  71.792  33.788  47.160
H  41.791  54.693  30.407
H  41.924  59.283  74.128
H  75.048  35.723  51.811
H  61.219  35.973  32.120
H  50.301  57.663  64.382
H  40.699  35.662  37.209
H  38.716  69.303  39.340
H  54.150  77.725  45.894
H  54.749  78.308  47.205
H  75.589  45.559  59.912
H  41.957  55.236  67.625
H  41.475  54.355  66.472
H  42.701  55.811  29.868
H  76.181  46.520  60.969
H  72.460  33.197  49.995
H  57.242  62.556  50.046
H  37.674  70.226  38.624
H  35.692  59.999  67.784
H  61.881  50.670  65.066
H  46.859  55.195  30.653
H  45.802  55.932  29.731
H  57.904  61.346  50.780
H  63.105  51.062  64.234
H  43.467  59.554  74.127
H  73.809  33.674  49.342
H  64.791  60.603  47.769
H  41.809  31.888  68.916
H  28.945  57.248  34.632
H  37.520  52.392  46.960
H  37.686  51.005  47.604
H  48.219  25.545  60.679
H  37.630  62.586  57.279
H  36.321  63.426  57.084
H  47.380  24.292  60.424
H  54.561  65.641  39.111
H  54.034  64.314  38.465
H  45.623  40.865  58.305
H  51.903  77.093  46.412
H  61.234  51.286  35.062
H  61.700  30.674  56.291
H  58.618  39.397  57.933
H  65.504  39.610  29.330
H  30.218  54.751  55.986
H  31.500  53.921  55.831
H  53.605  52.979  74.518
H  48.971  33.457  59.451
H  47.833  32.503  58.998
H  46.625  25.806  37.342
H  49.337  35.449  39.346
H  48.141  36.196  40.010
H  60.919  30.899  57.625
H  35.830  50.865  60.166
H  66.218  43.031  38.148
H  65.192  43.653  37.158
H  50.155  41.672  34.833
H  49.985  53.797  57.648
H  66.439  26.780  45.258
H  61.973  34.565  48.228
H  62.066  33.473  47.108
H  63.798  73.381  50.241
H  60.779  72.544  62.067
H  59.568  72.159  61.208
H  62.893  72.183  50.662
H  58.066  47.798  32.871
H  61.378  51.242  36.583
H  58.672  46.397  32.317
H  39.111  40.614  68.175
H  53.655  53.129  72.974
H  51.554  44.240  36.833
H  49.577  60.189  30.781
H  44.239  62.973  67.740
H  44.437  64.119  68.754
H  54.010  74.826  51.716
H  35.321  40.090  43.134
H  36.193  39.026  43.951
H  54.535  76.242  51.348
H  46.672  47.907  61.893
H  34.846  49.804  47.389
H  66.686  38.600  29.367
H  34.949  51.241  61.433
H  34.365  47.525  52.068
H  69.429  56.203  43.215
H  68.214  55.820  42.309
H  59.438  39.210  54.597
H  33.814  54.509  48.678
H  50.641  43.040  36.460
H  44.720  61.829  40.920
H  70.175  50.737  55.251
H  47.674  27.220  41.162
H  37.730  28.524  51.743
H  58.310  45.978  70.954
H  45.353  39.347  58.293
H  70.708  59.521  46.352
H  69.441  58.769  46.770
H  30.524  48.112  33.501
H  66.556  54.392  26.765
H  67.459  53.305  27.432
H  43.091  71.519  51.966
H  39.005  28.329  52.596
H  44.606  71.667  51.673
H  71.125  48.153  53.067
H  29.329  58.534  35.370
H  51.254  63.522  49.036
H  66.420  38.868  58.373
H  58.692  44.526  71.314
H  69.886  50.060  56.605
H  40.573  32.223  70.696
H  41.175  33.644  70.565
H  33.239  53.496  49.693
H  48.252  60.156  29.873
H  57.315  64.828  52.899
H  58.652  64.076  52.932
H  59.475  38.455  57.061
H  65.335  37.875  58.885
H  50.663  78.030  46.608
H  52.811  63.597  48.972
H  33.520  46.330  52.607
H  47.199  28.566  40.532
H  46.123  62.520  40.856
H  61.042  46.884  29.310
H  57.230  59.991  57.944
H  35.323  53.710  28.338
H  34.962  54.707  27.223
H  57.494  61.382  57.352
H  47.301  41.327  76.357
H  46.214  41.709  77.396
H  60.496  46.009  30.413
H  39.715  56.161  39.123
H  41.264  56.074  38.989
H  68.019  35.137  39.817
H  45.104  69.215  33.819
H  71.218  43.618  64.864
H  41.768  55.299  41.111
H  31.596  59.300  52.026
H  69.238  57.779  61.459
H  55.969  35.840  51.260
H  54.995  33.696  47.263
H  54.201  34.774  46.506
H  64.291  25.969  44.123
H  29.295  50.436  44.978
H  30.050  49.464  45.885
H  64.252  27.146  45.098
H  45.426  57.426  49.027
H  70.455  56.862  61.134
H  40.615  23.672  48.085
H  57.133  36.628  28.219
H  64.940  43.747  48.652
H  37.093  32.528  65.558
H  75.910  46.794  48.492
H  74.944  45.686  48.025
H  37.831  59.474  67.758
H  62.181  55.281  60.118
H  60.798  55.598  59.474
H  61.975  49.083  41.858
H  64.001  62.034  50.053
H  34.102  53.646  46.656
H  44.599  56.152  48.788
H  27.727  48.581  43.988
H  70.205  29.952  45.091
H  69.615  31.348  45.424
H  47.471  54.033  27.587
H  48.809  24.183  62.835
H  49.939  25.208  63.049
H  48.579  38.860  74.045
H  47.150  55.109  26.500
H  53.804  64.787  45.524
H  55.167  64.237  45.959
H  47.328  39.754  73.826
H  42.892  55.449  42.170
H  50.700  38.436  35.346
H  58.370  36.205  27.398
H  41.625  22.594  48.495
H  56.204  66.367  48.103
H  55.079  67.325  47.591
H  48.487  66.032  29.429
H  31.560  59.588  50.509
H  42.040  46.468  25.698
H  40.599  45.834  25.534
H  56.980  35.920  52.430
H  26.533  48.854  43.041
H  51.303  39.831  35.131
H  28.491  50.044  65.563
H  35.355  52.707  46.409
H  36.396  33.881  65.264
H  36.454  73.851  56.291
H  44.237  73.547  43.974
H  36.677  32.245  62.467
H  35.361  32.301  61.619
H  45.437  73.153  43.094
H  48.577  39.357  39.118
H  48.615  38.735  37.723
H  66.811  46.299  70.245
H  71.872  41.570  53.373
H  38.042  33.910  38.735
H  59.556  28.956  52.948
H  72.392  42.725  64.499
H  48.272  30.310  54.240
H  49.720  29.824  54.261
H  46.170  47.504  65.576
H  67.009  46.333  35.744
H  66.699  44.844  35.838
H  46.940  47.616  66.904
H  57.875  58.917  39.381
H  56.485  59.206  38.796
H  51.966  27.955  53.105
H  44.583  64.989  52.995
H  72.001  40.256  54.161
H  61.500  60.999  65.227
H  53.837  57.267  60.791
H  75.060  38.885  44.710
H  55.003  57.679  61.705
H  60.049  61.322  64.745
H  46.819  77.383  42.928
H  45.981  76.818  41.761
H  61.802  47.617  42.328
H  22.612  46.955  58.012
H  22.313  46.804  56.493
H  64.501  44.509  39.891
H  66.852  33.024  65.612
H  68.227  33.391  64.977
H  60.709  29.925  52.568
H  38.837  58.526  67.033
H  64.502  42.454  49.290
H  75.746  37.746  45.464
H  38.810  60.457  27.799
H  28.322  43.887  49.209
H  27.619  42.527  49.147
H  57.659  55.128  76.492
H  40.296  60.025  27.811
H  62.080  34.026  64.581
H  62.039  35.547  64.362
H  58.517  56.409  76.503
H  66.416  45.670  71.597
H  26.955  50.226  65.757
H  64.823  60.691  50.156
H  65.887  68.376  52.736
H  52.625  58.559  26.169
H  62.330  53.680  35.062
H  60.216  74.598  44.060
H  59.113  75.283  44.900
H  62.040  55.145  35.566
H  62.507  41.311  63.886
H  62.640  41.813  65.333
H  30.233  39.363  47.771
H  29.071  40.282  47.330
H  58.427  38.049  48.965
H  58.870  39.330  48.166
H  55.802  39.100  52.095
H  56.310  63.101  53.805
H  57.106  61.771  53.899
H  45.028  40.817  52.741
H  57.472  51.699  37.747
H  54.684  44.188  62.322
H  57.562  52.972  36.825
H  43.189  68.242  53.168
H  56.143  38.008  51.045
H  59.993  76.922  46.960
H  39.551  42.921  41.009
H  43.512  40.508  52.632
H  38.698  41.813  40.318
H  33.002  60.823  38.310
H  65.885  43.931  64.687
H  40.277  33.804  42.011
H  33.468  62.194  38.828
H  43.045  66.793  53.736
H  51.926  60.836  70.853
H  52.018  62.161  71.646
H  56.237  43.924  62.466
H  48.708  32.998  30.737
H  50.013  33.121  31.514
H  45.593  41.895  24.759
H  33.376  39.757  37.222
H  66.209  43.675  66.141
H  33.573  38.236  37.213
H  47.124  41.694  24.832
H  57.135  48.004  46.001
H  57.510  46.692  45.297
H  30.600  35.780  63.157
H  48.558  52.604  75.266
H  47.922  52.036  73.975
H  60.269  75.480  47.431
H  58.941  53.753  64.063
H  29.752  34.543  63.598
H  60.438  54.078  64.046
H  49.941  72.455  52.633
H  70.005  46.463  66.786
H  34.259  53.071  62.494
H  73.812  36.641  51.941
H  40.380  29.389  46.526
H  54.245  37.732  24.418
H  54.822  36.655  25.412
H  43.615  28.370  39.987
H  43.997  74.316  41.866
H  45.713  46.630  37.741
H  73.358  55.080  49.705
H  74.870  54.723  49.917
H  43.977  75.863  41.849
H  44.192  55.937  34.455
H  42.564  35.748  35.037
H  43.466  54.500  34.475
H  38.276  49.016  57.500
H  38.302  65.413  50.081
H  44.196  46.597  38.080
H  38.415  62.865  45.340
H  50.084  62.084  36.502
H  64.328  43.125  39.267
H  36.821  33.092  39.192
H  67.458  68.504  52.737
H  24.480  50.455  56.680
H  23.027  50.835  56.129
H  38.082  50.570  57.410
H  44.101  35.888  34.887
H  41.415  28.274  46.242
H  51.378  45.431  67.649
H  65.830  72.346  49.805
H  66.781  73.450  49.222
H  42.902  63.685  70.674
H  58.554  63.963  39.574
H  58.616  65.488  39.491
H  41.468  63.116  70.616
H  71.534  46.308  66.675
H  33.669  53.469  63.893
H  45.918  54.197  32.924
H  66.981  58.553  35.423
H  65.774  59.408  35.008
H  56.229  60.493  66.110
H  42.897  37.587  70.477
H  42.467  38.706  71.479
H  57.730  60.832  66.175
H  41.825  32.188  32.773
H  39.411  33.069  40.940
H  43.331  31.791  32.902
H  45.165  52.877  33.351
H  38.837  65.243  51.531
H  30.346  48.895  32.177
H  43.929  26.839  39.987
H  51.795  44.197  66.738
H  67.630  43.631  30.023
H  50.796  54.881  67.773
H  51.870  53.739  67.631
H  66.301  44.163  29.410
H  77.539  47.881  50.608
H  59.495  71.211  43.354
H  59.205  72.680  43.848
H  39.189  32.592  52.258
H  39.961  33.903  52.050
H  51.728  43.896  31.204
H  50.280  43.506  31.542
H  67.497  37.589  37.048
H  49.941  22.233  46.550
H  48.683  23.076  47.025
H  58.802  38.908  29.377
H  41.324  74.543  41.977
H  66.989  51.286  54.280
H  26.589  48.825  61.259
H  44.996  45.622  34.842
H  34.226  69.260  56.748
H  45.194  47.129  34.851
H  42.243  29.867  61.218
H  46.654  32.976  50.809
H  45.995  33.884  51.939
H  41.708  31.209  61.776
H  46.007  62.285  58.134
H  68.455  51.816  54.402
H  45.106  63.114  59.022
H  57.917  39.658  28.346
H  23.647  45.212  50.877
H  33.148  53.688  60.531
H  35.272  32.987  55.344
H  36.249  31.768  54.990
H  56.247  58.687  71.844
H  58.005  26.477  46.587
H  58.745  26.864  47.881
H  50.844  27.476  65.413
H  57.546  57.969  72.362
H  41.462  55.057  64.408
H  26.393  49.136  47.895
H  76.236  48.712  50.689
H  65.537  60.312  44.827
H  55.668  57.417  23.227
H  39.586  36.590  34.444
H  41.863  31.818  40.635
H  41.828  30.637  41.581
H  40.675  37.562  33.922
H  60.411  37.805  63.316
H  60.558  39.324  63.539
H  24.439  43.763  49.400
H  53.676  51.839  57.715
H  24.230  45.057  52.296
H  42.010  55.217  62.963
H  48.363  58.470  40.896
H  56.816  58.400  36.544
H  54.128  67.313  68.108
H  47.544  52.836  33.433
H  61.812  68.783  39.350
H  61.924  70.173  40.036
H  27.455  50.128  61.383
H  58.320  58.199  36.865
H  70.834  37.415  58.727
H  69.891  38.629  58.791
H  48.735  35.998  31.309
H  62.701  43.480  61.739
H  61.877  60.798  59.760
H  49.012  52.383  33.432
H  25.164  49.054  59.491
H  31.436  41.164  47.541
H  46.601  39.619  36.537
H  47.827  40.506  36.601
H  32.836  41.625  48.138
H  49.848  35.346  32.099
H  72.159  40.074  40.998
H  45.178  25.471  35.603
H  60.752  42.627  66.228
H  60.260  41.186  66.229
H  69.398  42.392  65.058
H  23.651  49.293  59.544
H  54.017  66.560  69.445
H  67.076  48.494  45.052
H  64.333  65.800  35.186
H  60.390  72.691  41.979
H  32.603  64.417  49.610
H  31.918  65.264  50.709
H  61.858  72.179  41.994
H  36.451  24.524  49.736
H  37.727  24.172  48.884
H  50.948  56.412  61.755
H  69.160  38.196  55.110
H  68.012  38.487  54.082
H  41.431  66.764  55.494
H  65.043  65.594  33.818
H  44.066  55.296  73.122
H  55.413  66.028  61.471
H  56.576  65.014  61.672
H  58.072  53.131  23.059
H  65.731  66.729  44.563
H  64.343  66.203  44.146
H  35.408  50.660  54.757
H  41.486  65.533  54.567
H  66.593  49.928  45.388
H  51.940  55.776  60.766
H  34.555  51.187  53.328
H  57.942  53.564  24.518
H  47.599  57.136  40.647
H  51.402  26.464  47.372
H  49.263  60.974  25.084
H  45.997  59.395  74.939
H  59.558  52.170  26.078
H  60.091  53.607  25.835
H  52.502  69.144  32.293
H  68.879  29.839  52.612
H  68.911  31.375  52.936
H  54.031  69.568  32.319
H  45.541  58.004  75.522
H  31.624  56.696  45.815
H  32.088  58.105  45.481
H  52.513  32.304  66.577
H  23.890  54.079  55.292
H  27.476  45.355  65.434
H  40.737  57.301  33.625
H  56.856  49.030  42.930
H  29.674  47.532  35.736
H  25.789  55.118  44.412
H  25.981  56.645  44.637
H  47.123  46.611  51.228
H  49.350  72.847  44.011
H  48.511  72.565  45.295
H  73.083  51.599  52.100
H  68.961  48.089  43.999
H  52.129  43.786  55.380
H  62.981  29.746  48.940
H  44.234  25.767  43.482
H  47.776  71.086  39.422
H  45.090  41.979  65.520
H  48.819  70.709  38.325
H  50.104  53.167  73.507
H  33.138  40.581  61.617
H  33.435  39.132  61.261
H  24.798  55.513  48.460
H  73.180  60.768  52.931
H  72.577  62.130  52.542
H  57.451  36.579  70.513
H  53.425  33.512  66.298
H  56.330  74.744  49.253
H  48.936  46.894  66.272
H  22.643  43.450  47.992
H  42.623  61.866  43.972
H  44.511  52.260  76.684
H  68.532  49.263  43.077
H  40.371  56.582  51.681
H  40.151  58.086  52.030
H  51.217  44.602  22.085
H  35.214  46.951  70.660
H  34.538  48.336  70.939
H  48.928  48.408  66.309
H  43.284  54.889  27.466
H  42.094  53.917  27.719
H  73.331  51.677  53.644
H  64.891  62.596  69.527
H  46.395  45.673  43.696
H  29.965  47.470  60.861
H  34.327  43.420  67.688
H  34.237  44.513  66.636
H  63.881  38.811  35.201
H  46.825  31.531  31.462
H  46.635  33.072  31.432
H  52.711  36.660  35.074
H  39.646  38.844  52.493
H  65.043  61.338  70.421
H  54.476  58.378  23.361
H  26.960  50.528  47.588
H  40.107  44.603  59.707
H  49.290  27.626  65.427
H  39.365  43.896  60.856
H  52.956  26.280  47.251
H  49.639  33.732  64.838
H  49.839  32.921  66.133
H  49.826  61.778  26.306
H  43.815  28.214  33.174
H  45.287  28.526  32.806
H  39.585  58.040  34.351
H  29.452  48.656  61.689
H  67.659  68.638  42.683
H  67.615  67.404  43.654
H  33.788  29.323  45.216
H  32.325  29.828  45.268
H  53.364  44.674  55.129
H  41.374  37.484  44.212
H  40.875  38.515  45.250
H  52.550  52.160  47.460
H  47.042  38.231  55.813
H  72.973  41.249  44.040
H  72.991  42.587  43.250
H  45.492  38.348  55.782
H  40.329  40.233  52.497
H  52.057  35.369  35.558
H  63.269  37.379  35.041
H  25.647  42.964  50.031
H  31.052  48.138  35.995
H  62.396  36.479  28.698
H  62.149  42.012  51.033
H  62.725  40.588  50.843
H  62.217  37.247  27.385
H  40.439  30.323  63.741
H  51.171  44.678  61.286
H  49.645  44.382  61.250
H  30.118  54.146  38.874
H  73.541  40.252  40.319
H  44.443  63.446  53.004
H  49.621  30.726  28.577
H  69.285  40.913  65.465
H  51.697  76.073  49.797
H  59.416  38.446  70.044
H  55.581  58.116  51.850
H  54.385  58.435  52.752
H  45.821  54.516  68.188
H  45.020  55.494  67.275
H  65.049  30.321  49.053
H  46.374  44.751  31.580
H  38.778  47.411  35.771
H  47.756  45.473  31.710
H  77.918  43.190  47.073
H  66.373  31.056  48.545
H  62.771  50.107  27.837
H  63.380  32.818  66.686
H  34.059  43.109  33.628
H  32.558  43.403  33.826
H  38.404  51.109  25.389
H  45.388  75.342  55.387
H  53.100  76.695  49.673
H  55.649  29.191  40.531
H  56.105  31.981  48.155
H  38.764  39.718  69.393
H  62.187  51.500  27.975
H  57.003  59.760  34.131
H  76.710  42.188  47.219
H  44.183  74.384  55.352
H  53.349  61.773  39.508
H  36.960  44.895  59.612
H  35.612  45.602  59.535
H  51.837  62.043  39.246
H  46.149  72.397  38.727
H  47.061  73.455  38.092
H  55.163  60.804  68.300
H  68.784  44.712  60.549
H  35.922  28.957  45.807
H  66.628  29.096  40.124
H  60.912  38.805  69.880
H  41.585  60.387  63.633
H  68.030  29.794  40.193
H  50.488  31.272  56.726
H  50.295  32.223  57.900
H  55.611  59.353  67.988
H  46.631  53.214  35.446
H  47.690  54.480  34.905
H  72.070  47.992  43.830
H  46.318  27.184  37.929
H  47.561  69.110  43.407
H  48.201  48.175  61.965
H  40.084  60.588  64.012
H  70.309  48.964  51.151
H  55.730  59.156  33.519
H  43.108  74.292  58.011
H  52.103  69.595  39.317
H  50.921  70.237  38.571
H  51.496  49.172  60.642
H  28.093  48.666  63.823
H  52.718  49.745  61.395
H  56.612  35.222  63.288
H  38.216  45.721  64.900
H  43.255  26.691  37.457
H  37.979  44.158  64.722
H  42.133  25.561  37.408
H  31.171  28.507  49.864
H  53.842  30.778  38.653
H  35.616  50.881  50.876
H  29.379  47.844  63.734
H  61.821  47.079  62.726
H  37.800  50.015  24.495
H  48.626  41.375  34.750
H  28.688  35.713  54.800
H  28.574  34.599  55.855
H  33.465  65.684  56.897
H  34.998  65.487  56.711
H  66.370  27.109  46.772
H  54.467  31.742  37.624
H  58.081  38.748  55.151
H  29.404  34.392  43.350
H  52.909  30.577  60.401
H  43.282  75.804  58.566
H  54.655  31.441  48.186
H  57.024  39.237  61.996
H  55.487  39.326  62.137
H  70.932  36.476  44.246
H  55.182  27.772  40.880
H  37.151  56.434  75.039
H  69.412  36.387  43.917
H  37.728  55.989  73.694
H  32.649  39.226  44.779
H  30.123  35.674  43.838
H  33.751  38.285  44.176
H  71.192  63.363  57.387
H  72.153  63.222  56.138
H  49.088  59.222  51.952
H  64.742  33.260  66.074
H  76.784  53.913  44.250
H  75.790  54.091  43.076
H  56.225  34.557  61.966
H  52.023  30.025  61.538
H  58.325  55.118  40.784
H  56.783  55.369  40.805
H  48.930  58.270  53.157
H  36.828  63.200  63.691
H  69.990  43.736  60.625
H  69.230  49.947  50.657
H  43.292  56.087  72.038
H  47.341  54.229  72.794
H  70.932  49.097  44.106
H  47.277  52.989  71.866
H  46.628  73.930  53.361
H  55.646  62.857  74.114
H  69.680  57.573  50.389
H  68.338  56.796  50.128
H  60.030  57.410  40.715
H  29.865  37.116  49.456
H  41.728  46.107  38.861
H  31.143  36.307  49.143
H  58.733  58.088  41.209
H  48.586  38.988  54.155
H  48.901  40.517  53.971
H  56.484  26.370  44.765
H  40.940  55.629  28.513
H  39.523  55.685  29.090
H  34.315  49.830  64.742
H  33.982  51.367  64.731
H  37.992  64.231  63.856
H  55.026  27.077  53.254
H  56.831  27.888  44.464
H  49.870  63.921  41.593
H  43.765  26.003  35.224
H  57.196  41.634  71.471
H  54.927  33.927  69.360
H  53.558  33.178  69.457
H  62.925  44.988  61.985
H  39.153  47.914  34.361
H  36.879  63.901  70.169
H  45.275  66.756  42.803
H  71.666  44.233  44.285
H  70.560  43.297  43.841
H  38.000  64.969  70.216
H  58.401  50.643  65.243
H  58.587  41.005  71.739
H  49.209  46.838  34.690
H  50.540  47.558  34.993
H  61.058  57.385  66.082
H  61.477  58.125  67.368
H  54.858  25.952  62.330
H  42.992  45.320  39.430
H  54.077  26.744  61.235
H  44.124  67.764  42.576
H  42.872  68.625  47.612
H  44.398  68.579  47.605
H  61.230  59.521  59.139
H  58.012  52.129  65.225
H  48.710  63.208  40.927
H  55.276  27.776  51.870
H  45.256  73.309  53.729
H  62.041  43.750  69.304
H  66.283  48.349  35.002
H  62.471  44.976  70.179
H  65.829  48.075  36.450
H  28.668  53.838  44.036
H  29.387  52.859  43.082
H  70.855  53.152  51.359
H  30.546  56.843  67.568
H  30.025  56.032  68.768
H  40.352  56.115  61.380
H  70.505  54.679  51.449
H  33.258  35.261  49.773
H  35.401  70.164  56.251
H  23.104  41.319  44.103
H  23.558  41.809  45.503
H  40.249  60.611  70.453
H  74.019  46.680  61.836
H  73.682  46.941  60.370
H  42.069  73.841  43.108
H  39.684  61.859  69.689
H  36.044  27.414  45.652
H  34.726  35.131  50.277
H  40.833  57.180  62.371
H  45.615  41.847  37.372
H  70.221  50.550  69.425
H  69.517  51.407  70.487
H  55.158  62.121  72.846
H  45.111  58.049  34.162
H  35.955  52.309  29.902
H  48.969  69.456  42.773
H  52.153  77.302  54.561
H  52.609  75.831  54.744
H  69.169  54.137  53.153
H  36.916  34.602  55.492
H  38.322  35.165  55.501
H  68.706  53.392  51.854
H  37.255  72.623  56.678
H  37.240  51.644  30.514
H  59.702  56.311  46.632
H  43.744  58.256  34.941
H  58.993  56.527  45.268
H  58.238  56.548  60.380
H  43.992  51.877  31.560
H  44.217  51.506  30.086
H  44.407  57.963  53.197
H  58.406  57.732  59.398
H  56.918  44.766  34.305
H  57.813  46.025  34.285
H  44.096  58.918  51.972
H  48.863  30.737  29.928
H  50.797  66.293  49.118
H  31.986  58.269  31.320
H  30.817  59.235  31.073
H  51.543  73.113  42.048
H  61.945  41.689  68.543
H  36.246  47.807  33.505
H  53.170  45.082  52.679
H  62.747  63.133  64.486
H  32.220  70.370  58.745
H  34.677  63.995  54.596
H  34.810  62.425  54.586
H  46.526  65.638  52.252
H  35.199  48.291  38.192
H  70.699  63.392  53.449
H  33.822  47.658  38.338
H  39.437  50.057  34.005
H  37.916  49.721  33.991
H  46.433  44.673  59.333
H  58.893  69.689  48.329
H  47.882  44.297  59.116
H  61.082  52.594  72.511
H  50.895  41.150  28.817
H  51.584  42.411  29.395
H  64.249  62.865  64.818
H  61.289  52.991  73.969
H  47.484  65.652  53.484
H  29.831  38.121  53.813
H  69.314  63.214  54.154
H  38.765  34.276  34.751
H  34.840  50.522  36.830
H  62.644  54.744  32.727
H  62.375  53.239  32.734
H  47.788  44.966  64.032
H  54.528  44.399  52.682
H  26.909  55.289  57.035
H  35.222  36.493  41.633
H  43.086  30.511  56.747
H  35.106  47.901  32.512
H  53.073  32.344  45.727
H  50.740  74.167  41.200
H  53.298  33.195  44.432
H  54.359  45.319  23.066
H  33.754  36.771  42.518
H  68.390  62.081  36.646
H  69.551  62.562  35.672
H  55.096  53.450  24.937
H  44.049  30.986  57.879
H  54.674  53.843  23.515
H  56.152  60.794  55.603
H  40.196  40.277  38.823
H  40.535  41.799  38.813
H  62.246  40.443  69.438
H  44.667  40.262  35.759
H  29.844  38.472  52.288
H  33.728  31.682  63.642
H  67.184  34.216  54.644
H  29.638  53.115  30.335
H  29.779  51.651  29.896
H  35.133  34.451  61.349
H  44.321  77.813  47.287
H  43.095  77.202  46.539
H  66.184  33.583  55.626
H  69.446  50.307  39.048
H  67.924  50.053  39.216
H  35.264  35.935  60.793
H  55.591  25.058  57.715
H  33.487  54.757  70.426
H  32.968  55.368  71.749
H  24.267  52.765  43.648
H  24.198  51.293  44.204
H  58.378  42.590  46.611
H  72.960  48.886  51.572
H  38.817  65.586  66.024
H  72.377  48.875  50.143
H  56.917  43.051  46.785
H  34.969  53.152  43.586
H  57.067  25.155  57.295
H  33.464  53.293  43.097
H  58.079  70.949  48.711
H  30.979  28.631  48.345
H  42.439  69.592  30.917
H  52.720  33.498  60.990
H  59.634  43.091  44.256
H  54.667  48.765  60.987
H  62.477  65.172  63.703
H  39.676  66.500  66.920
H  52.104  56.011  38.812
H  50.554  56.017  38.790
H  62.866  64.166  62.568
H  47.406  44.659  72.834
H  48.895  44.941  72.523
H  49.595  54.717  24.122
H  45.863  30.435  41.793
H  45.764  78.078  52.685
H  49.756  56.209  24.450
H  31.928  39.696  59.601
H  32.711  40.394  58.471
H  47.019  77.892  51.794
H  55.854  46.574  36.910
H  56.937  47.636  36.754
H  54.441  47.607  61.926
H  38.764  36.668  61.551
H  37.946  37.889  61.030
H  44.939  30.168  40.540
H  45.275  39.151  34.885
H  33.692  49.663  37.401
H  51.900  61.518  47.101
H  35.467  55.862  33.818
H  59.882  51.089  46.165
H  72.008  49.484  35.599
H  68.209  36.813  49.009
H  73.216  50.229  36.183
H  60.773  50.364  47.227
H  70.560  47.938  42.257
H  69.717  48.737  41.250
H  51.436  32.043  44.056
H  60.188  49.527  32.622
H  33.912  55.892  33.819
H  60.508  48.009  32.474
H  37.188  51.553  55.638
H  43.827  69.973  41.259
H  43.055  41.652  62.684
H  41.530  41.652  62.617
H  47.637  45.372  47.981
H  37.617  51.699  41.362
H  65.248  45.378  55.308
H  66.058  45.903  56.531
H  61.239  55.787  68.786
H  36.025  52.709  56.257
H  51.800  51.167  33.485
H  62.726  56.117  68.599
H  52.422  31.069  43.406
H  44.765  66.194  37.327
H  52.453  48.401  28.598
H  48.833  56.581  61.156
H  49.175  57.250  59.818
H  28.825  52.780  62.568
H  70.036  54.938  46.469
H  71.045  53.797  46.303
H  38.010  54.403  59.542
H  48.914  50.840  58.405
H  36.753  67.378  66.096
H  35.629  68.405  65.892
H  45.624  64.897  37.379
H  26.744  65.365  55.970
H  33.874  59.044  62.828
H  34.920  58.457  63.724
H  50.348  50.693  33.903
H  55.252  69.067  34.429
H  54.500  67.895  33.761
H  50.589  63.689  38.661
H  45.747  64.881  56.903
H  46.854  65.024  57.953
H  50.624  53.920  47.371
H  49.248  63.064  38.278
H  42.278  70.013  41.129
H  57.513  27.770  41.819
H  30.883  45.396  53.835
H  38.865  51.928  42.268
H  60.679  39.407  44.313
H  61.268  40.816  44.260
H  47.382  46.449  64.045
H  38.673  72.425  43.287
H  37.505  73.317  43.751
H  50.814  28.802  49.539
H  68.455  49.795  35.789
H  67.379  50.859  35.408
H  54.842  52.721  34.902
H  33.469  33.197  63.710
H  33.015  71.201  59.746
H  27.296  34.196  47.073
H  67.864  62.726  56.504
H  59.259  47.049  36.967
H  25.622  54.412  57.075
H  47.529  59.207  76.659
H  48.890  59.895  76.896
H  58.660  45.629  36.658
H  53.632  53.356  34.159
H  50.526  61.908  47.706
H  69.585  60.438  39.151
H  68.833  59.405  40.083
H  67.127  63.761  57.390
H  62.108  65.648  43.169
H  62.147  64.297  43.951
H  55.855  32.860  58.385
H  32.308  44.797  53.621
H  49.371  54.286  48.548
H  60.131  35.980  51.419
H  58.983  36.782  52.067
H  58.006  26.368  41.424
H  60.709  35.209  44.440
H  62.162  35.662  44.185
H  41.723  52.138  35.126
H  52.945  54.104  51.439
H  33.127  66.778  63.188
H  51.481  51.820  76.301
H  28.499  41.602  43.482
H  28.928  40.121  43.418
H  50.555  29.942  50.624
H  60.554  58.207  61.329
H  60.067  59.614  61.700
H  51.644  51.176  25.032
H  52.935  51.932  25.441
H  48.043  34.869  63.823
H  47.888  35.269  65.329
H  54.620  31.984  58.560
H  76.817  55.918  55.362
H  75.623  56.233  54.435
H  42.615  68.255  31.659
H  54.572  50.761  72.267
H  28.619  33.413  46.760
H  57.383  30.489  63.896
H  45.639  60.359  43.916
H  62.151  50.733  25.808
H  63.280  50.485  24.797
H  61.581  41.003  59.033
H  35.768  61.432  33.202
H  44.325  60.775  43.145
H  34.732  60.566  34.021
H  60.709  39.898  58.252
H  30.233  70.136  46.548
H  31.128  69.563  47.706
H  57.321  53.277  54.735
H  39.050  65.096  38.856
H  43.071  72.312  41.392
H  34.385  50.743  44.262
H  67.115  39.839  68.944
H  68.513  40.280  69.391
H  66.430  35.889  60.866
H  30.527  37.930  41.228
H  54.832  56.058  64.915
H  30.114  39.423  41.113
H  44.283  59.032  64.087
H  35.956  50.751  44.297
H  64.109  69.181  43.614
H  60.007  61.640  70.120
H  44.294  66.005  63.577
H  69.077  44.030  51.328
H  66.769  64.643  44.282
H  70.623  66.731  56.298
H  36.350  45.201  31.043
H  35.101  45.993  31.442
H  70.452  65.402  55.474
H  47.363  63.827  63.850
H  46.175  64.800  63.515
H  56.194  59.266  55.725
H  26.812  36.360  59.571
H  46.626  44.170  48.552
H  43.342  45.789  62.885
H  26.180  37.764  59.335
H  49.961  24.827  47.667
H  44.562  61.191  62.815
H  43.218  60.715  62.261
H  44.690  67.288  62.791
H  68.943  42.496  51.487
H  58.351  65.164  58.681
H  59.778  65.665  58.989
H  43.819  46.742  64.029
H  35.900  43.025  42.637
H  36.008  42.392  44.046
H  41.164  53.052  34.011
H  56.542  41.662  63.363
H  48.941  71.031  56.827
H  60.776  60.621  69.216
H  56.140  24.034  55.175
H  55.678  22.735  55.918
H  45.949  24.875  58.488
H  32.407  63.663  52.260
H  66.571  36.658  36.212
H  45.115  43.145  60.423
H  52.427  26.769  56.164
H  54.330  59.261  72.691
H  37.087  31.454  57.073
H  54.156  67.429  65.916
H  33.198  51.666  34.138
H  38.528  30.581  34.889
H  35.539  31.722  57.086
H  36.220  72.420  40.372
H  38.766  66.567  39.226
H  38.781  48.220  28.901
H  38.304  29.064  34.676
H  53.971  60.511  71.861
H  37.468  71.513  40.649
H  57.006  66.541  57.535
H  52.237  26.419  54.663
H  44.024  42.129  60.773
H  52.707  66.994  65.586
H  32.721  63.628  53.768
H  37.561  45.393  56.139
H  34.489  50.750  34.312
H  46.671  37.288  52.870
H  46.608  38.791  53.276
H  57.661  67.784  56.887
H  57.027  37.936  58.307
H  56.083  38.317  59.511
H  39.144  49.739  29.017
H  67.827  35.232  60.635
H  49.053  72.216  57.846
H  44.509  24.490  58.820
H  39.240  48.639  50.247
H  37.572  44.318  57.261
H  62.751  38.944  53.763
H  65.775  64.105  46.193
H  50.178  67.121  40.763
H  51.516  67.789  40.553
H  66.102  65.575  46.553
H  51.271  54.618  43.003
H  51.667  56.056  43.304
H  40.060  48.728  51.553
H  53.715  56.414  63.933
H  30.548  41.802  36.877
H  29.729  41.821  38.159
H  61.662  38.952  54.834
H  55.111  42.093  62.961
H  67.621  64.387  43.058
H  37.541  44.884  27.904
H  44.697  24.142  47.169
H  45.080  24.918  45.888
H  64.848  56.132  26.004
H  30.291  61.528  45.353
H  31.408  62.502  44.936
H  63.435  56.373  26.593
H  55.549  39.751  38.278
H  46.938  70.643  36.621
H  43.000  58.181  63.982
H  61.335  37.241  67.089
H  71.203  30.744  53.372
H  60.429  36.058  66.766
H  37.711  65.693  56.176
H  38.761  65.067  57.168
H  68.990  64.494  50.254
H  47.161  69.180  36.148
H  46.008  63.754  27.916
H  50.084  51.214  76.295
H  53.629  44.028  22.600
H  40.267  34.542  34.688
H  37.705  43.806  38.746
H  54.401  44.775  69.910
H  69.269  62.955  50.107
H  52.363  62.043  41.920
H  71.678  32.163  52.926
H  54.901  38.475  37.691
H  56.830  68.194  32.749
H  57.704  69.513  32.784
H  56.983  31.635  62.905
H  31.116  36.314  34.817
H  32.419  36.748  35.544
H  42.135  38.594  37.930
H  67.151  38.062  61.131
H  68.004  37.404  60.023
H  67.500  45.363  64.092
H  28.050  64.542  45.700
H  54.409  62.897  41.599
H  68.968  44.932  64.293
H  56.972  45.575  28.347
H  71.601  48.257  33.050
H  73.123  48.625  33.145
H  59.163  31.189  45.317
H  58.539  32.516  45.866
H  51.443  34.364  60.975
H  59.736  44.597  44.043
H  28.677  65.095  46.998
H  46.151  62.192  27.944
H  55.780  63.438  41.193
H  40.599  38.299  37.983
H  52.105  63.540  42.266
H  53.204  45.425  70.649
H  49.638  68.789  61.041
H  44.854  73.057  46.105
H  46.295  73.301  46.561
H  34.848  40.533  54.436
H  32.133  54.506  27.776
H  35.698  41.828  54.387
H  76.993  43.518  43.620
H  77.277  44.870  42.945
H  60.509  46.680  44.401
H  49.495  64.759  57.017
H  50.546  63.622  57.018
H  75.341  43.609  45.788
H  61.813  46.597  45.254
H  63.966  50.532  44.290
H  43.525  69.401  35.812
H  52.724  39.164  48.534
H  44.579  72.170  41.150
H  54.104  39.871  48.659
H  55.216  50.776  54.669
H  50.099  65.950  33.264
H  50.015  64.445  33.042
H  48.428  25.141  47.701
H  37.305  44.715  26.376
H  64.089  51.639  43.206
H  38.954  44.365  39.451
H  53.609  39.037  67.738
H  53.975  37.573  68.009
H  50.788  67.816  61.282
H  69.019  49.418  53.817
H  47.495  47.861  73.527
H  46.531  49.076  73.688
H  49.673  77.589  51.485
H  53.483  39.404  45.952
H  53.902  37.966  46.188
H  50.623  78.438  52.316
H  45.853  58.296  65.635
H  68.952  48.308  52.725
H  44.857  57.851  66.718
H  30.073  45.770  48.866
H  31.505  46.238  48.624
H  42.819  69.848  37.161
H  45.138  72.883  48.945
H  45.542  71.476  48.534
H  61.355  34.269  29.026
H  60.185  34.304  28.016
H  33.224  53.423  27.737
H  74.594  42.720  44.716
H  59.065  38.236  67.596
H  57.952  37.175  67.716
H  65.622  68.706  43.433
H  55.846  44.984  27.395
H  51.445  52.693  74.149
H  27.658  51.815  62.798
H  52.624  49.920  28.757
H  56.285  76.789  46.589
H  51.489  56.212  47.564
H  26.023  58.350  59.701
H  27.169  57.352  59.925
H  46.875  49.649  27.324
H  27.559  58.709  45.825
H  27.929  57.248  45.531
H  48.288  48.922  27.342
H  50.225  68.936  48.249
H  61.602  73.091  45.693
H  64.318  57.384  56.895
H  49.109  69.996  48.306
H  32.666  41.086  35.125
H  33.743  40.668  34.111
H  46.349  59.295  40.567
H  72.661  44.482  63.164
H  72.686  45.998  63.432
H  45.145  58.393  40.929
H  66.387  56.669  37.317
H  54.715  58.524  65.260
H  56.075  57.833  65.255
H  65.146  57.169  36.497
H  49.074  54.100  56.150
H  36.099  42.745  51.510
H  30.202  67.054  51.762
H  74.806  54.648  58.701
H  56.412  66.160  40.657
H  69.613  60.346  43.830
H  56.738  66.593  39.202
H  56.296  49.948  66.731
H  32.875  35.237  61.374
H  37.439  41.700  38.167
H  33.221  36.734  60.987
H  57.602  51.275  56.147
H  54.213  45.318  49.998
H  55.489  46.189  50.019
H  74.210  57.158  59.182
H  54.248  74.289  46.350
H  69.803  51.755  48.031
H  54.195  75.724  46.958
H  52.927  42.806  57.393
H  22.667  54.346  57.521
H  22.333  55.254  56.313
H  51.367  43.009  57.449
H  40.585  62.247  45.523
H  41.471  62.378  46.801
H  74.724  57.494  60.592
H  75.339  53.215  58.310
H  71.319  51.365  48.159
H  56.472  34.480  37.292
H  61.362  71.655  46.256
H  64.875  56.523  58.076
H  36.288  66.786  50.707
H  39.445  66.844  35.124
H  38.765  66.504  36.508
H  34.783  67.256  50.593
H  55.758  46.832  65.289
H  30.017  51.069  41.861
H  30.209  50.525  40.393
H  66.444  58.716  38.430
H  24.513  63.310  48.208
H  23.913  62.324  49.213
H  27.524  54.044  60.007
H  61.871  66.114  46.320
H  34.221  58.808  56.837
H  55.234  47.940  66.206
H  63.297  65.622  46.004
H  53.740  59.730  63.210
H  52.963  58.474  63.739
H  49.997  54.631  50.860
H  50.451  63.024  43.674
H  51.776  62.305  44.074
H  68.963  42.068  61.671
H  27.740  55.331  59.156
H  33.941  57.315  56.886
H  73.750  59.878  58.564
H  56.540  51.478  66.721
H  49.900  73.807  60.302
H  74.396  58.794  57.691
H  71.168  60.636  43.719
H  41.563  57.701  46.369
H  42.590  56.530  46.351
H  50.134  50.176  56.452
H  55.607  69.440  49.404
H  38.111  35.855  48.318
H  54.138  69.710  49.864
H  72.093  49.509  42.199
H  52.315  37.251  52.707
H  50.921  72.644  59.991
H  52.533  38.346  51.618
H  54.841  39.798  25.639
H  53.666  39.062  26.316
H  63.894  25.695  54.809
H  39.536  35.833  47.577
H  70.320  48.339  38.263
H  71.205  48.998  39.365
H  46.000  34.936  35.415
H  37.136  67.832  37.040
H  37.495  69.076  36.139
H  46.717  33.716  35.984
H  71.540  50.618  41.273
H  41.642  24.377  50.756
H  42.844  24.117  49.825
H  28.833  66.809  51.102
H  39.914  46.932  39.653
H  71.076  59.244  64.340
H  52.012  59.138  61.810
H  66.391  54.936  57.994
H  65.972  53.704  58.773
H  34.237  66.776  47.619
H  73.457  63.762  40.326
H  74.163  62.377  40.214
H  60.992  53.341  48.532
H  73.928  41.370  57.545
H  70.833  60.564  65.107
H  49.155  55.582  41.559
H  46.864  70.084  63.445
H  75.105  40.564  58.165
H  75.615  46.307  55.518
H  76.756  45.815  54.599
H  46.367  42.776  36.369
H  62.508  53.136  48.572
H  56.265  46.624  62.983
H  52.007  29.910  33.138
H  71.295  47.224  68.668
H  70.354  48.282  69.272
H  46.970  71.269  64.397
H  57.490  45.701  62.643
H  40.003  47.802  40.936
H  59.139  55.866  69.417
H  50.536  66.685  47.658
H  62.741  65.818  55.303
H  45.482  50.205  33.628
H  61.694  66.941  55.543
H  70.074  54.265  44.346
H  67.773  70.747  41.943
H  67.560  70.802  40.426
H  51.916  29.366  53.766
H  57.412  62.338  69.184
H  57.032  61.434  70.416
H  59.472  57.379  69.363
H  42.214  53.206  31.966
H  28.224  40.711  55.106
H  28.943  40.165  53.815
H  45.910  49.209  34.697
H  34.751  42.422  29.304
H  34.197  43.841  29.038
H  62.801  41.324  41.619
H  51.648  62.048  36.552
H  43.448  54.103  32.235
H  61.443  41.702  42.248
H  50.729  58.496  62.407
H  38.694  64.216  46.014
H  24.212  49.766  48.629
H  23.139  50.619  49.313
H  61.424  27.705  36.596
H  64.311  27.823  49.103
H  60.705  48.149  62.564
H  34.722  49.721  50.401
H  53.335  53.814  53.762
H  55.754  34.354  38.668
H  48.847  33.189  61.797
H  54.357  28.178  44.928
H  40.668  61.875  28.955
H  54.466  29.586  45.629
H  49.927  32.787  62.870
H  50.920  71.123  42.744
H  61.497  74.701  41.305
H  40.696  62.611  27.590
H  49.945  30.494  42.501
H  49.599  29.369  41.475
H  32.418  47.563  61.733
H  50.825  52.140  50.802
H  65.248  66.996  59.300
H  65.392  68.500  59.073
H  33.266  46.298  61.309
H  63.215  31.387  47.600
H  64.542  32.008  47.015
H  60.162  75.101  40.661
H  44.830  35.792  51.167
H  55.995  32.899  42.503
H  55.444  33.265  43.880
H  57.229  54.547  38.778
H  60.905  29.163  36.519
H  57.276  56.103  38.597
H  51.430  29.164  34.377
H  50.007  56.872  41.440
H  34.335  66.507  46.072
H  37.328  34.803  59.242
H  69.751  52.756  44.200
H  34.203  62.877  60.631
H  33.984  61.517  61.394
H  57.477  31.306  37.143
H  57.498  32.712  36.499
H  37.184  36.239  59.815
H  38.378  61.221  72.140
H  37.262  62.363  72.222
H  62.310  38.877  56.939
H  47.537  69.938  45.733
H  50.994  70.296  41.435
H  46.754  71.340  45.814
H  63.172  37.545  56.879
H  51.619  51.214  30.609
H  51.306  49.828  31.223
H  46.083  36.679  50.867
H  55.237  54.570  54.834
H  53.261  49.884  72.123
H  55.882  54.290  64.115
H  55.929  55.127  70.861
H  42.939  26.570  41.902
H  25.512  38.891  54.754
H  26.737  38.144  54.128
H  66.896  62.815  60.820
H  25.540  48.236  57.417
H  24.760  47.250  56.425
H  68.206  63.064  59.962
H  41.861  46.897  28.171
H  54.290  44.809  36.084
H  54.387  44.490  37.590
H  37.179  63.063  59.388
H  41.834  45.573  28.949
H  59.160  45.691  75.482
H  53.764  69.813  67.942
H  35.680  54.798  54.816
H  56.142  70.377  59.030
H  65.269  63.202  38.528
H  35.805  37.235  37.883
H  36.184  37.674  36.441
H  57.333  70.650  59.956
H  72.693  65.549  47.912
H  74.162  55.302  40.494
H  59.963  45.031  76.653
H  74.573  55.923  41.840
H  35.776  62.401  59.172
H  41.398  26.369  41.927
H  56.529  49.983  33.554
H  23.748  50.811  41.048
H  61.967  67.615  32.322
H  76.935  53.258  48.814
H  77.564  54.635  48.503
H  63.402  68.161  32.127
H  66.896  52.743  69.211
H  66.965  54.033  70.032
H  53.483  49.260  46.867
H  54.052  62.698  29.497
H  50.325  56.652  48.809
H  48.815  32.110  43.797
H  51.682  52.923  31.979
H  50.160  43.300  73.257
H  47.622  44.316  50.743
H  46.930  59.323  49.297
H  32.895  44.122  30.779
H  60.412  67.671  60.051
H  55.142  70.009  67.287
H  45.152  70.674  66.440
H  40.632  57.865  28.170
H  39.126  57.669  27.938
H  54.261  62.631  31.046
H  55.149  50.679  33.787
H  72.857  65.301  46.387
H  71.992  43.595  52.356
H  28.953  51.725  46.712
H  62.465  24.884  43.569
H  30.338  52.216  46.260
H  31.454  61.493  39.767
H  26.281  52.009  44.153
H  27.788  51.798  44.166
H  30.384  60.493  39.358
H  74.849  56.883  52.395
H  76.381  56.658  52.307
H  61.759  26.220  43.920
H  51.146  54.543  55.511
H  27.437  65.171  57.339
H  49.865  30.312  46.303
H  29.491  50.476  37.137
H  36.703  55.124  59.971
H  47.536  50.537  57.337
H  57.800  76.968  46.638
H  64.702  53.190  60.498
H  64.841  54.749  60.321
H  62.406  26.109  54.937
H  64.125  65.809  57.316
H  63.358  67.115  57.020
H  65.565  27.982  43.039
H  73.382  42.911  52.444
H  45.490  74.344  62.634
H  34.991  30.403  41.856
H  45.769  40.017  26.468
H  39.000  76.689  49.876
H  39.253  75.230  49.482
H  52.628  53.970  57.375
H  45.901  38.864  25.433
H  47.190  74.341  48.281
H  47.306  75.498  47.213
H  65.963  63.262  39.918
H  27.306  45.097  56.262
H  26.028  45.541  57.097
H  46.516  73.197  62.757
H  60.617  68.267  61.493
H  49.809  45.582  50.889
H  77.389  46.850  41.991
H  28.832  51.876  37.214
H  49.260  31.694  46.586
H  44.233  52.050  26.071
H  44.380  50.566  25.547
H  64.240  28.742  43.130
H  33.541  30.859  42.117
H  59.936  69.760  53.107
H  58.866  68.784  53.574
H  37.351  55.170  54.531
H  22.610  51.878  41.068
H  58.112  39.031  64.174
H  58.337  40.196  65.126
H  61.357  48.263  27.264
H  41.361  53.940  51.038
H  42.378  54.573  52.019
H  60.181  47.247  27.174
H  45.535  43.476  74.368
H  47.055  43.282  74.580
H  41.953  54.736  24.573
H  42.255  54.189  23.182
H  36.797  72.177  38.212
H  37.797  73.374  38.373
H  44.572  37.374  61.507
H  30.740  35.351  46.259
H  67.534  40.207  63.982
H  30.336  34.017  45.529
H  38.984  41.920  70.254
H  38.349  42.566  68.989
H  51.259  55.817  51.094
H  38.229  40.431  37.702
H  57.065  55.251  64.000
H  45.274  36.078  62.362
H  53.642  51.198  54.312
H  51.259  62.184  34.361
H  67.010  41.658  64.266
H  53.129  73.144  53.585
H  66.676  59.618  39.671
H  73.271  48.046  39.012
H  54.431  55.200  70.531
H  70.105  41.767  34.657
H  69.974  41.535  36.185
H  41.499  44.218  27.262
H  42.069  43.673  25.929
H  41.113  49.367  58.877
H  45.594  54.117  23.089
H  44.754  54.878  22.021
H  40.072  48.253  58.600
H  53.795  71.798  60.165
H  69.890  42.483  62.830
H  53.421  70.892  58.994
H  71.442  51.277  37.073
H  69.894  51.217  37.079
H  64.064  52.868  72.713
H  35.461  71.623  42.488
H  34.143  72.480  42.633
H  63.066  51.717  72.885
H  35.957  59.587  48.442
H  47.835  31.920  63.503
H  73.779  49.474  39.400
H  22.481  47.048  48.343
H  48.422  31.088  62.320
H  31.670  63.915  32.572
H  30.833  62.624  32.483
H  23.555  47.683  49.175
H  48.566  29.742  51.526
H  59.014  39.903  40.709
H  54.895  62.375  34.770
H  55.234  63.820  35.264
H  44.352  71.492  67.464
H  55.053  59.547  35.615
H  63.054  69.795  58.823
H  61.844  70.591  58.250
H  43.440  50.152  32.801
H  42.481  48.336  71.272
H  49.054  28.397  52.052
H  43.334  47.320  72.050
H  68.802  64.484  37.412
H  53.653  60.043  35.225
H  67.270  64.314  37.724
H  47.569  67.454  34.676
H  53.111  52.480  31.626
H  47.346  59.089  47.822
H  50.236  42.140  72.292
H  42.979  57.900  61.117
H  43.351  56.480  60.659
H  76.680  47.940  42.809
H  43.145  50.806  34.164
H  60.245  39.934  41.666
H  43.994  49.266  27.256
H  44.512  49.988  28.520
H  55.717  60.060  24.068
H  56.877  59.048  24.137
H  54.090  72.395  52.615
H  50.867  48.384  45.864
H  50.850  60.926  73.798
H  51.493  59.493  73.863
H  41.224  39.521  62.058
H  52.788  61.878  34.357
H  42.599  39.771  61.443
H  34.935  68.860  60.638
H  58.537  40.159  68.632
H  59.723  41.150  68.519
H  34.651  70.347  60.946
H  40.867  36.825  31.604
H  43.149  61.567  29.436
H  42.519  60.243  29.948
H  40.497  38.327  31.521
H  34.744  43.438  52.368
H  34.256  43.976  31.577
H  33.704  66.017  61.973
H  48.279  66.355  35.524
H  47.775  31.795  44.920
H  47.928  53.016  58.515
H  35.033  58.316  48.414
H  35.161  45.516  62.405
H  50.983  60.204  45.571
H  35.676  72.088  55.224
H  52.454  54.262  30.405
H  36.075  46.462  64.192
H  35.394  45.998  65.472
H  55.895  30.204  43.172
H  39.940  39.863  41.402
H  53.207  54.910  31.570
H  41.207  40.455  40.779
H  54.721  31.256  43.250
H  63.850  38.539  60.310
H  37.982  59.400  36.929
H  76.897  56.123  41.569
H  73.906  42.862  39.447
H  49.399  46.426  49.407
H  53.019  41.709  41.751
H  69.920  59.782  61.937
H  53.014  56.155  29.297
H  54.108  55.093  29.226
H  70.974  60.896  62.324
H  54.947  42.851  31.546
H  64.469  39.176  49.141
H  64.879  40.400  50.003
H  55.483  42.066  30.302
H  38.036  39.545  26.264
H  59.930  55.406  35.031
H  76.565  55.551  40.200
H  54.406  49.391  51.385
H  72.253  56.924  49.306
H  32.071  56.650  40.245
H  30.817  55.814  40.109
H  72.370  56.220  47.921
H  66.884  56.263  70.091
H  66.892  56.663  68.601
H  53.272  48.130  50.959
H  28.514  47.202  48.324
H  30.471  38.317  66.269
H  27.935  46.106  49.278
H  61.119  32.260  67.860
H  27.604  45.402  34.528
H  74.634  43.774  38.422
H  62.345  38.997  60.457
H  64.949  66.868  62.971
H  64.694  65.725  61.961
H  46.324  60.647  25.156
H  51.456  52.033  62.077
H  52.343  52.691  60.999
H  60.416  33.595  68.267
H  62.139  38.756  31.401
H  62.044  37.391  30.664
H  29.485  52.768  39.194
H  54.019  49.491  68.398
H  59.019  56.490  35.635
H  38.906  64.845  41.323
H  70.391  35.830  50.704
H  69.249  34.875  50.861
H  57.932  70.037  51.281
H  60.810  56.219  56.891
H  62.322  56.518  56.662
H  56.779  68.956  51.426
H  33.303  46.660  65.087
H  65.590  46.120  58.638
H  63.657  61.314  44.378
H  32.827  57.778  51.005
H  35.659  70.049  58.893
H  35.510  49.114  35.304
H  58.186  65.208  71.939
H  57.943  66.697  72.153
H  59.979  58.180  74.201
H  46.244  32.855  46.322
H  47.097  34.101  45.942
H  36.903  48.512  35.498
H  69.826  65.153  64.495
H  61.105  57.274  73.624
H  68.682  65.922  65.204
H  49.803  28.612  32.050
H  36.769  29.082  40.189
H  39.633  28.964  61.035
H  38.819  68.921  57.522
H  28.488  64.365  61.781
H  37.625  65.233  40.586
H  53.829  50.032  48.989
H  39.555  28.307  62.461
H  53.002  53.761  26.606
H  54.111  54.862  26.808
H  47.336  68.471  70.142
H  28.789  53.895  36.309
H  29.788  55.091  36.128
H  53.349  40.342  42.406
H  32.243  47.749  64.657
H  29.838  63.639  61.462
H  38.258  58.187  37.812
H  51.839  68.475  56.115
H  52.181  69.956  56.390
H  28.941  38.502  66.059
H  46.646  50.798  53.308
H  39.335  54.990  67.187
H  40.038  56.329  67.447
H  41.216  49.536  63.878
H  52.276  35.767  25.375
H  51.767  37.097  25.907
H  41.274  49.508  62.331
H  40.312  68.454  57.610
H  28.524  46.179  58.572
H  33.619  33.040  52.158
H  53.301  48.707  69.574
H  76.798  46.557  39.883
H  76.012  47.679  39.196
H  26.190  44.537  42.649
H  63.831  47.139  57.344
H  62.874  46.036  56.773
H  51.522  69.741  53.998
H  76.965  51.990  54.020
H  76.984  50.609  53.307
H  52.561  68.641  54.032
H  28.330  41.824  57.033
H  36.478  68.713  59.046
H  49.487  22.959  56.772
H  27.127  40.829  56.985
H  64.562  45.364  33.506
H  26.906  61.009  51.443
H  47.183  68.960  71.598
H  65.939  33.562  46.101
H  59.683  34.033  58.499
H  58.957  35.154  59.230
H  62.621  46.902  71.390
H  59.078  59.102  45.410
H  51.725  56.775  25.234
H  50.290  22.219  57.867
H  58.537  60.447  44.851
H  26.431  43.686  43.906
H  47.534  40.796  59.406
H  31.206  59.614  68.806
H  69.483  35.027  46.266
H  53.613  50.110  44.462
H  45.542  66.657  46.005
H  44.974  65.394  46.696
H  45.179  35.655  56.021
H  25.786  36.007  46.410
H  26.826  36.847  45.637
H  45.674  36.093  57.389
H  41.575  58.513  57.829
H  48.707  41.081  60.390
H  40.470  59.629  57.714
H  70.251  56.603  56.417
H  65.620  46.464  33.578
H  29.479  64.745  56.589
H  38.952  67.679  48.501
H  31.772  45.083  41.791
H  38.678  67.599  50.034
H  36.857  39.186  27.189
H  67.674  53.825  65.032
H  67.064  52.482  64.499
H  53.958  51.691  46.510
H  71.025  57.028  55.157
H  33.754  34.581  52.199
H  64.045  47.312  71.126
H  34.721  40.701  30.653
H  48.489  46.813  23.648
H  57.353  49.070  58.387
H  65.534  69.909  40.433
H  65.028  70.153  41.853
H  57.923  47.624  58.504
H  40.077  57.093  37.088
H  40.747  58.262  36.402
H  42.483  66.014  43.760
H  56.911  73.685  39.413
H  58.291  73.064  39.735
H  52.621  33.412  56.415
H  52.449  51.301  43.898
H  49.552  50.112  63.106
H  44.836  60.696  25.605
H  28.928  45.984  33.941
H  46.333  46.055  74.086
H  48.960  52.425  54.011
H  38.139  38.131  31.627
H  38.356  38.289  33.150
H  45.292  47.021  73.471
H  38.377  56.929  50.761
H  37.993  57.437  52.175
H  50.872  49.322  63.195
H  34.529  41.304  32.066
H  52.197  33.322  57.885
H  65.738  42.623  56.193
H  51.063  50.880  45.956
H  39.631  35.361  40.595
H  41.018  35.799  40.075
H  40.587  52.607  41.181
H  38.901  54.253  49.277
H  32.731  56.325  65.909
H  33.711  56.799  64.831
H  42.080  52.131  41.193
H  30.586  37.454  46.797
H  32.028  37.180  46.217
H  49.261  45.755  22.824
H  40.944  52.880  29.358
H  51.821  55.807  26.402
H  66.619  32.906  47.332
H  28.158  61.287  52.350
H  43.934  65.670  44.175
H  30.493  45.417  42.538
H  32.195  53.605  38.276
H  47.740  63.646  71.382
H  33.032  54.833  37.883
H  51.974  49.615  44.051
H  66.572  43.775  56.853
H  66.283  40.916  53.017
H  51.077  27.777  31.705
H  44.385  51.154  44.434
H  65.494  44.950  50.673
H  78.636  48.503  46.654
H  47.388  41.763  38.639
H  47.458  57.231  27.276
H  54.565  62.261  65.699
H  37.714  40.980  42.572
H  57.492  52.234  61.056
H  58.369  51.517  62.151
H  54.933  48.639  53.592
H  45.064  64.443  41.060
H  51.892  75.050  52.458
H  63.927  37.575  44.508
H  43.593  64.406  40.621
H  31.659  37.651  64.258
H  32.163  37.285  62.826
H  54.823  36.472  62.118
H  24.567  43.195  54.635
H  25.080  42.877  56.091
H  50.680  74.965  51.533
H  52.384  54.409  49.042
H  58.399  51.297  68.892
H  57.182  52.096  69.374
H  48.063  65.074  46.762
H  56.164  37.235  62.403
H  37.198  26.392  52.257
H  65.441  38.024  44.512
H  26.070  48.788  54.678
H  72.752  52.347  39.543
H  48.663  42.636  38.460
H  39.364  68.569  55.020
H  28.602  42.493  33.134
H  48.580  73.017  53.105
H  28.036  43.881  32.697
H  60.451  64.943  41.947
H  48.024  41.333  72.121
H  47.130  42.498  72.527
H  59.230  63.990  41.863
H  66.903  37.588  49.092
H  54.929  51.797  60.972
H  33.826  58.687  50.220
H  52.048  56.851  49.110
H  71.001  62.069  59.902
H  70.554  61.158  58.695
H  66.404  66.716  51.337
H  72.734  34.212  53.220
H  72.268  34.861  51.878
H  65.302  66.161  52.275
H  40.639  50.852  36.538
H  41.319  49.970  35.439
H  55.423  53.223  60.649
H  50.413  52.889  48.781
H  37.959  25.009  52.220
H  53.097  61.720  65.721
H  53.947  36.742  71.527
H  35.317  66.031  59.012
H  35.642  62.325  66.919
H  58.887  42.629  65.028
H  34.282  61.840  67.454
H  58.511  58.010  49.307
H  59.790  58.459  50.086
H  60.655  57.362  24.237
H  48.568  46.985  52.135
H  66.188  55.135  50.225
H  55.268  36.564  70.761
H  66.872  53.788  50.374
H  37.606  43.090  61.889
H  36.132  43.384  62.179
H  66.003  51.982  71.610
H  44.513  32.276  41.258
H  45.218  32.527  42.638
H  71.364  43.221  47.546
H  72.224  43.390  48.861
H  34.935  63.041  31.362
H  33.485  63.046  30.830
H  48.288  39.542  57.074
H  65.798  50.472  71.875
H  47.767  66.549  47.174
H  59.753  65.500  34.554
H  51.445  74.835  61.665
H  46.810  67.914  52.659
H  38.173  42.437  42.638
H  47.986  56.148  28.267
H  45.796  68.856  51.949
H  44.682  75.216  52.719
H  60.338  64.269  72.058
H  53.668  40.277  60.846
H  60.290  65.840  71.822
H  45.854  75.992  53.375
H  36.800  49.612  71.615
H  51.582  73.333  62.049
H  37.030  48.188  70.998
H  70.789  33.264  58.391
H  70.147  33.427  59.759
H  31.940  59.004  54.178
H  36.143  71.765  50.560
H  43.002  38.986  44.805
H  42.574  39.670  46.127
H  30.757  59.807  54.787
H  42.176  36.980  63.739
H  42.510  38.453  64.031
H  61.106  66.126  34.209
H  47.236  52.867  56.899
H  53.047  70.620  64.354
H  51.560  70.978  64.532
H  72.028  51.042  39.185
H  51.550  69.542  46.582
H  47.566  56.261  46.940
H  46.035  56.187  46.772
H  52.082  69.686  45.139
H  26.316  50.064  40.975
H  27.507  50.526  41.931
H  46.334  31.821  40.108
H  33.898  39.400  29.075
H  58.377  26.560  53.139
H  59.194  49.164  68.043
H  52.503  47.746  59.256
H  64.087  29.507  36.763
H  33.059  43.555  40.891
H  34.602  43.722  41.050
H  71.099  59.676  41.422
H  70.110  60.824  41.293
H  38.857  43.366  54.312
H  57.332  48.628  62.648
H  56.339  49.734  62.157
H  37.329  43.312  54.563
H  67.637  37.464  63.212
H  48.120  51.346  46.504
H  64.582  29.229  38.201
H  68.220  36.028  63.180
H  31.228  34.536  50.460
H  53.744  48.518  58.699
H  67.001  44.561  50.869
H  45.152  36.529  65.102
H  34.161  64.634  33.828
H  27.646  61.169  36.166
H  26.487  60.506  36.969
H  45.411  35.786  66.430
H  47.438  30.987  39.386
H  44.393  51.348  46.179
H  58.873  60.090  42.239
H  59.920  61.041  41.612
H  31.718  33.281  49.699
H  36.120  28.462  38.941
H  55.998  61.192  44.441
H  36.598  67.336  63.463
H  37.309  66.242  64.293
H  55.798  60.688  42.987
H  70.413  37.526  52.082
H  36.220  72.539  49.226
H  70.602  38.189  53.493
H  47.510  53.056  44.900
H  38.936  47.141  26.480
H  39.225  48.623  26.261
H  64.790  46.925  26.405
H  42.737  44.474  34.000
H  50.346  43.886  33.827
H  49.187  44.641  33.151
H  46.854  50.688  44.501
H  46.248  61.300  56.154
H  47.456  60.436  56.578
H  63.870  46.478  27.555
H  37.467  55.748  57.827
H  36.370  55.483  56.806
H  77.443  47.710  47.254
H  25.575  50.226  54.352
H  40.403  69.625  54.526
H  53.325  55.157  56.289
H  50.732  52.923  38.959
H  57.262  27.998  38.118
H  52.163  60.265  40.676
H  41.075  50.549  74.577
H  42.236  50.390  75.600
H  53.393  59.315  41.029
H  54.848  35.849  40.032
H  45.742  58.117  70.583
H  44.457  58.312  71.414
H  55.113  37.369  39.960
H  35.863  42.141  71.741
H  36.802  42.507  70.584
H  58.514  28.521  37.368
H  61.155  46.717  50.521
H  61.925  45.841  51.634
H  45.461  57.821  44.451
H  31.362  52.517  40.321
H  45.289  48.590  67.969
H  43.809  49.017  68.091
H  31.150  52.940  41.795
H  34.858  64.567  58.837
H  66.453  45.993  67.365
H  60.148  49.672  66.951
H  58.555  27.059  51.691
H  65.453  46.256  66.224
H  35.604  64.436  33.226
H  53.640  38.827  59.176
H  43.828  73.614  59.981
H  42.695  74.580  60.429
H  53.139  38.065  60.424
H  64.781  38.690  52.059
H  64.415  40.165  52.175
H  44.787  49.788  45.465
H  50.791  54.615  28.670
H  51.207  53.864  37.772
H  50.472  53.262  29.356
H  46.042  58.757  45.516
H  36.570  57.895  44.577
H  36.166  56.561  45.245
H  31.227  59.112  67.364
H  45.025  56.056  64.520
H  38.224  35.374  44.979
H  36.624  35.374  45.287
H  58.890  40.074  31.254
H  60.363  39.986  30.819
H  43.853  62.609  25.041
H  32.353  27.858  46.832
H  33.308  26.744  46.354
H  28.021  48.630  56.728
H  27.328  47.225  56.619
H  25.879  53.261  42.261
H  66.924  31.050  58.787
H  26.486  52.281  41.197
H  43.001  62.099  26.236
H  59.759  50.745  39.573
H  58.397  74.198  46.687
H  68.326  32.015  60.171
H  68.306  30.771  61.089
H  47.339  53.199  25.434
H  34.524  43.735  58.932
H  32.976  43.863  58.954
H  46.900  51.765  25.098
H  65.582  31.174  58.036
H  54.646  64.086  52.740
H  54.737  63.341  51.390
H  57.175  74.196  45.758
H  48.620  59.077  37.418
H  64.285  39.355  64.872
H  55.223  42.983  54.576
H  50.853  40.250  63.407
H  59.452  39.533  60.019
H  61.296  62.202  33.357
H  61.007  63.722  33.009
H  57.879  39.474  60.022
H  33.272  61.743  55.969
H  65.088  52.761  26.986
H  56.787  52.452  63.343
H  55.426  51.666  63.096
H  60.071  32.656  56.425
H  64.807  37.986  64.355
H  22.539  54.880  52.871
H  60.345  33.803  55.434
H  56.242  27.460  63.282
H  57.323  28.509  62.886
H  39.289  47.120  54.340
H  39.946  48.357  53.697
H  47.627  60.224  37.846
H  57.669  43.846  50.331
H  64.164  52.521  28.240
H  44.878  43.644  55.047
H  59.178  49.500  40.319
H  23.942  55.343  52.388
H  49.546  40.813  64.032
H  37.691  66.193  32.603
H  30.769  65.634  58.728
H  33.759  38.322  33.867
H  48.027  41.885  40.746
H  47.046  40.681  40.546
H  45.135  52.550  69.283
H  63.695  62.487  30.462
H  62.756  62.351  31.687
H  45.612  51.047  69.237
H  42.923  57.826  24.700
H  41.614  56.959  24.597
H  63.240  40.004  62.295
H  59.517  42.180  39.505
H  64.437  40.644  63.111
H  41.993  44.328  60.943
H  41.382  42.992  60.520
H  54.957  38.827  41.604
H  66.271  34.211  57.996
H  65.841  35.673  58.361
H  54.987  25.450  49.964
H  56.352  26.101  49.647
H  32.536  28.202  42.766
H  36.288  68.937  39.721
H  35.096  67.973  39.804
H  56.416  39.271  41.609
H  41.150  69.297  46.107
H  60.509  41.013  39.527
H  51.703  31.548  41.281
H  29.206  65.552  58.889
H  40.252  68.187  46.832
H  35.760  38.205  30.982
H  35.156  36.838  30.949
H  47.158  32.875  28.413
H  46.979  34.091  29.318
H  38.585  65.037  32.135
H  48.215  40.246  70.219
H  49.444  41.236  70.412
H  46.667  73.118  35.694
H  52.060  33.014  41.668
H  34.798  38.531  34.997
H  33.813  41.808  42.026
H  32.406  41.540  41.447
H  36.574  46.716  48.162
H  54.823  47.443  23.092
H  53.396  47.476  22.536
H  36.318  48.240  48.398
H  37.998  59.532  62.776
H  39.381  58.809  62.726
H  49.865  57.509  22.165
H  48.966  58.555  22.880
H  46.169  74.184  34.691
H  29.161  69.644  51.395
H  30.056  70.767  51.968
H  57.335  42.422  49.808
H  60.208  30.255  63.646
H  33.341  61.463  53.195
H  38.377  50.120  65.223
H  58.065  44.471  42.539
H  56.577  43.973  42.571
H  33.311  60.793  51.818
H  37.587  44.045  74.833
H  37.669  45.584  74.844
H  65.072  68.736  45.548
H  65.155  69.284  47.017
H  35.065  68.899  35.621
H  53.645  55.302  42.344
H  24.414  54.435  58.879
H  53.724  54.230  43.446
H  32.664  40.246  69.234
H  66.710  51.332  56.450
H  67.093  52.114  57.692
H  29.753  56.702  44.459
H  69.541  67.509  61.238
H  66.610  58.395  45.043
H  66.979  54.778  44.191
H  67.685  55.109  45.542
H  23.830  54.280  60.282
H  66.947  57.548  46.317
H  34.007  69.213  36.769
H  55.837  54.301  74.193
H  36.776  47.300  26.239
H  44.524  39.591  43.346
H  50.316  27.665  54.591
H  48.932  26.973  54.436
H  30.959  50.060  60.532
H  59.326  73.995  56.606
H  58.736  72.720  57.233
H  31.758  51.285  61.062
H  64.755  53.803  63.818
H  64.104  54.947  63.012
H  37.723  56.485  61.396
H  51.147  49.903  67.606
H  35.219  47.188  26.284
H  39.897  50.057  65.603
H  56.143  60.010  75.952
H  60.146  28.843  63.074
H  26.073  46.240  62.946
H  27.573  46.442  62.977
H  66.858  51.854  59.883
H  67.711  53.148  60.203
H  37.728  56.913  62.904
H  54.452  54.990  73.830
H  50.084  50.292  66.529
H  45.344  27.272  50.489
H  44.693  26.133  49.686
H  74.771  53.232  52.746
H  35.596  64.163  36.126
H  47.601  33.728  39.160
H  48.353  33.840  40.520
H  36.014  34.263  41.376
H  37.322  35.144  41.386
H  52.771  65.434  53.478
H  26.399  38.188  47.408
H  26.701  39.665  47.803
H  52.487  63.955  53.116
H  43.095  50.831  59.226
H  52.482  72.970  46.057
H  42.458  51.443  60.466
H  61.192  60.504  48.191
H  45.275  62.632  61.163
H  55.065  70.631  65.189
H  56.432  71.200  64.812
H  46.172  42.932  55.605
H  55.764  58.791  76.833
H  54.000  42.051  54.772
H  32.139  62.687  56.404
H  40.604  51.622  72.683
H  40.500  51.485  71.106
H  62.552  60.926  48.856
H  51.852  74.209  45.382
H  34.352  64.872  36.704
H  63.028  44.767  67.602
H  75.932  54.068  52.147
H  48.784  42.731  28.214
H  29.578  55.595  45.550
H  48.836  44.271  28.156
H  33.861  39.328  69.549
H  43.313  60.888  52.672
H  42.984  61.814  51.510
H  25.616  42.806  47.813
H  26.633  42.602  46.645
H  36.727  51.373  52.530
H  68.757  68.155  56.641
H  69.970  68.763  55.914
H  37.724  49.967  52.505
H  61.673  38.066  42.604
H  60.557  36.982  42.490
H  32.901  67.806  42.328
H  68.253  66.769  60.730
H  55.728  35.336  30.334
H  54.991  34.003  30.572
H  46.184  62.656  62.411
H  53.199  53.769  69.367
H  54.121  54.600  68.400
H  64.475  44.705  68.130
H  33.812  27.294  42.558
H  41.467  27.612  61.134
H  70.024  37.861  61.373
H  53.523  40.722  62.332
H  61.194  58.448  47.374
H  32.640  48.400  27.086
H  34.066  48.943  26.969
H  59.646  58.385  47.387
H  37.979  35.092  29.939
H  38.673  36.474  29.916
H  44.569  66.952  58.445
H  40.367  52.132  24.236
H  35.309  60.205  60.168
H  34.201  59.201  59.761
H  36.079  30.617  37.588
H  52.997  46.385  33.334
H  62.826  55.395  66.493
H  53.659  46.794  34.683
H  62.022  69.682  64.805
H  61.624  70.955  64.008
H  45.821  53.337  50.658
H  39.605  63.815  71.659
H  48.411  36.923  36.477
H  53.898  39.042  56.629
H  66.265  55.419  65.487
H  41.160  69.396  66.687
H  61.305  55.037  66.496
H  28.403  35.784  61.879
H  41.603  52.052  23.337
H  46.782  51.904  50.294
H  32.947  32.442  54.931
H  67.243  44.362  48.473
H  34.008  31.508  54.301
H  45.346  52.912  53.621
H  72.807  46.458  32.664
H  72.485  46.219  34.135
H  53.602  24.290  48.532
H  51.619  67.862  63.601
H  52.657  68.872  63.116
H  52.676  24.656  49.699
H  34.665  30.003  37.566
H  49.541  50.950  31.838
H  55.009  43.954  65.246
H  49.683  52.354  31.187
H  52.452  29.940  37.181
H  51.495  28.749  37.561
H  47.995  35.461  36.714
H  40.532  63.194  72.719
H  41.504  45.873  70.933
H  55.932  35.751  48.490
H  46.810  53.704  54.193
H  67.880  43.901  47.102
H  56.409  44.663  65.210
H  40.537  46.566  71.982
H  27.706  37.213  61.949
H  23.046  54.439  50.610
H  52.689  58.630  36.567
H  61.156  34.770  61.272
H  30.580  33.959  56.489
H  73.052  37.941  49.241
H  72.662  36.687  50.044
H  51.893  57.307  36.498
H  40.714  60.088  49.598
H  42.144  60.639  49.820
H  46.409  67.054  30.667
H  45.890  54.399  52.863
H  60.436  36.130  61.129
H  61.263  29.842  65.570
H  47.156  67.847  31.808
H  64.655  60.276  30.140
H  65.897  60.765  29.336
H  48.714  30.751  66.320
H  47.876  31.947  65.741
H  38.135  49.069  61.940
H  52.736  52.740  45.809
H  68.695  36.294  46.857
H  29.802  66.156  56.038
H  45.435  54.628  65.159
H  60.328  28.701  66.017
H  40.695  70.870  66.748
H  32.024  34.103  57.031
H  60.953  34.792  38.160
H  21.518  54.557  50.417
H  47.924  53.247  52.015
H  64.524  65.310  37.780
H  38.560  47.926  38.256
H  65.829  65.750  38.502
H  43.156  51.733  72.241
H  36.125  61.563  40.903
H  35.225  60.763  39.946
H  44.501  52.482  72.329
H  59.833  52.990  33.711
H  59.470  34.235  38.325
H  58.825  53.515  34.756
H  62.821  53.461  44.154
H  43.758  24.931  56.272
H  45.277  24.942  55.973
H  41.178  51.757  66.047
H  48.368  70.554  54.802
H  67.239  56.536  65.838
H  64.136  59.173  55.517
H  48.795  70.067  53.371
H  64.892  60.494  55.355
H  58.691  33.017  62.692
H  39.591  48.940  37.723
H  56.350  40.390  57.959
H  56.733  39.513  56.749
H  57.431  36.196  48.480
H  64.655  32.824  63.924
H  42.527  63.347  56.736
H  45.345  51.772  51.303
H  50.456  68.063  30.920
H  64.071  69.603  63.863
H  65.128  69.255  64.984
H  61.128  44.481  27.642
H  53.803  24.170  56.817
H  53.383  23.347  58.094
H  60.341  44.885  26.387
H  36.876  49.298  46.502
H  56.392  34.513  27.261
H  56.677  35.611  26.160
H  45.994  52.965  44.001
H  57.995  31.357  30.629
H  59.414  30.771  30.634
H  57.919  23.567  53.996
H  44.997  47.708  26.042
H  44.423  46.289  25.890
H  57.026  23.914  52.772
H  36.002  48.105  45.990
H  66.175  32.868  63.521
H  50.396  69.419  30.197
H  61.621  53.431  56.084
H  29.742  50.704  62.432
H  48.342  47.046  43.975
H  59.906  60.699  32.115
H  58.572  60.516  47.989
H  58.193  42.874  57.768
H  58.188  41.504  58.402
H  46.468  47.099  46.187
H  57.514  59.503  47.424
H  43.661  56.594  56.765
H  42.469  57.405  56.143
H  23.297  49.028  52.326
H  62.220  47.879  74.032
H  30.013  49.956  63.768
H  60.802  47.284  74.195
H  64.268  46.745  59.488
H  62.083  52.122  44.070
H  61.697  45.786  75.532
H  60.834  61.493  31.164
H  36.608  55.091  38.690
H  35.134  54.619  38.844
H  23.586  50.541  52.230
H  41.966  35.353  66.381
H  42.227  36.875  66.409
H  33.382  45.007  46.241
H  63.094  46.049  74.935
H  60.418  54.400  55.722
H  31.916  45.276  46.650
H  64.857  50.073  47.575
H  57.019  31.926  54.531
H  58.479  31.955  55.094
H  62.065  69.906  61.790
H  38.754  35.900  38.197
H  56.939  52.267  43.723
H  58.229  51.631  44.253
H  38.051  37.259  38.121
H  71.088  37.158  55.361
H  70.230  37.077  56.652
H  45.981  53.353  45.717
H  61.526  70.391  60.436
H  24.297  52.248  47.789
H  25.367  52.758  48.731
H  32.667  47.750  67.249
H  42.972  39.738  67.015
H  44.207  40.689  67.077
H  31.259  47.391  67.736
H  67.290  32.980  50.853
H  65.858  32.442  50.583
H  43.660  64.081  56.004
H  41.145  52.225  67.532
H  54.656  40.440  56.624
H  53.501  28.765  66.611
H  47.130  58.851  54.443
H  54.426  27.551  66.767
H  47.610  57.391  54.841
H  37.381  49.060  67.873
H  36.087  55.781  49.872
H  36.572  57.215  49.552
H  38.713  48.500  67.322
H  69.924  68.349  50.025
H  69.167  69.665  50.200
H  66.009  61.542  45.533
H  31.250  45.362  66.386
H  69.799  53.260  30.824
H  69.020  52.024  31.344
H  72.219  40.536  64.241
H  40.295  52.082  38.335
H  41.009  51.140  39.352
H  70.799  40.452  63.677
H  62.235  34.541  67.388
H  32.262  45.410  67.555
H  62.661  35.389  68.606
H  52.076  49.647  53.126
H  65.775  36.671  53.171
H  67.294  36.432  53.200
H  37.558  50.530  61.914
H  63.639  50.971  47.864
H  52.547  47.958  53.079
H  53.484  48.693  63.916
H  41.212  28.137  59.694
H  58.606  44.155  64.998
H  33.130  54.284  30.178
H  67.238  63.638  64.547
H  70.334  56.331  67.005
H  64.571  63.215  33.157
H  58.637  60.804  68.194
H  38.711  25.456  42.904
H  56.612  29.549  57.090
H  38.653  25.815  41.378
H  57.587  30.652  56.632
H  48.858  75.482  54.654
H  43.169  60.615  56.929
H  44.386  31.778  28.624
H  42.180  61.073  55.827
H  41.597  43.217  64.464
H  40.131  43.825  64.599
H  54.088  44.872  77.705
H  37.857  36.784  42.801
H  51.836  65.208  58.218
H  53.230  64.641  58.548
H  73.313  55.198  37.674
H  32.893  42.563  64.258
H  31.736  42.918  63.281
H  72.848  56.642  37.949
H  49.994  75.337  53.600
H  67.737  32.873  41.589
H  31.740  52.448  30.901
H  36.243  51.991  26.027
H  37.023  36.513  32.883
H  58.375  46.263  25.123
H  63.633  64.233  32.499
H  43.089  32.615  28.794
H  69.497  56.187  68.282
H  28.282  40.517  60.363
H  28.409  39.334  59.372
H  68.421  63.034  65.281
H  44.549  38.597  69.192
H  54.116  45.862  76.510
H  35.000  51.058  25.987
H  45.965  39.259  69.170
H  48.642  74.112  35.828
H  49.963  74.721  35.341
H  32.427  38.502  54.230
H  69.511  67.393  59.024
H  70.835  68.095  58.567
H  32.648  37.060  53.631
H  38.781  73.205  40.301
H  35.127  59.692  36.928
H  36.200  60.274  35.963
H  59.578  61.522  67.182
H  38.101  74.300  41.134
H  38.175  35.821  32.110
H  67.401  33.936  42.683
H  57.654  74.132  48.748
H  40.696  40.432  75.618
H  54.862  71.799  49.756
H  32.832  64.527  60.201
H  31.698  63.516  60.180
H  49.724  68.763  45.552
H  68.152  41.579  56.854
H  67.916  40.400  55.747
H  57.091  65.319  30.051
H  56.874  64.212  31.128
H  50.110  33.819  44.245
H  42.441  52.642  56.073
H  51.447  34.245  44.913
H  38.553  30.495  52.786
H  40.109  30.567  52.715
H  41.235  27.504  63.632
H  64.309  58.492  62.266
H  51.540  44.996  46.527
H  64.583  56.934  62.429
H  36.092  65.455  47.058
H  74.901  49.575  54.576
H  73.985  48.657  53.675
H  41.163  51.815  55.864
H  40.256  28.270  64.570
H  39.259  36.327  43.321
H  33.145  36.759  31.828
H  38.472  61.690  62.728
H  65.321  32.808  33.420
H  66.709  33.394  33.875
H  45.145  43.567  26.100
H  32.958  38.295  31.803
H  37.602  65.706  47.206
H  43.320  40.450  37.567
H  42.302  41.662  37.572
H  54.675  30.687  63.928
H  36.878  62.504  53.661
H  36.917  63.757  54.569
H  37.368  62.063  61.670
H  48.087  43.010  45.475
H  63.833  32.616  39.705
H  63.900  31.399  40.702
H  42.045  30.616  34.645
H  42.234  30.590  46.749
H  43.379  29.738  47.297
H  53.811  51.449  69.905
H  75.256  51.211  52.000
H  40.589  30.261  34.233
H  75.856  50.930  50.619
H  54.238  52.519  70.988
H  53.264  30.207  63.575
H  40.896  53.396  48.987
H  51.798  50.594  73.634
H  53.732  67.541  40.816
H  57.844  36.068  41.217
H  62.816  60.998  36.933
H  64.383  60.878  37.064
H  32.081  42.131  57.207
H  58.541  37.493  41.066
H  23.892  57.602  57.995
H  56.028  36.422  68.495
H  45.853  67.462  50.253
H  41.801  49.070  41.065
H  53.363  69.632  47.816
H  59.947  53.124  45.326
H  44.675  72.706  36.999
H  40.226  53.196  36.312
H  38.326  63.199  36.809
H  75.333  61.196  52.793
H  74.989  62.663  53.050
H  39.302  63.612  35.634
H  52.278  55.636  66.202
H  48.618  55.488  68.977
H  53.566  54.797  66.208
H  31.249  43.276  56.628
H  47.862  71.348  34.489
H  40.157  54.444  35.393
H  46.666  71.885  33.632
H  58.702  53.992  45.558
H  58.374  27.499  59.672
H  42.008  47.252  30.365
H  40.895  47.065  31.412
H  54.123  35.008  34.717
H  44.041  34.069  37.284
H  42.762  34.880  37.656
H  44.374  71.297  36.471
H  54.658  67.983  63.694
H  45.098  66.178  50.687
H  31.680  50.935  31.137
H  56.962  35.247  68.825
H  74.136  48.069  36.753
H  44.565  28.259  35.364
H  63.092  47.963  65.976
H  24.811  56.384  57.834
H  23.175  59.443  54.822
H  23.361  57.900  54.850
H  64.592  48.299  66.202
H  75.512  53.942  46.933
H  74.359  52.975  47.249
H  73.022  47.524  35.819
H  58.612  26.232  58.832
H  42.937  50.124  41.093
H  43.967  29.697  35.103
H  66.057  41.985  58.985
H  63.023  69.904  52.067
H  63.709  69.450  50.790
H  69.631  40.645  47.055
H  57.956  47.757  25.161
H  75.272  39.133  41.232
H  57.672  29.870  51.192
H  70.984  41.243  46.457
H  51.551  49.083  73.356
H  66.637  31.560  53.343
H  36.560  44.439  71.654
H  60.517  56.959  30.145
H  59.389  55.944  29.971
H  53.897  41.603  64.764
H  42.575  63.838  34.111
H  67.777  33.573  62.244
H  41.661  62.937  33.243
H  38.025  43.992  71.653
H  48.732  39.058  34.603
H  47.306  38.714  34.133
H  69.147  49.049  62.349
H  31.832  44.376  50.248
H  30.584  45.084  51.001
H  40.025  53.302  47.673
H  54.849  68.646  40.675
H  69.275  33.154  62.229
H  62.195  69.157  56.178
H  62.768  68.735  54.816
H  69.399  70.725  55.123
H  66.264  40.982  57.796
H  49.610  55.490  70.149
H  71.179  47.248  60.852
H  69.722  47.316  60.349
H  51.033  39.966  59.919
H  33.039  63.033  36.058
H  52.669  74.488  38.631
H  56.752  30.869  50.438
H  49.923  62.824  29.303
H  53.501  42.488  65.999
H  49.895  61.322  28.911
H  74.047  38.279  41.708
H  37.732  51.895  49.611
H  38.404  50.978  50.668
H  68.247  71.641  55.609
H  29.757  42.280  68.635
H  29.395  43.626  67.967
H  60.049  45.294  23.923
H  68.494  31.769  39.365
H  68.871  33.229  39.036
H  61.433  45.482  24.581
H  30.916  59.483  33.819
H  30.859  61.039  34.008
H  53.433  71.831  50.421
H  40.378  55.572  70.803
H  46.955  41.546  47.091
H  45.058  38.858  51.704
H  74.905  50.726  37.500
H  67.641  47.578  61.411
H  67.104  47.123  62.790
H  50.423  26.678  57.449
H  69.545  55.680  48.703
H  73.796  51.790  37.633
H  70.468  54.407  48.666
H  50.583  27.839  58.432
H  43.226  47.206  77.335
H  44.480  47.397  78.210
H  59.360  30.361  59.235
H  53.757  45.600  44.983
H  31.226  63.305  38.213
H  33.187  69.977  52.928
H  47.733  64.628  39.199
H  56.903  61.965  35.649
H  56.989  43.737  24.869
H  57.471  47.873  42.113
H  56.972  37.934  71.024
H  72.856  54.372  42.239
H  68.910  30.760  57.898
H  35.257  59.754  29.400
H  32.221  64.433  37.753
H  36.226  60.169  30.544
H  58.568  31.505  58.549
H  50.464  47.321  43.357
H  54.989  23.320  59.863
H  30.416  47.798  44.447
H  31.243  46.464  44.495
H  54.753  24.840  59.763
H  57.171  57.227  28.888
H  56.871  58.751  28.904
H  52.482  45.502  42.518
H  34.178  55.011  41.259
H  57.290  71.415  52.928
H  32.904  54.095  41.154
H  52.871  43.186  61.337
H  41.537  32.765  50.920
H  38.727  55.760  34.322
H  41.593  31.264  51.141
H  59.516  45.729  39.207
H  58.152  45.028  39.501
H  58.505  72.121  53.604
H  50.958  31.883  64.540
H  32.199  70.529  53.978
H  54.734  51.788  67.995
H  58.016  61.787  36.686
H  53.992  51.958  66.642
H  37.944  55.838  35.665
H  46.307  64.025  71.777
H  36.330  42.333  30.805
H  37.535  43.209  30.343
H  51.284  75.339  47.587
H  31.621  53.964  60.757
H  33.584  67.005  38.530
H  35.004  66.714  37.940
H  43.069  41.440  34.032
H  56.979  72.886  50.408
H  32.654  37.268  50.386
H  32.236  36.186  51.473
H  42.860  39.991  33.535
H  45.788  38.597  38.314
H  51.058  73.777  47.498
H  45.930  37.126  38.790
H  53.549  46.589  30.123
H  52.546  45.920  31.099
H  64.093  35.615  62.683
H  43.488  52.491  77.813
H  61.140  61.949  73.117
H  23.438  43.652  46.689
H  44.076  42.416  64.451
H  41.226  61.371  43.470
H  62.799  49.121  30.974
H  62.305  48.802  29.520
H  55.997  72.766  51.594
H  68.158  56.496  63.726
H  47.837  21.180  49.870
H  59.781  61.431  72.582
H  67.331  55.244  63.407
H  59.596  65.438  50.933
H  57.711  55.331  25.811
H  57.982  54.588  27.149
H  59.780  66.936  50.493
H  47.818  65.500  68.885
H  47.458  66.612  67.874
H  23.380  52.617  55.024
H  62.545  30.133  50.388
H  38.684  58.224  60.159
H  51.985  55.473  21.991
H  40.097  58.622  59.607
H  67.617  54.055  67.178
H  69.182  54.147  67.484
H  65.112  31.027  62.764
H  73.595  54.771  43.586
H  69.964  31.144  58.985
H  62.959  34.570  62.551
H  34.158  72.403  54.980
H  26.056  44.811  65.242
H  48.982  22.272  49.697
H  51.820  55.327  23.508
H  64.507  29.731  63.410
H  42.035  49.348  25.635
H  42.206  50.875  25.789
H  49.126  65.384  39.171
H  32.685  50.806  57.059
H  44.782  57.752  58.966
H  43.748  58.782  58.544
H  29.972  63.570  63.717
H  28.592  61.132  41.276
H  29.435  62.448  41.511
H  32.963  49.292  57.115
H  56.927  28.564  65.209
H  55.390  28.606  65.027
H  44.731  42.155  47.963
H  43.559  38.267  56.944
H  29.300  57.854  53.450
H  57.925  57.187  31.498
H  30.728  57.391  52.935
H  60.039  60.901  50.507
H  60.867  62.208  50.319
H  44.396  42.756  27.145
H  29.012  64.544  37.299
H  50.274  67.131  55.391
H  29.506  65.511  38.400
H  47.119  68.009  39.385
H  49.698  70.338  45.702
H  56.918  56.211  30.821
H  44.090  38.272  50.631
H  30.673  62.176  63.582
H  30.638  64.065  40.654
H  46.092  66.872  39.169
H  31.777  63.140  41.159
H  49.221  67.813  54.440
H  43.641  44.228  47.200
H  58.093  55.779  72.499
H  59.640  55.970  72.668
H  44.525  43.086  33.376
H  43.352  32.313  35.791
H  42.509  33.389  35.092
H  45.013  43.044  31.860
H  42.443  37.909  55.966
H  42.018  55.148  36.322
H  70.857  41.008  44.274
H  69.435  40.518  44.794
H  42.405  58.073  66.202
H  41.834  56.681  65.922
H  38.751  56.064  43.995
H  48.601  64.732  43.603
H  48.337  63.326  44.120
H  38.930  57.546  44.405
H  57.505  42.380  24.329
H  44.760  45.677  45.563
H  42.425  56.643  36.463
H  39.454  31.503  63.967
H  39.772  55.026  25.074
H  63.645  40.039  67.099
H  65.259  48.928  29.699
H  53.748  48.878  54.887
H  53.877  59.651  58.704
H  27.500  43.639  37.340
H  52.834  59.003  59.608
H  58.637  45.023  56.431
H  36.061  56.873  37.439
H  36.574  57.524  36.111
H  58.183  44.926  54.960
H  63.632  32.258  34.856
H  64.688  50.145  30.482
H  63.052  31.236  35.831
H  46.489  45.743  49.134
H  55.084  37.879  44.141
H  54.890  36.822  43.022
H  53.239  33.528  37.232
H  60.356  49.419  72.823
H  59.911  49.599  74.276
H  33.746  61.953  41.032
H  51.587  42.331  61.421
H  52.684  44.256  44.554
H  52.215  32.312  63.752
H  27.204  44.971  36.647
H  43.322  53.899  64.121
H  59.275  47.915  46.581
H  53.568  34.217  38.577
H  52.738  48.200  37.992
H  53.944  47.224  37.754
H  58.865  34.150  29.783
H  58.637  57.396  63.398
H  59.209  56.011  63.817
H  59.835  32.973  30.046
H  39.087  68.248  61.731
H  50.175  45.599  43.009
H  37.689  68.077  61.094
H  39.426  53.207  29.562
H  66.300  29.967  60.605
H  65.362  28.870  61.085
H  52.150  26.857  62.319
H  40.235  40.188  71.083
H  40.774  41.445  71.837
H  52.989  26.264  63.451
H  67.498  39.961  51.266
H  62.891  42.577  28.456
H  62.078  41.305  28.773
H  66.713  38.690  51.011
H  63.638  38.550  67.577
H  39.005  54.872  23.759
H  33.679  62.924  42.258
H  40.215  39.132  74.809
H  50.380  58.805  45.239
H  55.079  34.207  35.622
H  48.545  43.978  23.940
H  46.660  70.993  53.484
H  46.683  68.507  56.122
H  48.039  68.262  56.870
H  54.060  30.977  31.806
H  52.411  26.768  39.177
H  53.630  27.188  38.349
H  54.738  51.010  53.071
H  55.520  30.640  32.001
H  73.101  62.707  59.690
H  72.670  64.145  59.332
H  48.487  62.116  31.020
H  65.171  52.273  50.357
H  59.831  49.147  28.702
H  56.073  41.684  26.239
H  41.243  49.147  29.237
H  64.695  53.582  51.084
H  42.735  48.772  28.971
H  50.420  23.653  44.281
H  66.617  59.645  49.224
H  48.828  43.948  49.498
H  69.250  54.575  58.004
H  72.695  49.312  63.046
H  58.420  49.730  28.976
H  71.907  48.038  63.441
H  49.739  62.784  31.644
H  66.600  59.389  47.716
H  44.500  62.941  47.145
H  46.631  51.611  47.398
H  45.678  34.920  39.603
H  59.901  49.493  60.938
H  58.348  49.646  60.986
H  51.811  46.591  69.413
H  45.367  45.886  66.937
H  46.651  45.252  67.483
H  55.590  29.413  38.139
H  72.150  54.978  32.425
H  41.970  43.280  33.394
H  51.079  47.638  70.276
H  55.064  29.797  36.723
H  38.548  35.408  63.382
H  37.730  35.540  64.719
H  46.048  49.202  47.136
H  30.100  53.519  52.343
H  30.623  52.507  53.375
H  59.993  26.148  55.727
H  40.543  53.861  72.675
H  54.613  41.727  26.726
H  49.024  23.235  44.830
H  71.398  56.277  32.854
H  43.394  62.228  47.987
H  65.537  35.678  48.921
H  50.053  29.505  36.037
H  69.539  62.429  62.980
H  45.180  75.711  49.391
H  45.905  76.522  50.547
H  30.896  49.761  43.632
H  62.645  33.040  41.534
H  59.411  46.931  47.803
H  46.886  42.977  64.821
H  31.546  48.778  42.619
H  49.549  53.615  62.166
H  50.987  54.166  61.915
H  53.344  55.908  78.049
H  48.058  42.638  65.773
H  41.149  48.507  47.265
H  26.195  54.390  39.574
H  30.714  31.397  50.106
H  70.269  63.770  62.870
H  47.739  45.163  76.306
H  52.253  56.002  72.185
H  51.668  54.712  72.865
H  43.403  69.297  56.600
H  62.080  52.859  25.292
H  41.558  60.366  59.525
H  40.013  49.186  48.060
H  49.210  30.821  36.040
H  53.545  57.326  77.486
H  48.929  45.526  77.292
H  66.490  34.435  49.049
H  53.140  42.612  49.175
H  53.489  43.189  50.589
H  31.575  62.136  48.494
H  31.341  60.959  47.520
H  46.418  64.407  45.363
H  46.356  65.205  44.043
H  37.697  60.531  41.994
H  34.749  50.574  39.099
H  35.980  50.796  39.994
H  43.713  68.952  58.092
H  38.475  60.376  43.331
H  55.773  50.563  57.641
H  60.143  62.471  39.321
H  46.758  71.443  52.011
H  68.388  55.857  57.641
H  67.720  40.553  53.402
H  39.250  53.350  50.505
H  42.872  52.792  65.204
H  64.156  33.319  41.810
H  39.369  42.606  36.195
H  40.592  41.676  35.820
H  60.909  63.128  40.515
H  45.077  34.501  40.957
H  58.930  60.194  35.082
H  39.112  43.673  31.906
H  28.403  63.880  54.867
H  76.688  41.911  54.578
H  27.113  41.480  39.644
H  27.433  62.795  55.275
H  61.180  63.033  66.043
H  62.426  62.368  66.670
H  46.739  49.010  51.957
H  53.476  58.942  38.587
H  54.505  60.089  38.663
H  69.665  41.588  53.322
H  44.167  36.019  59.522
H  47.762  54.095  22.108
H  55.985  41.844  65.528
H  69.815  40.141  53.968
H  28.701  42.230  46.147
H  29.585  41.230  45.385
H  49.160  54.697  21.888
H  63.275  38.559  41.017
H  64.223  38.469  39.828
H  53.655  59.699  26.313
H  64.060  62.874  44.330
H  29.712  45.453  59.158
H  57.224  42.060  66.468
H  26.885  40.032  40.091
H  51.458  49.895  50.762
H  33.611  52.815  29.806
H  69.640  67.238  53.855
H  59.864  56.288  25.010
H  27.899  64.900  43.430
H  27.814  66.435  43.532
H  45.980  56.274  32.299
H  68.106  64.344  46.011
H  48.125  29.124  36.987
H  46.909  28.492  36.241
H  47.055  57.317  32.782
H  40.881  58.211  64.501
H  48.434  38.734  58.375
H  39.467  58.659  64.973
H  50.129  38.245  52.200
H  49.180  37.131  51.602
H  52.781  47.037  43.343
H  29.618  47.379  38.063
H  43.713  55.755  25.447
H  45.118  56.397  25.401
H  29.148  45.940  37.790
H  53.616  62.585  69.745
H  55.084  62.384  70.122
H  60.021  32.262  62.761
H  69.643  64.485  46.291
H  44.334  58.732  28.365
H  68.323  66.679  54.470
H  43.385  57.541  28.614
H  42.350  28.631  42.392
H  38.807  65.419  53.706
H  34.869  61.233  63.352
H  36.401  60.876  63.278
H  35.458  39.420  29.010
H  33.847  36.411  38.996
H  39.243  49.818  39.797
H  37.743  49.485  39.805
H  33.717  37.335  40.259
H  39.807  66.235  62.305
H  43.594  29.594  42.460
H  38.418  65.584  62.165
H  38.093  39.306  65.741
H  39.559  54.995  73.032
H  38.688  40.614  65.176
H  71.388  60.317  36.688
H  58.979  49.843  36.038
H  58.851  51.359  36.040
H  70.000  59.645  36.784
H  69.606  65.221  52.935
H  37.465  66.136  53.994
H  60.807  27.476  55.693
H  48.608  49.893  48.446
H  38.027  44.667  32.427
H  68.097  64.978  52.718
H  60.339  59.641  35.455
H  60.158  28.603  49.232
H  41.101  74.625  47.863
H  41.240  73.181  48.340
H  48.911  49.415  68.316
H  58.679  33.717  47.945
H  57.426  34.364  47.272
H  47.424  49.412  68.676
H  58.743  28.368  49.750
H  44.556  33.759  62.079
H  44.608  32.988  60.719
H  44.213  65.466  58.405
H  41.512  41.377  30.977
H  42.762  41.651  31.796
H  65.263  30.681  34.964
H  50.216  61.003  67.968
H  50.387  59.531  68.251
H  49.192  48.673  50.339
H  66.524  31.570  35.138
H  45.389  42.500  41.719
H  46.630  43.110  42.360
H  76.580  41.856  56.150
H  47.830  44.669  43.773
H  45.052  35.102  60.401
H  72.891  43.313  45.922
H  50.042  43.608  24.025
H  73.416  44.722  45.489
H  47.377  58.153  58.610
H  59.326  55.968  43.089
H  34.819  44.590  43.734
H  33.936  43.328  44.014
H  68.195  56.352  30.723
H  59.561  39.250  38.385
H  68.295  56.415  32.263
H  59.611  38.249  37.191
H  29.463  37.744  64.025
H  36.074  34.229  37.025
H  70.410  68.953  52.735
H  55.878  37.109  66.204
H  44.893  45.050  64.946
H  44.408  44.041  66.005
H  62.509  29.596  46.379
H  64.655  58.228  47.362
H  63.217  57.671  47.371
H  48.050  29.280  45.541
H  61.112  52.817  66.043
H  60.026  51.758  66.312
H  50.656  47.849  76.459
H  48.021  29.364  43.968
H  50.083  35.402  25.624
H  28.762  69.496  48.376
H  48.930  36.423  25.480
H  55.004  35.887  66.468
H  63.585  52.586  25.434
H  60.837  42.445  35.452
H  35.176  42.771  49.222
H  65.116  47.067  45.363
H  35.783  61.779  37.667
H  36.950  61.545  38.655
H  65.638  47.877  46.604
H  52.596  62.813  61.001
H  52.628  61.242  60.946
H  68.446  37.672  32.846
H  41.435  51.596  50.348
H  60.211  54.685  43.116
H  38.442  70.563  54.104
H  35.472  32.866  37.468
H  62.672  46.754  68.603
H  48.285  61.425  64.789
H  49.561  62.255  64.963
H  61.302  47.183  68.027
H  51.731  41.980  32.262
H  51.563  40.721  33.130
H  69.170  69.850  52.849
H  27.086  61.954  43.844
H  26.831  61.882  42.313
H  29.655  68.547  49.197
H  34.168  42.708  50.396
H  49.125  47.993  76.592
H  64.212  43.111  51.604
H  52.018  54.553  35.594
H  32.583  69.492  62.166
H  52.883  68.259  48.420
H  59.948  61.351  57.838
H  59.267  60.598  58.996
H  73.424  64.720  57.339
H  53.739  66.932  63.105
H  28.238  46.098  52.071
H  47.214  59.348  71.668
H  72.531  65.932  57.050
H  50.967  55.713  35.295
H  45.838  60.021  71.936
H  34.387  62.291  36.049
H  64.333  48.273  61.467
H  65.450  47.226  61.287
H  31.932  66.467  60.605
H  31.744  43.927  43.948
H  30.582  42.950  43.777
H  31.108  67.525  59.852
H  59.413  49.866  63.065
H  60.198  51.029  63.715
H  39.418  54.767  69.901
H  51.997  41.151  59.586
H  62.926  43.914  51.831
H  42.318  42.559  67.560
H  49.428  64.413  73.254
H  70.285  37.789  49.696
H  60.780  38.417  28.626
H  67.909  36.703  33.975
H  60.192  36.985  28.292
H  69.379  38.724  50.534
H  24.012  45.249  57.904
H  23.148  44.440  56.883
H  40.390  50.834  49.546
H  47.934  40.085  29.552
H  32.221  38.863  39.770
H  48.026  64.028  73.893
H  66.257  33.027  53.058
H  36.780  30.354  47.589
H  38.112  30.618  46.897
H  28.629  44.922  53.006
H  72.117  58.894  56.472
H  71.309  58.402  57.682
H  43.667  53.433  29.156
H  28.979  38.520  35.470
H  44.719  54.071  30.100
H  29.292  37.071  35.897
H  41.084  41.781  67.022
H  31.663  68.322  62.698
H  59.457  41.793  35.638
H  30.592  56.395  33.120
H  31.878  55.519  33.174
H  52.607  74.463  58.152
H  53.806  73.524  58.405
H  38.873  54.383  40.049
H  63.451  54.620  57.084
H  64.696  55.202  56.300
H  39.439  54.621  41.484
H  44.175  48.335  39.464
H  45.354  48.381  40.459
H  50.762  46.540  58.570
H  26.279  50.348  50.678
H  51.251  45.086  58.723
H  27.412  55.688  47.447
H  31.793  37.945  38.607
H  48.813  41.193  30.070
H  54.267  36.624  50.118
H  68.380  58.462  68.073
H  42.119  32.233  48.277
H  70.615  61.397  33.678
H  70.407  49.474  61.492
H  36.691  53.628  41.775
H  36.343  54.993  41.057
H  49.783  30.219  59.398
H  26.041  55.933  46.744
H  30.582  53.465  34.474
H  52.289  75.512  39.770
H  43.070  53.145  68.219
H  46.946  59.595  59.016
H  39.059  33.560  54.207
H  62.606  64.233  51.456
H  63.241  65.604  51.882
H  62.453  33.168  38.066
H  40.932  61.524  58.742
H  40.707  33.130  36.319
H  39.461  33.214  37.202
H  46.529  52.964  76.106
H  27.190  46.880  41.734
H  43.583  53.879  66.978
H  25.681  46.557  41.871
H  72.772  61.672  38.329
H  61.964  31.732  37.788
H  71.686  62.274  39.224
H  29.940  30.323  49.299
H  25.813  55.912  39.686
H  41.068  31.169  48.570
H  71.379  60.325  34.495
H  32.616  70.671  50.357
H  31.563  69.689  49.863
H  53.998  38.129  50.005
H  46.498  52.758  77.629
H  38.738  29.919  39.848
H  39.480  30.728  40.951
H  48.732  29.703  58.405
H  72.586  64.355  50.794
H  27.641  50.173  34.258
H  56.771  41.296  53.493
H  63.924  29.062  46.139
H  56.968  40.618  54.902
H  59.674  67.597  70.772
H  40.297  26.577  36.187
H  40.149  28.102  36.469
H  37.448  70.803  55.214
H  34.104  33.642  44.328
H  73.503  63.105  50.827
H  33.536  33.310  45.758
H  75.945  53.768  55.182
H  58.736  66.833  69.756
H  77.339  53.663  55.926
H  59.577  61.620  60.924
H  59.512  62.584  62.137
H  23.799  54.329  48.552
H  49.972  77.567  55.633
H  51.759  54.656  75.081
H  52.884  55.217  76.054
H  49.109  77.974  54.398
H  32.851  40.944  39.379
H  28.042  51.641  34.305
H  61.663  49.417  54.217
H  61.617  47.876  53.950
H  30.067  40.767  59.131
H  30.476  42.203  58.737
H  31.879  53.398  33.620
H  50.685  42.144  25.823
H  50.452  43.259  26.857
H  26.796  51.372  49.661
H  49.609  51.240  25.968
H  36.212  43.882  33.271
H  35.707  44.254  34.704
H  49.448  52.564  25.213
H  29.086  52.288  32.403
H  28.750  50.816  32.044
H  69.654  59.051  67.431
H  44.513  42.211  29.394
H  44.523  43.717  29.150
H  28.672  36.455  63.966
H  64.658  35.810  34.325
H  33.524  42.165  38.750
H  63.413  34.940  33.862
H  54.256  32.326  33.525
H  55.074  33.305  32.643
H  25.412  49.007  64.548
H  25.192  50.199  63.531
H  38.648  32.293  55.102
H  44.536  35.058  53.417
