6001
Supercell generated
Cl  58.783  44.553  49.363
Cl  64.692  66.808  46.065
Cl  53.680  60.226  38.694
Cl  44.651  34.163  58.631
Cl  38.906  50.113  38.011
Cl  36.932  56.533  58.271
Cl  51.630  34.260  65.519
Cl  41.393  59.874  40.714
Na  44.841  45.697  37.979
Na  32.525  36.099  51.965
Na  46.938  39.696  62.748
Na  43.025  35.908  35.317
Na  39.578  48.641  39.523
Na  64.385  37.236  42.940
O  43.315  68.745  46.674
O  63.575  54.696  41.731
O  67.223  40.977  57.177
O  40.734  38.358  58.066
O  39.576  51.924  53.845
O  57.298  66.200  63.396
O  68.253  51.110  49.878
O  40.081  32.558  43.562
O  51.110  46.572  31.332
O  48.354  49.265  59.937
O  50.735  60.272  37.743
O  31.617  49.834  43.493
O  63.198  57.007  65.710
O  55.650  38.077  54.908
O  63.475  69.419  48.406
O  47.100  65.395  61.526
O  62.499  35.424  54.464
O  54.380  67.643  61.273
O  34.043  62.560  38.335
O  60.554  45.533  48.505
O  62.774  34.293  40.155
O  33.878  49.904  67.609
O  55.137  37.246  45.361
O  33.508  38.242  51.044
O  50.039  35.707  67.321
O  67.043  63.175  52.006
O  56.397  32.671  38.780
O  31.697  40.487  59.954
O  53.207  62.031  35.852
O  40.477  40.717  61.109
O  51.176  34.058  33.936
O  55.939  56.286  28.260
O  45.654  59.737  62.167
O  54.029  40.132  62.727
O  65.993  54.966  53.603
O  33.258  59.781  46.033
O  40.529  49.171  59.085
O  52.894  63.583  46.210
O  42.685  36.785  61.538
O  52.942  66.624  32.940
O  34.970  41.831  58.560
O  49.317  37.246  34.983
O  56.645  40.101  33.944
O  54.484  64.737  40.037
O  39.371  51.035  33.759
O  34.361  63.878  45.438
O  65.023  50.362  66.064
O  63.626  44.175  48.372
O  42.234  41.957  60.643
O  54.428  58.357  61.050
O  43.127  37.952  63.860
O  31.131  49.206  46.074
O  45.685  60.450  44.076
O  43.045  50.072  62.998
O  64.032  64.626  46.748
O  33.219  62.609  42.938
O  44.215  64.062  40.103
O  36.487  50.288  36.511
O  60.196  56.143  62.548
O  49.121  61.443  53.645
O  28.411  50.697  56.446
O  45.780  68.216  63.843
O  57.973  39.604  32.260
O  60.217  65.932  63.722
O  54.861  34.334  66.528
O  54.232  54.271  33.993
O  57.584  53.460  48.858
O  45.742  40.904  31.248
O  47.169  51.502  61.063
O  30.191  41.301  39.731
O  38.006  47.926  66.181
O  65.233  62.413  47.539
O  43.113  66.121  55.983
O  57.029  34.977  46.734
O  66.647  56.246  41.518
O  42.349  38.570  56.511
O  55.778  60.098  29.440
O  51.040  44.218  61.864
O  43.540  57.035  58.986
O  30.505  51.361  42.135
O  47.320  38.984  51.637
O  56.921  44.827  41.961
O  63.020  41.382  33.480
O  52.144  51.492  40.709
O  51.078  69.820  36.625
O  42.966  49.795  55.260
O  35.007  33.793  45.228
O  69.399  47.502  35.770
O  68.224  57.127  44.892
O  62.419  56.835  47.842
O  47.098  49.266  72.442
O  42.936  62.560  59.066
O  57.371  70.002  44.852
O  58.634  42.456  50.678
O  49.571  52.447  65.814
O  56.943  42.020  62.170
O  41.682  46.645  58.556
O  42.565  58.423  36.585
O  41.841  56.068  62.957
O  56.387  29.705  46.459
O  65.188  68.409  49.814
O  58.084  36.718  43.296
O  30.923  56.273  56.983
O  40.596  44.408  58.471
O  41.048  37.065  43.419
O  60.092  57.413  34.215
O  49.838  41.826  31.177
O  40.690  66.405  61.170
O  62.765  57.429  54.594
O  36.565  58.708  56.071
O  48.471  36.793  69.479
O  35.886  65.602  49.851
O  39.406  53.587  51.278
O  41.562  53.478  38.936
O  54.082  39.253  65.791
O  52.782  49.714  34.296
O  39.135  56.821  33.352
O  55.357  56.690  64.326
O  59.569  42.648  48.583
O  59.283  43.638  64.547
O  59.970  38.774  51.349
O  72.359  45.692  42.361
O  50.025  52.810  34.012
O  51.135  67.514  35.628
O  33.365  59.246  63.373
O  48.244  50.918  36.253
O  68.607  54.144  45.508
O  43.872  47.753  72.542
O  57.055  43.582  68.915
O  61.424  30.087  51.808
O  47.736  57.995  71.889
O  55.887  68.407  63.499
O  62.870  53.042  29.911
O  60.740  71.293  48.830
O  51.821  39.593  36.015
O  47.491  39.320  56.438
O  57.296  48.655  50.871
O  46.588  48.040  32.778
O  45.833  32.043  49.802
O  47.031  42.100  38.972
O  60.055  62.965  52.239
O  39.538  53.002  62.638
O  58.949  36.774  46.236
O  32.353  57.268  36.235
O  39.176  45.113  66.094
O  48.918  67.875  61.455
O  62.425  49.839  37.314
O  57.313  51.364  49.520
O  40.173  51.202  39.504
O  56.954  56.427  30.591
O  58.199  56.439  50.596
O  48.207  37.937  46.852
O  50.743  53.606  40.101
O  56.346  69.306  50.817
O  54.744  54.195  69.864
O  58.747  31.894  56.808
O  59.156  29.948  43.197
O  28.518  57.692  43.439
O  54.582  52.742  72.822
O  30.310  57.374  59.522
O  42.518  46.848  64.174
O  46.822  62.073  41.700
O  43.184  58.823  32.908
O  40.340  38.251  37.978
O  42.331  34.794  55.855
O  45.267  37.160  66.402
O  57.100  31.842  61.763
O  56.059  59.893  36.363
O  52.220  34.770  44.581
O  63.289  54.291  63.480
O  45.714  70.030  45.169
O  38.456  48.670  57.644
O  40.773  53.374  60.263
O  43.712  44.218  65.492
O  36.579  48.562  63.975
O  45.319  46.112  63.698
O  34.024  65.463  53.773
O  60.287  44.765  51.765
O  52.120  54.441  68.172
O  61.280  49.184  48.083
O  55.678  50.714  32.430
O  70.219  59.724  55.422
O  60.050  35.272  40.168
O  31.454  36.324  45.613
O  31.281  35.582  49.959
O  51.011  42.437  37.272
O  33.825  46.336  57.820
O  63.187  58.680  51.206
O  33.574  56.161  43.955
O  52.172  50.774  27.480
O  59.417  52.518  34.464
O  63.355  50.023  49.917
O  54.885  71.940  55.742
O  56.981  45.169  57.318
O  40.830  43.500  43.553
O  39.199  63.728  53.574
O  39.602  43.506  67.544
O  44.282  50.507  27.829
O  38.633  38.627  55.813
O  64.923  37.593  46.448
O  36.264  49.845  53.963
O  35.691  40.095  39.314
O  58.435  60.565  57.956
O  56.899  43.695  30.420
O  66.870  35.682  46.025
O  54.014  65.465  66.769
O  56.573  27.099  46.781
O  39.092  51.042  46.751
O  40.311  32.664  50.244
O  48.514  69.436  46.309
O  54.751  51.388  65.338
O  60.146  55.056  60.636
O  49.052  34.641  48.335
O  47.247  58.787  36.683
O  35.061  44.077  50.894
O  52.155  32.883  40.877
O  51.333  30.318  41.241
O  70.047  48.993  46.937
O  67.572  51.447  63.789
O  30.910  45.713  52.759
O  58.583  52.184  45.709
O  60.954  44.069  35.115
O  53.302  47.789  68.967
O  31.879  64.453  53.195
O  65.809  52.190  44.862
O  49.524  62.602  56.184
O  67.968  38.012  54.884
O  39.654  42.036  45.325
O  40.867  56.252  50.996
O  67.326  59.158  51.813
O  41.609  56.736  67.132
O  42.737  61.253  70.144
O  55.450  48.129  66.024
O  36.843  44.145  65.733
O  48.825  32.657  38.841
O  42.947  62.714  50.081
O  48.588  47.897  35.185
O  61.672  38.250  52.651
O  53.503  58.410  29.216
O  47.088  36.164  33.840
O  72.614  52.929  52.657
O  38.171  34.822  63.445
O  46.110  38.587  54.232
O  58.557  68.776  48.736
O  52.238  38.519  68.276
O  38.593  54.690  44.071
O  53.830  40.432  54.258
O  43.067  56.832  69.316
O  42.392  57.755  53.061
O  64.549  42.483  35.740
O  50.436  70.159  59.243
O  50.862  49.246  26.592
O  61.408  59.505  68.912
O  52.368  30.719  58.509
O  63.086  51.841  41.734
O  49.280  61.322  33.055
O  33.433  35.002  50.108
O  59.277  69.770  40.854
O  58.816  58.146  57.327
O  45.083  40.833  70.144
O  57.836  67.001  50.677
O  32.280  61.432  44.956
O  39.394  61.980  63.392
O  56.798  37.422  58.707
O  61.792  43.576  46.020
O  54.621  52.329  62.317
O  59.901  42.842  41.866
O  38.242  34.111  59.161
O  43.401  30.524  50.984
O  67.265  62.960  42.224
O  54.094  52.022  26.954
O  57.352  56.175  34.737
O  37.885  41.731  48.987
O  64.239  60.903  35.023
O  32.156  54.024  63.963
O  47.485  67.402  39.367
O  63.225  30.653  48.966
O  49.174  42.835  70.606
O  62.078  56.927  58.042
O  63.818  43.432  44.446
O  33.975  57.762  34.393
O  52.820  54.034  63.192
O  41.516  52.008  66.766
O  45.022  37.375  69.867
O  46.323  27.950  42.898
O  45.637  49.938  36.768
O  65.282  58.646  41.466
O  38.162  56.729  50.480
O  47.496  54.405  29.439
O  41.708  33.434  36.695
O  42.202  63.402  55.176
O  46.430  35.629  36.995
O  45.991  69.713  59.300
O  49.260  30.658  59.885
O  67.365  40.653  43.650
O  64.211  44.479  57.813
O  63.543  69.936  51.906
O  62.905  53.142  44.482
O  54.869  66.397  43.857
O  40.425  64.606  36.963
O  33.284  42.111  37.656
O  39.149  46.113  60.682
O  58.679  32.328  44.446
O  58.731  45.352  69.805
O  45.190  32.588  55.029
O  55.202  43.117  57.917
O  62.814  44.995  34.315
O  55.471  57.557  42.982
O  54.778  51.833  67.525
O  70.257  45.778  47.323
O  67.472  52.150  54.206
O  50.919  66.464  54.173
O  44.761  65.662  62.895
O  44.832  39.796  40.936
O  56.127  50.244  61.441
O  35.810  56.207  65.942
O  50.626  28.582  45.656
O  58.302  36.028  63.809
O  59.853  36.382  36.010
O  51.486  69.131  38.968
O  36.249  44.411  60.357
O  68.891  37.340  47.573
O  58.208  54.691  37.319
O  62.943  47.506  30.658
O  41.820  42.137  50.650
O  64.228  60.635  43.300
O  37.080  40.310  56.427
O  55.337  40.044  69.010
O  48.461  70.350  55.891
O  67.141  37.884  46.183
O  56.972  46.031  67.632
O  66.179  51.036  51.954
O  39.394  69.442  42.329
O  40.026  60.167  45.711
O  39.080  33.060  57.433
O  62.296  51.167  46.411
O  41.064  70.037  45.237
O  47.952  67.563  47.320
O  47.964  69.611  62.938
O  45.781  68.868  36.189
O  51.134  68.108  51.298
O  45.371  44.733  60.533
O  49.778  48.718  67.704
O  36.578  52.386  53.099
O  38.597  60.417  51.594
O  45.862  31.838  40.234
O  62.040  61.094  64.289
O  45.285  49.428  62.868
O  60.512  54.906  70.405
O  66.089  36.672  57.684
O  39.177  59.857  68.243
O  34.371  62.380  52.159
O  34.107  48.534  52.145
O  54.206  62.598  60.632
O  61.191  31.991  40.156
O  41.293  37.758  66.936
O  33.912  36.575  40.671
O  38.529  67.009  61.398
O  64.360  37.968  51.949
O  45.550  55.213  65.082
O  57.804  64.537  39.962
O  42.485  57.708  42.129
O  53.935  58.549  40.108
O  34.977  55.595  34.853
O  64.400  38.886  36.279
O  59.748  39.970  49.509
O  64.791  43.352  55.501
O  35.816  54.643  54.647
O  50.220  43.797  63.794
O  44.782  68.302  53.407
O  46.472  57.892  33.638
O  27.858  52.719  52.349
O  35.715  55.251  44.444
O  31.106  53.097  61.166
O  53.298  29.944  39.946
O  64.141  48.160  53.534
O  63.441  36.662  57.476
O  29.000  42.767  54.113
O  36.899  69.289  46.731
O  54.432  28.562  48.310
O  30.717  40.897  53.509
O  29.202  53.151  46.128
O  38.303  37.911  44.306
O  30.777  55.657  46.051
O  36.227  44.138  32.791
O  35.752  35.936  56.064
O  58.456  50.815  65.283
O  59.923  59.876  49.941
O  35.713  60.952  37.581
O  34.749  37.302  43.519
O  57.021  66.673  41.303
O  51.179  48.798  29.582
O  48.189  65.130  56.093
O  40.078  63.914  65.235
O  57.010  71.396  41.727
O  48.084  34.797  53.039
O  57.547  38.397  45.608
O  40.101  61.713  42.914
O  40.832  52.022  64.123
O  29.656  39.581  48.020
O  39.584  41.536  69.900
O  32.568  53.075  44.838
O  66.927  41.741  37.265
O  65.200  45.638  41.977
O  64.626  48.601  31.850
O  53.332  64.427  33.770
O  56.107  65.420  52.936
O  59.096  61.336  62.907
O  32.114  50.108  56.692
O  33.683  53.488  56.957
O  56.213  36.298  34.207
O  64.463  61.833  40.309
O  41.880  39.953  43.345
O  59.299  70.917  52.252
O  46.417  29.314  53.626
O  44.608  38.431  59.708
O  49.373  26.931  44.917
O  38.252  43.769  36.741
O  41.904  28.034  44.676
O  62.359  62.966  35.752
O  42.929  55.122  47.281
O  51.312  49.778  66.244
O  60.932  61.087  39.282
O  39.840  42.856  38.691
O  30.786  39.291  46.149
O  71.311  53.335  44.879
O  36.781  44.263  54.017
O  66.435  49.077  35.697
O  41.269  56.762  57.255
O  68.408  53.416  49.017
O  53.094  40.881  68.394
O  30.850  54.076  43.894
O  35.088  46.474  52.715
O  58.140  67.231  55.743
O  60.486  36.202  48.851
O  47.910  29.770  50.496
O  44.389  29.486  45.156
O  63.016  32.116  52.515
O  60.818  44.675  56.521
O  40.977  61.032  55.218
O  56.591  51.196  46.373
O  43.657  36.251  37.516
O  55.536  36.826  37.314
O  37.740  41.184  40.652
O  33.804  58.582  51.852
O  48.825  34.741  65.028
O  62.154  45.678  61.412
O  48.368  68.294  54.078
O  49.867  70.132  40.088
O  62.090  62.704  46.965
O  41.332  44.119  39.763
O  32.596  46.335  50.023
O  57.512  52.029  67.489
O  44.200  52.528  32.641
O  46.849  46.544  27.036
O  70.214  47.725  49.203
O  43.091  51.972  57.616
O  67.924  63.153  49.187
O  43.439  30.499  53.785
O  32.551  41.148  47.377
O  51.876  57.051  28.471
O  47.051  34.909  62.638
O  43.167  35.979  68.275
O  49.675  39.626  38.156
O  36.320  50.951  41.733
O  57.211  53.349  35.275
O  34.838  48.070  34.420
O  49.450  66.189  35.130
O  45.795  34.965  39.025
O  33.488  56.935  56.156
O  37.978  44.832  51.584
O  41.696  31.447  55.710
O  47.871  65.018  38.542
O  36.985  57.825  68.274
O  38.811  58.395  65.972
O  42.463  40.794  39.492
O  54.561  46.311  73.466
O  45.777  32.480  59.413
O  56.348  46.711  70.170
O  62.325  39.653  65.872
O  57.331  40.002  50.449
O  33.880  47.057  61.287
O  41.226  34.309  46.714
O  55.373  35.880  42.271
O  71.504  42.262  47.188
O  60.260  49.779  71.224
O  65.128  50.256  42.027
O  48.616  56.472  36.063
O  54.052  38.295  34.498
O  44.615  51.926  72.086
O  37.567  41.335  66.983
O  57.842  42.172  66.606
O  42.109  47.711  40.249
O  51.159  61.558  66.334
O  50.067  52.371  63.535
O  35.618  41.717  49.743
O  44.267  70.946  40.539
O  55.460  55.349  36.722
O  34.761  38.777  57.947
O  56.166  48.640  31.229
O  69.181  50.952  45.288
O  59.220  28.385  47.317
O  43.476  61.876  33.261
O  59.990  56.292  42.057
O  37.340  61.554  54.319
O  49.552  67.074  65.423
O  45.557  56.656  67.582
O  64.873  41.895  39.961
O  48.051  61.270  48.216
O  43.855  46.982  55.694
O  41.124  29.862  45.628
O  56.518  57.928  39.247
O  37.387  38.431  39.343
O  46.983  46.899  39.255
O  70.386  52.453  47.479
O  41.067  39.171  63.575
O  58.411  64.179  43.083
O  64.002  55.867  60.092
O  44.335  67.602  58.747
O  63.178  58.092  43.773
O  56.039  66.485  38.110
O  46.822  33.733  41.611
O  38.343  70.616  48.595
O  61.776  55.297  35.694
O  43.190  66.282  37.572
O  41.274  44.787  64.110
O  50.267  42.931  34.171
O  37.215  40.544  59.319
O  49.699  58.067  34.061
O  59.339  67.051  52.718
O  53.770  68.078  64.266
O  41.689  29.172  52.830
O  46.654  64.013  57.395
O  28.520  55.773  52.333
O  39.076  63.380  57.133
O  35.892  61.372  58.025
O  49.817  40.967  66.407
O  58.073  35.151  57.512
O  38.329  29.972  43.463
O  65.037  40.068  63.322
O  52.052  36.542  48.702
O  56.288  58.339  68.525
O  49.835  30.068  43.944
O  40.345  57.983  60.743
O  39.081  42.499  63.742
O  46.413  44.208  37.806
O  60.668  62.340  49.200
O  46.547  51.554  38.423
O  41.241  36.003  58.008
O  53.021  29.475  42.766
O  40.912  38.771  30.745
O  51.157  61.874  54.891
O  51.651  33.877  56.617
O  65.491  38.765  61.189
O  47.414  43.658  61.823
O  33.949  50.251  46.486
O  40.490  62.284  39.662
O  49.363  55.265  34.383
O  68.423  35.725  44.447
O  57.391  44.357  53.243
O  46.964  36.973  61.659
O  39.224  52.689  44.807
O  39.343  53.415  68.115
O  34.573  34.725  53.093
O  34.590  62.600  60.853
O  65.672  49.784  48.683
O  56.370  70.013  60.911
O  41.792  36.353  32.319
O  43.692  63.212  62.454
O  47.757  41.863  66.171
O  61.143  57.945  66.712
O  64.959  33.937  45.481
O  42.467  69.853  57.591
O  51.034  55.812  32.019
O  39.164  47.808  69.782
O  61.124  68.278  40.981
O  44.503  30.174  61.110
O  35.541  49.020  66.471
O  65.394  47.690  59.383
O  35.600  39.747  33.487
O  63.116  60.123  53.578
O  50.734  44.405  29.366
O  46.941  49.017  68.972
O  52.987  66.353  38.814
O  57.057  53.495  51.366
O  52.402  36.807  56.690
O  51.595  50.250  64.108
O  42.008  32.602  44.711
O  42.836  39.985  68.095
O  37.810  56.288  62.986
O  41.925  40.765  30.062
O  65.721  38.741  43.939
O  50.905  48.775  62.126
O  48.554  44.920  30.008
O  31.431  50.095  48.669
O  56.089  33.105  49.597
O  52.622  52.967  32.300
O  41.761  41.819  64.163
O  44.822  40.890  65.834
O  58.029  42.845  55.808
O  51.749  48.616  60.097
O  61.597  57.891  39.371
O  44.819  40.319  56.793
O  48.425  35.270  35.381
O  56.881  45.714  49.061
O  64.304  35.320  52.598
O  70.232  51.578  36.965
O  58.569  42.754  36.927
O  49.434  50.552  42.330
O  40.728  39.080  54.146
O  41.795  59.028  65.080
O  54.728  47.516  39.264
O  56.157  49.773  35.068
O  31.208  54.158  48.431
O  39.682  46.189  41.782
O  40.460  46.298  48.533
O  37.219  41.256  62.571
O  45.005  35.888  31.081
O  35.793  40.088  36.219
O  61.533  43.275  61.583
O  62.698  48.050  64.591
O  38.151  64.568  38.580
O  50.615  41.744  62.573
O  39.537  45.707  62.810
O  37.881  56.289  56.299
O  57.948  49.715  38.565
O  54.319  49.407  36.247
O  62.115  56.658  41.621
O  32.445  54.664  51.343
O  72.592  44.945  53.915
O  60.751  52.765  67.597
O  53.163  60.624  71.499
O  58.792  66.187  46.429
O  57.072  62.370  33.418
O  36.934  46.982  50.873
O  37.426  50.980  69.419
O  42.010  49.058  47.797
O  56.362  51.208  69.894
O  54.126  40.123  29.363
O  66.025  49.840  39.880
O  52.867  43.820  35.093
O  45.160  68.766  48.880
O  56.656  31.586  53.373
O  64.391  45.185  52.306
O  60.048  38.367  65.178
O  59.012  39.327  59.515
O  45.441  63.466  34.124
O  38.866  59.121  37.597
O  63.090  42.261  64.003
O  65.768  52.489  36.247
O  43.031  69.663  43.365
O  44.361  56.469  32.879
O  56.462  50.786  28.774
O  49.012  37.395  49.310
O  53.458  66.352  41.125
O  44.510  62.034  53.667
O  32.911  37.867  60.211
O  37.926  35.747  48.087
O  53.294  38.183  43.855
O  44.796  63.729  36.504
O  72.035  44.361  48.194
O  54.842  38.249  41.661
O  39.922  55.535  70.428
O  48.791  61.213  45.399
O  63.742  58.810  39.447
O  61.505  55.645  44.364
O  54.406  53.078  30.484
O  52.112  30.921  47.765
O  45.802  32.667  45.846
O  36.713  53.518  47.992
O  60.726  41.803  38.997
O  52.121  32.940  36.752
O  58.211  50.844  62.993
O  69.098  49.399  59.105
O  61.488  48.204  42.894
O  52.176  29.607  53.758
O  68.375  53.366  58.366
O  52.337  35.746  63.420
O  41.921  37.529  49.396
O  35.004  42.759  67.546
O  52.113  47.441  66.049
O  56.378  28.159  49.437
O  58.646  57.345  38.340
O  32.781  54.492  54.483
O  54.018  58.967  56.094
O  53.446  45.133  32.043
O  56.946  70.131  55.188
O  39.018  43.307  53.331
O  63.006  54.093  55.043
O  31.966  59.945  38.760
O  64.272  64.530  41.622
O  68.593  46.925  58.686
O  56.079  31.690  43.741
O  62.508  68.249  56.906
O  56.529  51.885  40.376
O  69.235  44.283  48.575
O  33.392  49.566  38.525
O  69.345  37.086  51.416
O  65.374  56.484  63.511
O  54.254  68.193  58.829
O  53.327  46.609  58.901
O  58.709  47.124  59.739
O  37.622  66.907  58.941
O  43.529  59.583  60.822
O  61.759  41.391  47.117
O  50.402  40.244  46.233
O  53.926  58.639  35.195
O  59.944  64.112  48.047
O  33.046  33.766  46.754
O  33.324  49.471  53.975
O  51.105  53.389  30.521
O  66.358  45.754  53.336
O  57.426  33.218  63.694
O  38.399  55.714  68.749
O  55.442  71.182  48.696
O  46.606  36.379  50.697
O  33.941  52.667  47.069
O  66.076  61.499  37.009
O  64.812  39.578  55.074
O  68.514  57.542  56.347
O  62.105  60.378  61.537
O  52.213  48.288  56.728
O  45.949  43.764  64.733
O  66.184  65.796  51.099
O  46.732  62.930  39.057
O  52.139  63.672  65.148
O  59.958  67.939  57.422
O  56.916  40.093  38.938
O  65.609  41.128  45.834
O  48.040  61.333  36.419
O  59.477  44.836  67.086
O  54.081  33.814  42.177
O  30.641  47.754  41.139
O  35.466  50.962  30.686
O  58.196  39.406  62.323
O  41.110  40.876  32.902
O  44.020  54.473  44.399
O  49.552  36.098  62.108
O  34.774  56.203  62.998
O  28.088  47.863  48.593
O  58.458  45.782  54.985
O  33.824  54.559  49.406
O  67.862  49.125  47.583
O  35.239  55.150  37.669
O  27.392  48.309  54.833
O  60.731  46.609  54.565
O  42.340  51.497  70.056
O  47.130  32.757  53.973
O  53.468  29.140  44.895
O  51.823  30.057  51.108
O  58.402  56.285  44.773
O  43.804  62.204  47.749
O  64.796  50.187  55.292
O  53.686  42.267  51.825
O  73.466  51.536  49.627
O  43.494  59.767  51.273
O  55.748  67.818  34.960
O  36.404  47.323  40.764
O  46.498  52.704  33.578
O  43.730  30.403  48.810
O  49.488  72.220  49.004
O  61.037  34.767  46.681
O  56.639  71.932  52.347
O  66.725  57.049  47.719
O  63.901  57.223  34.211
O  65.048  66.823  43.887
O  70.758  53.062  55.978
O  68.874  36.086  53.485
O  48.096  46.489  32.439
O  34.044  58.037  38.920
O  27.498  41.301  51.731
O  34.218  48.729  32.324
O  59.827  37.922  53.823
O  30.902  40.295  42.357
O  57.919  48.228  62.860
O  62.492  42.325  49.850
O  35.423  46.719  55.526
O  54.597  30.190  63.069
O  61.720  37.789  44.566
O  63.198  40.369  44.538
O  33.146  55.342  40.994
O  32.527  42.173  40.349
O  47.894  60.339  39.116
O  51.629  50.401  31.738
O  42.434  63.841  34.929
O  36.304  32.802  48.511
O  48.255  27.318  52.539
O  46.048  33.113  34.357
O  37.919  38.355  34.718
O  67.111  59.769  49.058
O  48.461  47.399  29.252
O  29.782  45.216  48.807
O  49.084  41.233  27.589
O  51.989  58.385  31.641
O  54.613  69.386  37.055
O  59.669  43.580  58.445
O  58.216  34.586  41.201
O  58.735  42.169  53.554
O  43.185  27.742  47.235
O  29.150  57.959  54.691
O  33.435  38.097  53.255
O  29.006  60.756  48.958
O  68.148  60.966  46.570
O  43.477  65.640  50.222
O  30.301  61.614  50.579
O  62.510  59.953  36.877
O  47.209  53.746  71.036
O  37.628  61.921  66.264
O  56.871  32.008  46.450
O  54.754  58.791  51.179
O  70.255  54.470  60.610
O  60.181  58.308  60.867
O  37.573  45.058  48.979
O  70.094  59.493  45.901
O  58.431  51.446  42.325
O  66.289  66.145  57.689
O  46.845  48.098  66.143
O  54.131  68.410  40.225
O  48.433  44.016  66.395
O  39.560  37.282  47.459
O  43.346  54.075  70.689
O  43.489  36.914  43.651
O  31.164  64.093  49.659
O  41.042  49.579  53.825
O  54.269  64.833  56.947
O  58.538  53.735  40.940
O  64.521  50.311  33.593
O  42.618  31.434  37.533
O  43.808  33.633  65.469
O  57.192  48.983  43.980
O  55.909  41.113  52.348
O  49.851  62.216  50.256
O  50.887  61.940  30.958
O  67.049  60.114  55.693
O  62.858  35.979  45.742
O  69.073  58.397  48.890
O  70.779  44.120  43.947
O  45.230  54.294  40.256
O  37.726  50.308  62.950
O  60.365  60.099  47.146
O  55.597  56.989  46.212
O  61.978  50.598  62.411
O  68.149  35.925  49.528
O  41.773  65.021  57.348
O  65.269  38.280  41.347
O  55.536  60.559  63.100
O  44.362  60.579  66.739
O  40.658  63.240  50.613
O  45.206  71.256  43.396
O  43.209  32.508  47.484
O  58.884  71.320  46.337
O  46.725  42.781  28.188
O  36.791  59.663  40.223
O  44.486  41.617  52.284
O  60.644  53.438  37.643
O  46.398  27.526  48.759
O  44.171  41.935  61.824
O  30.082  56.691  39.744
O  67.453  48.304  33.340
O  67.845  46.758  39.751
O  62.266  60.080  48.281
O  71.089  46.509  58.783
O  60.184  51.039  61.153
O  62.207  44.998  41.647
O  59.052  58.269  62.936
O  39.732  58.036  63.715
O  45.146  67.132  44.548
O  57.347  53.928  70.578
O  55.139  38.309  31.537
O  48.173  54.553  31.998
O  63.633  65.469  53.386
O  62.394  29.662  45.770
O  61.631  69.807  45.954
O  69.664  42.460  52.273
O  70.530  41.833  56.664
O  45.680  38.476  50.089
O  38.226  37.524  58.972
O  36.636  64.245  47.050
O  50.758  63.980  49.303
O  47.253  48.317  62.967
O  73.010  50.161  55.481
O  58.484  43.986  44.548
O  40.156  62.933  47.206
O  57.871  49.766  58.977
O  49.529  41.939  59.296
O  58.797  34.136  49.912
O  48.354  28.360  55.859
O  64.234  51.719  63.406
O  47.317  69.757  50.538
O  41.201  45.335  69.259
O  50.084  47.109  70.811
O  35.715  37.179  49.601
O  57.796  46.225  33.613
O  42.834  45.819  52.293
O  65.765  52.758  47.003
O  55.700  49.453  67.878
O  57.665  54.231  65.283
O  59.162  43.876  61.023
O  37.001  51.115  44.271
O  35.750  31.497  53.958
O  36.663  53.650  41.664
O  58.596  64.623  61.346
O  50.088  44.178  55.795
O  56.095  33.055  57.405
O  51.309  36.800  70.204
O  46.912  61.431  55.889
O  34.913  51.975  38.116
O  53.702  49.198  71.879
O  45.582  63.796  64.874
O  68.026  40.769  59.823
O  54.584  57.421  31.995
O  37.258  31.695  42.542
O  35.557  67.319  47.126
O  68.228  40.297  39.866
O  56.011  73.411  49.109
O  62.472  32.385  46.087
O  34.615  62.321  54.958
O  40.594  57.310  35.421
O  39.582  53.661  48.042
O  36.005  49.094  46.433
O  51.687  38.184  65.531
O  30.979  41.716  44.040
O  47.849  54.590  41.710
O  48.328  37.393  65.853
O  32.112  58.743  41.280
O  56.312  37.445  63.603
O  43.611  37.874  52.119
O  42.623  69.442  40.566
O  62.156  46.801  50.106
O  50.515  39.977  43.429
O  51.735  30.331  38.062
O  64.461  53.118  52.302
O  60.763  47.074  58.951
O  61.295  54.945  39.706
O  52.241  62.157  52.233
O  41.983  62.370  37.967
O  34.727  40.611  65.040
O  34.522  49.374  59.633
O  40.183  53.258  55.792
O  36.544  59.596  51.292
O  41.041  55.836  60.193
O  46.360  44.590  53.874
O  39.182  48.938  48.174
O  39.194  62.897  35.800
O  41.297  64.320  45.709
O  35.961  31.360  44.787
O  53.886  41.600  43.179
O  45.913  52.725  65.646
O  48.776  57.788  39.749
O  58.895  35.652  55.107
O  57.083  41.585  58.336
O  47.013  51.866  28.590
O  57.925  49.380  40.780
O  46.667  61.138  59.158
O  44.863  60.094  30.023
O  64.652  56.530  46.398
O  39.569  50.735  51.865
O  49.821  58.339  65.944
O  61.318  54.473  48.578
O  60.451  40.760  63.285
O  45.847  51.612  31.013
O  48.309  72.403  57.727
O  47.219  33.011  65.823
O  37.966  50.194  55.573
O  38.219  56.110  42.413
O  61.784  51.704  52.450
O  69.291  61.611  43.987
O  47.463  49.835  26.027
O  55.372  31.479  59.287
O  56.309  47.545  55.971
O  47.522  42.594  32.912
O  30.111  62.412  52.624
O  49.590  62.502  39.421
O  58.951  67.497  39.499
O  60.857  51.584  36.469
O  61.286  33.633  37.108
O  49.147  44.368  32.883
O  39.868  61.005  49.477
O  63.600  58.579  60.159
O  32.209  37.622  47.927
O  70.372  50.983  54.755
O  61.079  43.215  54.314
O  46.276  29.842  47.517
O  49.320  54.581  38.362
O  59.184  55.693  46.874
O  62.303  41.025  41.302
O  48.993  40.469  35.732
O  70.353  39.657  54.121
O  67.728  61.046  40.382
O  62.450  40.521  55.816
O  55.640  35.896  52.792
O  56.720  61.680  66.557
O  49.250  50.495  39.649
O  56.983  67.272  47.764
O  49.208  30.977  52.104
O  42.985  53.978  67.823
O  67.344  45.351  38.112
O  53.919  62.287  57.250
O  43.290  37.012  54.337
O  50.818  38.282  62.763
O  37.473  33.730  55.988
O  57.605  60.018  45.370
O  55.938  41.558  49.217
O  52.183  49.928  36.960
O  47.331  40.371  34.293
O  45.522  38.631  47.506
O  70.463  55.380  53.683
O  43.151  35.921  40.439
O  68.210  65.226  53.750
O  60.991  59.501  55.651
O  35.247  43.203  63.027
O  31.356  56.590  49.529
O  56.518  68.934  39.988
O  51.310  67.156  48.184
O  67.063  44.893  48.872
O  63.056  42.584  37.385
O  43.570  72.706  54.872
O  42.837  46.039  38.824
O  60.128  39.483  45.562
O  37.019  47.736  33.292
O  54.379  41.742  33.288
O  70.420  38.582  45.416
O  36.602  47.374  47.897
O  34.642  39.847  48.133
O  55.162  30.326  49.407
O  41.777  51.324  30.381
O  33.180  60.633  54.192
O  43.341  70.100  55.044
O  39.070  55.873  66.121
O  48.251  58.792  43.780
O  26.564  48.699  46.713
O  29.738  52.619  50.171
O  44.716  35.738  33.689
O  60.780  52.723  64.823
O  39.545  42.976  61.603
O  51.961  63.150  38.756
O  36.175  55.459  32.372
O  56.285  58.925  59.916
O  56.984  48.491  72.375
O  35.846  38.656  61.422
O  43.840  39.642  33.234
O  62.043  64.092  42.325
O  57.888  46.784  43.599
O  54.617  66.689  55.273
O  49.097  49.900  70.241
O  56.564  48.903  48.129
O  48.360  41.227  50.890
O  46.157  39.809  67.489
O  60.150  47.555  40.728
O  52.853  36.435  52.735
O  60.807  61.890  33.084
O  49.780  34.125  42.710
O  60.223  51.495  39.789
O  67.123  45.339  57.442
O  69.442  53.169  52.388
O  59.552  60.384  37.160
O  71.388  53.826  41.374
O  47.480  60.332  66.174
O  38.680  59.081  55.472
O  37.063  62.893  50.388
O  59.698  58.911  43.716
O  31.847  37.077  43.136
O  51.904  42.838  69.099
O  48.536  67.023  52.167
O  47.062  27.533  44.930
O  57.069  43.373  39.542
O  45.222  60.647  38.010
O  52.715  50.173  74.036
O  48.195  72.230  46.681
O  54.186  38.756  57.057
O  43.927  44.480  57.411
O  48.140  63.283  61.059
O  47.595  43.766  59.566
O  63.062  50.794  30.742
O  63.847  50.204  44.279
O  65.924  61.707  44.548
O  42.735  64.345  31.942
O  66.229  35.078  59.949
O  52.673  37.767  61.031
O  40.502  68.629  48.996
O  51.427  36.001  32.490
O  39.889  46.407  33.906
O  67.693  64.528  43.706
O  68.716  41.562  54.363
O  34.625  35.379  47.135
O  47.368  51.337  41.425
O  55.038  36.756  50.800
O  65.542  57.234  52.487
O  41.069  51.009  61.202
O  55.914  61.070  47.210
O  32.463  44.004  38.623
O  42.745  55.246  55.144
O  30.226  52.668  54.285
O  48.276  32.115  63.114
O  41.064  42.741  35.278
O  60.153  51.745  49.134
O  39.159  34.941  36.574
O  39.892  48.316  50.281
O  54.812  48.418  58.955
O  46.961  35.586  67.832
O  40.505  47.228  52.346
O  43.577  32.764  34.289
O  62.116  34.253  52.058
O  51.420  65.043  57.536
O  37.868  37.847  53.591
O  42.820  62.103  65.401
O  45.294  45.987  31.471
O  46.947  31.518  44.360
O  68.289  53.620  36.255
O  39.060  51.918  36.810
O  33.612  59.586  36.890
O  58.168  51.102  35.709
O  50.124  45.661  34.997
O  57.659  36.211  51.031
O  70.607  52.177  50.806
O  61.770  40.879  35.263
O  60.262  44.706  39.672
O  55.784  47.073  62.956
O  32.666  47.593  66.554
O  55.124  60.752  69.101
O  53.888  31.823  52.503
O  69.420  55.318  40.324
O  49.071  70.970  52.949
O  67.009  42.281  48.015
O  58.620  46.802  28.674
O  71.377  41.191  43.322
O  41.961  52.646  48.252
O  43.256  61.704  35.980
O  34.400  41.086  41.934
O  41.264  53.616  43.839
O  53.409  40.226  48.554
O  49.556  52.295  29.169
O  48.982  33.783  57.122
O  29.080  53.905  41.373
O  34.697  49.336  42.605
O  48.714  45.600  72.261
O  47.950  52.006  72.284
O  40.056  36.360  53.408
O  32.607  39.732  62.281
O  56.425  55.540  41.934
O  64.290  60.600  62.889
O  59.994  47.861  65.005
O  35.373  39.477  51.617
O  33.709  64.101  58.203
O  52.549  42.474  61.504
O  50.281  64.010  33.072
O  64.625  46.724  68.214
O  41.172  47.998  37.112
O  64.716  40.019  49.409
O  58.586  36.349  60.778
O  46.909  60.492  68.994
O  37.649  69.067  54.366
O  66.457  49.609  59.198
O  33.768  44.101  54.641
O  68.775  49.059  37.765
O  28.287  55.173  56.778
O  62.802  42.119  57.286
O  40.848  60.036  37.861
O  68.643  62.545  56.034
O  56.926  55.618  72.486
O  43.375  44.116  62.395
O  32.708  47.376  53.600
O  52.931  35.241  37.428
O  35.858  51.205  33.798
O  67.779  39.861  48.722
O  49.204  32.712  44.363
O  39.936  66.763  53.094
O  47.882  43.793  35.901
O  46.603  64.668  41.636
O  34.946  54.554  51.330
O  33.417  60.486  61.273
O  52.561  52.294  66.186
O  53.494  33.566  61.187
O  44.995  43.008  72.236
O  41.735  30.945  61.812
O  49.925  65.667  46.279
O  42.206  35.192  50.005
O  53.909  28.015  58.170
O  35.594  68.246  52.434
O  50.424  30.890  56.521
O  52.876  44.596  60.430
O  52.324  28.851  61.208
O  58.394  36.019  34.274
O  53.261  36.074  40.461
O  55.491  45.870  54.162
O  60.949  48.352  67.568
O  40.913  55.843  45.773
O  31.936  48.851  59.277
O  52.676  37.426  37.983
O  68.639  50.747  52.476
O  31.290  51.502  36.722
O  62.424  37.578  37.174
O  63.252  46.932  47.437
O  50.118  73.745  53.865
O  56.207  39.011  66.363
O  49.913  53.003  70.106
O  42.867  60.445  45.729
O  53.789  65.506  36.230
O  52.456  45.557  26.797
O  33.508  47.543  37.118
O  62.624  34.289  60.731
O  66.159  33.973  56.440
O  43.921  43.075  37.596
O  48.091  25.894  49.919
O  55.929  55.788  67.519
O  49.003  59.902  29.686
O  43.144  53.503  60.730
O  72.460  48.490  50.056
O  42.635  39.159  37.984
O  48.239  40.414  54.203
O  58.246  64.044  51.050
O  62.683  58.603  45.852
O  57.441  58.971  64.971
O  54.779  43.673  62.670
O  41.064  44.519  30.752
O  42.679  59.920  42.608
O  47.817  36.874  57.711
O  70.923  46.658  53.757
O  42.564  43.670  68.553
O  43.520  65.852  46.979
O  47.499  56.077  69.165
O  40.298  35.744  63.446
O  51.537  71.967  57.682
O  56.465  56.263  62.168
O  73.073  45.977  46.198
O  53.548  37.568  63.656
O  68.941  57.035  53.008
O  33.104  34.473  43.271
O  55.513  37.152  48.457
O  44.295  43.240  29.847
O  45.272  65.790  48.834
O  53.691  55.626  39.884
O  62.885  41.182  60.912
O  33.818  40.709  45.617
O  52.994  64.477  62.566
O  55.822  61.313  40.745
O  50.923  58.660  72.387
O  60.211  50.235  45.221
O  52.393  56.670  34.679
O  66.792  52.889  66.433
O  36.962  45.581  67.686
O  52.026  60.021  33.898
O  60.759  66.483  51.104
O  48.160  63.156  67.459
O  51.257  41.065  51.802
O  64.448  55.940  50.096
O  34.486  50.319  56.039
O  45.650  71.807  57.450
O  67.946  55.080  61.797
O  60.605  40.965  53.684
O  40.181  35.819  34.813
O  32.901  51.843  54.802
O  30.670  59.326  48.709
O  43.474  62.509  30.355
O  45.317  35.095  53.073
O  33.610  64.699  48.616
O  34.866  60.986  62.851
O  69.233  58.212  51.077
O  44.393  62.879  44.592
O  40.393  56.457  47.827
O  42.534  42.051  66.938
O  46.377  66.274  35.154
O  44.795  57.907  47.533
O  61.608  45.961  44.082
O  60.128  37.729  41.844
O  43.277  51.857  64.887
O  60.192  60.615  42.252
O  39.024  50.367  31.229
O  57.630  60.188  69.764
O  42.279  37.956  35.162
O  38.592  54.434  61.141
O  35.483  49.292  61.866
O  42.520  48.068  34.907
O  34.581  52.987  59.855
O  58.698  32.718  48.233
O  27.868  55.294  48.967
O  62.299  32.681  49.293
O  59.600  52.814  29.569
O  67.048  61.198  59.695
O  52.064  71.623  40.277
O  41.640  62.052  61.531
O  36.625  52.449  62.791
O  47.863  31.943  48.141
O  35.761  45.752  34.858
O  49.125  49.550  28.171
O  60.550  33.936  53.569
O  65.564  40.380  52.552
O  37.423  63.826  63.572
O  46.202  71.323  55.302
O  35.411  43.299  36.533
O  29.810  48.532  53.452
O  66.194  62.476  62.930
O  64.174  52.295  49.191
O  63.467  35.390  49.267
O  57.511  53.564  44.030
O  45.568  35.529  42.643
O  40.965  67.430  38.177
O  39.533  55.764  54.350
O  43.209  43.335  41.882
O  63.889  34.975  41.999
O  41.087  55.750  39.746
O  55.384  68.091  46.399
O  39.170  36.613  39.016
O  38.987  66.162  42.634
O  41.698  56.324  33.461
O  53.594  31.333  44.745
O  50.236  46.418  27.271
O  55.669  29.337  59.688
O  44.934  68.003  38.914
O  51.145  73.556  50.530
O  51.956  44.972  66.653
O  59.639  46.772  46.170
O  68.499  43.751  46.313
O  39.139  63.525  42.037
O  40.202  32.500  38.097
O  40.539  48.641  32.276
O  59.298  59.680  67.635
O  63.556  37.643  59.940
O  35.504  52.585  36.103
O  63.248  62.894  44.935
O  50.776  69.758  42.301
O  36.778  40.597  43.693
O  38.721  47.983  34.899
O  59.500  52.575  70.049
O  46.769  63.257  52.388
O  48.466  46.225  61.637
O  54.276  35.685  57.047
O  44.235  47.510  60.271
O  50.037  32.512  50.042
O  60.764  41.326  57.289
O  66.551  63.643  55.206
O  48.562  50.594  32.505
O  46.425  37.404  38.404
O  67.828  49.680  43.081
O  67.664  59.082  42.816
O  35.927  47.307  59.989
O  48.297  35.039  59.511
O  70.052  55.635  58.313
O  51.696  71.248  47.230
O  53.896  49.171  62.644
O  35.177  37.895  46.117
O  59.573  48.118  30.935
O  40.325  39.816  35.124
O  53.742  68.640  53.755
O  65.903  43.442  60.736
O  59.544  63.023  45.781
O  38.960  64.666  50.760
O  61.195  51.195  69.092
O  40.991  49.596  56.466
O  42.396  53.046  36.771
O  49.634  30.217  46.745
O  37.001  49.412  39.989
O  57.118  47.112  40.045
O  50.805  37.089  58.905
O  51.628  61.104  48.721
O  48.222  28.362  59.127
O  53.989  72.000  51.460
O  58.031  40.265  54.861
O  36.591  49.784  57.965
O  53.663  52.415  70.605
O  66.193  44.135  62.807
O  34.753  44.310  48.658
O  45.815  64.551  43.688
O  40.274  61.642  66.134
O  59.958  69.000  43.965
O  42.906  35.316  59.477
O  63.564  47.194  44.283
O  57.736  53.348  28.527
O  42.196  60.398  67.836
O  67.386  53.993  52.119
O  38.504  31.339  47.568
O  64.401  32.938  41.286
O  51.476  60.529  41.680
O  43.948  68.490  50.870
O  67.530  47.627  53.288
O  57.316  59.127  55.719
O  38.263  47.671  52.908
O  56.420  45.697  31.458
O  56.421  33.934  60.466
O  64.927  60.852  50.760
O  60.662  55.361  29.877
O  41.759  66.468  34.672
O  46.397  73.355  51.332
O  61.134  63.282  60.896
O  57.162  43.081  46.245
O  65.217  37.483  54.498
O  46.262  58.065  42.762
O  38.237  51.459  50.261
O  53.255  33.290  58.119
O  60.850  69.497  51.230
O  65.567  45.064  33.511
O  40.246  50.523  28.444
O  68.364  39.588  61.790
O  64.712  33.674  48.368
O  58.806  40.208  66.942
O  53.969  35.642  47.618
O  40.499  40.680  66.459
O  55.279  36.972  60.784
O  56.665  72.339  47.242
O  50.710  48.400  32.939
O  38.964  54.685  57.344
O  44.548  53.166  63.265
O  44.873  51.677  68.205
O  42.787  67.142  62.990
O  48.194  63.942  34.783
O  34.022  37.774  56.005
O  48.421  38.466  40.003
O  52.327  27.078  50.268
O  43.283  47.548  68.485
O  52.160  46.672  37.011
O  58.053  57.585  46.854
O  61.153  60.919  44.695
O  66.180  43.215  53.773
O  30.886  62.871  54.993
O  63.774  35.610  37.627
O  49.580  49.741  64.880
O  49.117  41.135  56.097
O  63.255  50.215  67.709
O  37.309  60.023  63.800
O  32.410  46.159  39.065
O  60.079  44.734  29.900
O  57.415  28.109  53.007
O  56.711  59.077  47.795
O  58.455  60.843  34.637
O  46.756  37.027  55.786
O  31.460  42.469  55.496
O  40.605  48.070  71.831
O  30.501  45.814  44.969
O  38.305  41.918  30.444
O  40.390  31.674  59.377
O  67.158  58.210  59.851
O  55.341  66.208  50.813
O  43.935  50.020  59.751
O  46.831  55.377  34.871
O  39.807  57.997  39.831
O  46.397  47.200  70.585
O  54.840  34.072  45.137
O  59.415  35.116  65.871
O  38.462  50.058  59.985
O  67.712  42.440  62.116
O  40.713  48.875  64.436
O  34.587  46.303  63.833
O  40.188  39.758  41.054
O  35.561  45.816  45.967
O  68.528  55.469  49.801
O  35.004  45.861  42.670
O  54.140  43.037  29.726
O  64.590  59.066  49.504
O  63.161  63.126  51.679
O  58.065  61.710  43.161
O  43.452  47.129  31.934
O  43.923  30.949  42.264
O  58.368  65.115  58.290
O  47.014  40.089  29.675
O  56.291  66.402  58.399
O  45.218  50.908  33.811
O  57.730  40.570  44.196
O  50.407  72.964  45.293
O  52.138  53.577  35.331
O  72.087  48.482  41.745
O  59.036  49.741  47.613
O  49.252  61.386  42.155
O  56.200  30.506  41.169
O  59.959  55.062  66.085
O  44.789  67.021  42.380
O  33.845  60.791  41.867
O  36.333  33.806  42.151
O  73.682  48.552  47.630
O  72.012  47.108  56.878
O  52.302  57.445  43.024
O  67.889  51.628  40.609
O  40.174  58.346  44.449
O  65.829  36.291  49.402
O  66.855  57.758  38.703
O  36.326  38.478  41.479
O  40.098  45.087  35.667
O  54.238  33.058  38.961
O  47.401  37.282  42.330
O  33.630  53.004  42.908
O  40.514  44.718  54.598
O  54.371  33.958  35.264
O  65.073  46.764  62.806
O  46.458  38.705  65.425
O  38.105  48.072  38.001
O  38.462  32.754  39.934
O  54.498  59.888  44.325
O  48.410  64.255  49.069
O  54.777  39.936  60.125
O  46.119  66.154  51.384
O  35.100  57.881  54.642
O  45.303  71.148  51.785
O  51.794  41.077  57.663
O  66.181  51.454  32.694
O  46.363  47.688  49.017
O  28.695  45.781  54.195
O  62.161  60.717  58.552
O  31.994  39.459  38.737
O  57.710  37.305  38.765
O  36.542  46.521  38.214
O  61.717  37.675  50.521
O  33.653  40.576  35.997
O  55.078  41.468  37.234
O  44.912  35.881  48.795
O  44.548  52.070  40.609
O  42.381  50.748  32.648
O  59.723  62.785  65.026
O  70.517  38.829  48.821
O  69.185  49.374  40.869
O  65.717  59.141  53.758
O  29.675  49.205  39.550
O  40.550  61.853  58.471
O  53.989  43.358  27.084
O  30.993  53.198  56.491
O  46.393  46.101  73.176
O  37.929  53.624  34.397
O  45.928  36.211  46.515
O  62.084  48.588  51.839
O  51.890  69.919  53.920
O  40.573  33.553  53.721
O  57.352  68.063  42.992
O  30.141  55.926  61.996
O  37.769  35.903  43.293
O  57.114  45.045  62.184
O  34.864  35.450  61.169
O  64.010  56.541  39.400
O  44.879  47.442  34.025
O  58.609  40.273  35.729
O  48.249  37.648  31.642
O  50.865  51.890  72.011
O  44.594  38.855  62.419
O  63.345  64.126  49.346
O  43.961  71.736  46.717
O  39.488  53.150  41.642
O  53.110  39.467  51.281
O  68.379  38.344  57.684
O  31.773  47.440  47.630
O  37.924  41.404  37.804
O  38.922  54.290  39.384
O  51.958  53.859  72.153
O  56.757  30.331  51.564
O  42.404  66.709  43.043
O  65.112  60.456  46.543
O  38.172  58.395  48.439
O  42.216  65.541  40.683
O  43.686  54.486  33.880
O  38.940  55.515  36.499
O  50.492  58.408  62.904
O  33.046  51.008  41.405
O  55.686  63.522  44.317
O  56.194  41.260  31.062
O  38.922  46.837  55.341
O  60.573  65.882  43.175
O  54.955  40.371  46.823
O  53.335  68.211  51.310
O  46.798  44.368  56.127
O  52.448  32.326  62.679
O  55.860  51.660  37.703
O  44.309  36.071  57.137
O  47.150  50.751  64.769
O  63.750  54.094  47.496
O  54.638  51.679  34.294
O  53.379  54.680  28.103
O  61.068  42.144  44.504
O  61.969  46.813  57.124
O  30.216  59.485  53.055
O  32.401  42.965  50.304
O  42.382  49.923  39.076
O  54.933  28.631  53.672
O  37.819  60.146  57.740
O  61.490  46.023  65.918
O  69.642  50.577  57.328
O  58.186  48.225  66.332
O  46.027  45.341  67.640
O  52.804  34.053  50.057
O  70.548  43.955  54.619
O  45.786  53.330  36.869
O  49.885  68.245  55.904
O  47.066  49.591  30.312
O  66.375  58.159  36.593
O  46.104  41.306  55.001
O  72.047  51.045  47.141
O  59.136  46.810  38.842
O  50.123  55.386  67.811
O  40.563  63.485  32.278
O  39.244  49.496  67.559
O  52.625  43.139  55.189
O  49.870  39.491  59.849
O  57.500  60.153  38.222
O  34.000  33.397  55.138
O  59.178  57.509  70.373
O  54.481  40.855  57.731
O  34.519  44.371  40.456
O  30.291  53.462  36.697
O  47.151  45.916  58.974
O  42.075  45.489  67.242
O  55.350  45.102  33.767
O  38.405  54.317  53.100
O  59.831  43.622  70.605
O  41.052  33.563  64.360
O  63.136  55.263  31.421
O  51.365  67.022  62.971
O  54.937  43.868  36.458
O  42.554  34.212  52.609
O  65.165  31.759  45.265
O  54.382  69.450  42.151
O  46.381  47.250  36.151
O  59.759  30.514  47.199
O  57.613  61.140  51.998
O  36.928  56.757  38.251
O  36.637  65.322  40.056
O  57.640  63.817  54.614
O  44.534  70.182  62.085
O  40.528  58.785  52.240
O  64.785  54.454  33.250
O  33.112  60.953  57.098
O  49.140  66.381  48.778
O  47.761  58.227  30.945
O  54.691  63.903  49.560
O  31.305  56.188  41.890
O  33.188  58.835  57.811
O  48.741  60.443  61.660
O  54.252  55.398  30.803
O  50.537  70.111  62.353
O  53.749  35.048  54.523
O  62.519  56.410  68.238
O  43.846  30.403  39.478
O  49.848  36.157  54.091
O  55.610  58.733  71.445
O  42.924  55.663  36.581
O  41.629  48.736  67.334
O  45.729  60.014  51.667
O  61.185  63.028  56.343
O  39.289  31.515  53.551
O  51.602  38.790  33.030
O  60.246  44.885  62.910
O  40.120  60.194  32.340
O  51.349  36.588  42.223
O  65.847  45.292  65.763
O  50.002  59.979  69.480
O  55.345  39.358  36.665
O  34.519  51.448  49.766
O  64.956  50.395  61.316
O  53.012  46.772  63.970
O  37.626  43.293  57.909
O  32.675  55.842  60.372
O  37.243  38.702  67.169
O  38.693  41.655  55.725
O  44.587  56.318  61.464
O  62.024  68.062  53.800
O  65.814  52.059  59.556
O  58.245  56.991  52.801
O  39.003  41.580  34.817
O  52.245  70.913  49.919
O  66.151  54.318  45.305
O  37.119  41.041  52.064
O  63.124  40.613  51.313
O  49.678  48.761  37.172
O  48.311  71.119  61.370
O  40.028  38.360  60.695
O  47.817  29.547  42.156
O  50.547  33.587  59.943
O  35.143  35.939  58.791
O  42.566  53.843  30.840
O  37.610  39.535  64.474
O  35.786  54.499  67.851
O  63.815  65.195  57.047
O  43.323  42.841  32.110
O  50.336  31.046  35.112
O  55.828  63.804  42.141
O  43.673  41.248  35.083
O  51.444  38.734  54.623
O  32.878  35.495  56.305
O  51.487  55.991  37.727
O  56.401  62.476  56.825
O  67.329  38.672  42.201
O  65.886  42.890  50.740
O  43.645  51.265  36.343
O  42.709  61.954  41.692
O  49.368  35.198  31.700
O  43.517  35.832  65.396
O  37.592  57.165  53.017
O  42.176  68.707  60.369
O  48.993  31.220  40.477
O  45.184  55.716  30.964
O  48.168  35.443  39.521
O  37.169  60.836  61.584
O  46.302  64.255  47.057
O  55.331  35.086  62.489
O  52.683  39.835  70.934
O  48.205  68.728  37.274
O  38.656  65.405  56.293
O  40.247  70.046  54.567
O  34.387  53.821  39.528
O  62.706  38.869  48.027
O  34.199  45.455  66.289
O  60.102  64.289  38.846
O  72.889  51.545  42.391
O  47.784  73.834  53.370
O  34.629  59.335  49.057
O  49.851  45.666  66.644
O  50.137  40.108  69.320
O  50.298  65.285  37.858
O  52.907  36.279  58.768
O  33.704  48.508  49.031
O  33.813  47.474  41.730
O  63.423  51.531  35.528
O  33.233  43.714  46.654
O  36.752  46.022  31.195
O  44.445  45.584  70.823
O  39.309  60.237  41.324
O  62.797  45.901  53.644
O  45.929  65.789  32.375
O  36.007  63.662  58.201
O  50.006  29.213  48.838
O  57.306  63.012  48.961
O  51.545  45.316  71.247
O  51.731  50.897  68.662
O  53.957  42.781  66.607
O  59.234  60.533  60.224
O  43.796  33.262  62.063
O  33.699  47.132  45.165
O  50.891  66.834  42.964
O  36.082  65.160  61.160
O  36.606  52.789  56.039
O  62.710  50.949  57.669
O  56.251  54.019  63.463
O  40.023  35.347  61.019
O  38.562  44.874  70.263
O  58.321  37.054  66.710
O  54.276  32.936  47.079
O  47.922  71.610  44.232
O  36.230  49.722  50.549
O  49.649  37.880  44.156
O  52.194  69.237  56.172
O  55.070  63.505  67.032
O  55.932  44.202  64.479
O  49.469  69.579  49.492
O  50.631  35.074  37.567
O  56.136  59.042  32.757
O  57.249  46.160  35.902
O  59.507  30.202  50.191
O  48.050  62.777  31.452
O  60.937  34.041  42.292
O  41.852  33.895  57.894
O  54.949  64.571  64.546
O  54.556  44.820  70.884
O  33.262  40.860  55.040
O  35.586  56.674  49.080
O  38.471  58.234  59.510
O  54.860  72.100  43.458
O  53.496  49.983  39.669
O  37.131  62.652  44.745
O  32.230  59.856  50.688
O  43.824  66.586  33.681
O  60.112  45.270  32.521
O  48.766  40.637  63.021
O  70.641  49.358  43.315
O  56.966  61.276  60.487
O  37.354  43.493  46.241
O  40.533  29.323  48.242
O  49.022  55.072  65.930
O  48.852  55.406  73.120
O  40.555  29.303  55.004
O  33.026  65.040  56.066
O  48.965  56.336  29.746
O  61.533  55.453  51.251
O  44.926  54.766  68.516
O  29.141  49.130  50.609
O  30.518  60.550  41.686
O  59.061  56.816  67.710
O  71.890  47.652  44.374
O  42.766  71.659  50.005
O  38.667  37.495  51.007
O  48.022  52.575  68.597
O  69.761  48.465  51.225
O  35.795  54.275  57.857
O  37.230  52.328  37.962
O  51.788  68.333  60.753
O  56.288  54.247  46.103
O  52.597  58.694  68.579
O  58.593  34.658  52.335
O  46.837  60.230  34.322
O  54.233  70.592  46.666
O  51.229  51.826  36.330
O  46.511  30.373  62.953
O  40.055  57.733  69.650
O  61.956  67.247  48.570
O  41.102  60.939  34.190
O  37.071  66.339  52.664
O  42.029  29.601  42.424
O  67.980  43.851  36.060
O  50.235  67.506  58.541
O  48.277  40.966  40.386
O  37.218  67.618  56.101
O  37.127  31.268  56.598
O  65.859  32.631  50.128
O  35.818  41.588  54.641
O  64.185  47.595  34.213
O  69.808  39.883  41.555
O  66.463  47.361  37.614
O  31.462  38.138  57.860
O  36.958  37.366  64.277
O  39.290  40.589  50.614
O  50.554  45.147  73.378
O  48.404  59.591  50.799
O  56.182  63.519  63.052
O  54.588  35.939  31.817
O  42.226  54.822  58.009
O  41.196  47.567  61.679
O  69.605  46.075  42.598
O  45.350  42.718  67.512
O  60.661  53.420  46.701
O  67.470  54.706  55.648
O  57.258  38.727  69.461
O  60.375  34.524  44.402
O  39.318  60.917  61.114
O  45.347  43.576  34.011
O  48.402  46.371  64.497
O  60.627  42.714  67.205
O  53.538  41.889  71.706
O  45.532  40.021  36.506
O  56.032  39.496  43.272
O  37.811  53.323  31.703
O  43.102  35.558  46.801
O  35.627  58.861  66.437
O  50.080  26.858  48.191
O  52.727  43.816  38.097
O  60.130  51.140  31.662
O  49.345  64.140  58.384
O  53.539  47.429  34.004
O  33.256  41.576  51.792
O  32.744  62.985  47.542
O  37.398  64.495  35.309
O  61.286  33.113  57.346
O  44.094  59.931  63.706
O  44.633  48.605  64.941
O  69.373  40.996  46.234
O  66.325  47.062  46.095
O  62.595  31.645  43.694
O  61.258  42.567  32.785
O  68.072  39.274  52.073
O  60.869  47.777  34.562
O  54.758  46.036  28.683
O  61.444  38.608  58.162
O  61.003  46.131  37.319
O  53.928  73.529  45.987
O  66.015  64.522  40.217
O  53.966  48.291  27.251
O  63.966  51.579  39.483
O  66.064  48.393  42.807
O  59.375  29.459  56.920
O  41.975  40.792  57.408
O  49.972  56.203  70.659
O  65.134  41.669  42.575
O  57.996  39.608  47.902
O  41.849  52.763  34.052
O  61.755  43.802  69.553
O  45.000  57.528  56.067
O  49.654  66.845  40.447
O  45.310  31.794  37.055
O  48.460  33.385  32.530
O  58.618  40.464  41.827
O  37.919  39.003  46.383
O  31.599  59.144  44.247
O  37.659  52.660  58.791
O  70.949  47.778  40.000
O  50.962  36.755  46.371
O  51.909  51.365  55.163
O  34.923  68.754  49.285
O  58.597  47.517  70.891
O  36.090  62.340  41.717
O  48.062  49.495  54.971
O  49.286  50.822  51.315
O  50.862  33.946  62.875
O  51.414  54.321  27.178
O  41.534  38.239  51.442
O  44.890  42.235  58.913
O  62.420  63.085  40.086
O  30.045  51.344  58.709
O  59.434  70.904  55.046
O  59.894  59.244  52.050
O  55.118  62.123  38.331
O  60.211  57.115  50.017
O  48.307  30.521  37.063
O  34.859  37.106  37.607
O  49.280  61.858  63.654
O  53.089  62.688  42.847
O  50.686  49.697  48.558
O  43.938  57.418  65.579
O  57.254  54.545  58.821
O  50.190  53.992  53.244
O  65.114  40.318  59.027
O  48.851  49.071  45.410
O  26.872  44.307  50.445
O  37.261  36.150  61.925
O  60.211  53.869  44.167
O  56.403  55.983  49.051
O  31.806  56.785  53.119
O  50.918  33.241  47.421
O  65.837  55.825  43.534
O  34.916  51.154  65.254
O  53.930  51.905  51.539
O  47.164  72.035  42.188
O  39.687  35.119  41.381
O  64.862  53.878  60.822
O  51.732  68.735  45.657
O  53.301  46.819  47.257
O  40.473  54.375  30.441
O  49.909  46.340  59.263
O  60.620  51.096  54.440
O  49.172  45.680  46.848
O  51.102  64.218  41.582
O  35.454  58.677  60.136
O  41.230  66.076  50.041
O  63.893  62.916  38.230
O  30.006  43.842  51.230
O  40.003  70.634  51.435
O  47.245  70.022  41.295
O  28.918  57.963  49.828
O  69.203  59.680  58.474
O  39.863  52.719  70.277
O  56.625  41.929  71.072
O  44.667  31.847  44.130
O  38.404  47.424  44.736
O  38.348  34.071  46.067
O  52.509  41.341  64.329
O  36.156  59.556  33.816
O  56.458  54.823  39.682
O  48.551  52.345  26.594
O  61.652  48.539  61.650
O  51.632  58.014  39.828
O  67.043  64.215  47.060
O  33.220  43.973  60.046
O  45.532  58.546  39.912
O  36.354  53.743  65.664
O  68.595  46.880  44.382
O  28.001  42.981  47.199
O  36.040  65.348  55.012
O  48.566  32.288  35.498
O  38.844  53.171  65.194
O  54.504  45.977  67.414
O  42.853  56.835  44.322
O  61.821  65.174  54.926
O  36.521  40.674  46.693
O  61.231  50.340  59.183
O  41.992  44.906  72.250
O  65.882  51.367  56.798
N  52.840  50.036  49.228
N  51.782  48.251  46.320
N  47.582  49.311  51.473
N  54.450  50.646  53.996
N  47.255  47.449  45.656
N  47.151  45.013  48.815
N  50.479  46.045  45.037
N  48.411  51.553  54.037
N  52.353  53.934  53.978
N  50.123  52.271  56.216
N  51.761  52.453  51.079
N  47.749  49.355  48.296
C  44.622  43.983  46.852
C  52.412  49.441  46.828
C  52.271  46.074  43.432
C  51.714  45.782  45.770
C  54.285  53.274  56.250
C  50.756  46.292  43.628
C  53.052  54.098  56.375
C  46.527  44.474  45.431
C  52.312  46.996  46.517
C  49.254  46.025  45.639
C  51.942  53.806  55.355
C  52.523  50.115  50.631
C  45.238  42.808  47.286
C  46.498  42.464  46.792
C  54.053  49.220  53.886
C  52.916  48.985  52.897
C  47.138  43.291  45.869
C  51.894  53.827  51.502
C  46.223  53.463  53.307
C  45.260  44.810  45.927
C  47.172  45.301  44.376
C  46.467  52.748  44.960
C  48.205  50.485  51.840
C  48.588  50.626  55.037
C  48.154  46.940  51.113
C  44.896  50.866  45.352
C  51.331  52.398  55.595
C  48.427  51.155  57.474
C  48.124  52.651  57.501
C  55.330  53.677  55.408
C  56.677  51.811  56.155
C  56.517  52.946  55.359
C  49.413  50.996  56.292
C  48.149  44.729  49.876
C  48.160  48.371  50.547
C  47.358  48.430  49.217
C  47.997  46.502  44.861
C  50.386  53.922  48.435
C  47.511  51.339  52.935
C  48.957  45.954  50.290
C  47.032  52.668  52.302
C  47.076  49.542  47.028
C  49.365  53.325  56.879
C  46.353  51.272  45.295
C  47.085  51.016  46.603
C  46.197  52.397  51.069
C  51.406  53.938  52.972
C  52.571  50.405  44.506
C  51.302  56.212  48.639
C  52.145  50.677  45.935
C  52.735  45.346  44.690
C  51.898  49.739  48.263
C  52.893  51.882  46.466
C  51.055  54.819  50.684
C  47.799  48.687  45.956
C  53.356  49.113  51.453
C  55.642  51.408  57.001
C  51.361  54.801  49.194
C  54.453  52.135  57.049
C  52.791  51.562  51.129
H  41.136  44.547  53.880
H  37.545  33.023  40.068
H  54.811  59.027  44.628
H  46.900  39.562  65.463
H  35.271  34.638  61.498
H  51.310  41.535  56.965
H  67.145  39.385  41.577
H  47.910  40.417  29.818
H  64.145  58.316  49.090
H  34.057  52.964  42.043
H  51.864  40.171  57.338
H  53.856  40.120  59.905
H  45.237  50.025  34.202
H  46.777  38.319  64.599
H  61.079  45.205  65.613
H  38.641  47.547  37.394
H  48.735  63.915  48.226
H  67.610  37.941  41.636
H  48.082  36.921  41.749
H  46.906  40.123  28.717
H  55.972  66.206  57.509
H  54.081  59.694  43.476
H  40.538  55.107  31.068
H  56.772  67.232  58.293
H  40.221  54.804  29.614
H  64.339  46.675  63.428
H  39.792  45.193  54.168
H  38.930  33.159  40.675
H  37.501  48.550  37.419
H  64.768  47.438  62.186
H  47.520  64.567  48.862
H  34.860  36.032  61.939
H  34.151  52.396  43.449
H  73.476  47.811  48.213
H  56.112  63.078  45.061
H  66.122  36.247  50.321
H  65.141  51.694  58.968
H  63.563  50.571  57.918
H  52.897  57.199  42.305
H  57.828  62.220  43.945
H  42.696  36.390  46.528
H  40.288  45.399  36.560
H  40.972  44.951  35.280
H  52.221  58.403  42.938
H  58.416  60.886  43.520
H  68.515  52.034  39.996
H  71.936  47.934  56.384
H  62.663  62.313  51.830
H  45.471  53.999  68.301
H  67.012  58.710  38.724
H  36.194  39.343  41.886
H  67.506  57.404  39.321
H  36.435  37.884  42.232
H  64.082  62.840  51.712
H  45.086  54.905  69.458
H  73.156  48.376  46.841
H  43.558  35.254  46.006
H  72.965  46.989  56.980
H  55.096  39.429  59.367
H  67.031  51.951  40.308
H  42.815  47.402  31.262
H  54.730  36.239  30.911
H  57.692  64.519  58.638
H  39.514  57.934  43.879
H  46.269  65.338  51.876
H  46.280  66.848  52.036
H  58.833  65.419  59.079
H  40.747  58.819  43.833
H  55.535  64.419  44.641
H  46.732  37.617  41.720
H  33.948  43.348  59.941
H  62.709  50.897  56.705
H  35.059  58.796  54.338
H  44.535  30.203  42.226
H  34.761  57.375  53.893
H  66.465  52.439  58.953
H  54.450  32.638  39.804
H  65.087  36.907  49.427
H  44.629  71.272  52.464
H  42.898  46.818  32.661
H  53.327  33.358  39.077
H  46.128  71.366  52.237
H  33.111  44.040  61.002
H  44.447  31.692  41.941
H  62.346  45.737  66.260
H  37.339  35.429  61.288
H  43.615  35.585  64.468
H  59.147  51.762  69.666
H  50.696  46.721  59.673
H  47.237  63.365  51.550
H  45.853  63.112  52.122
H  49.999  46.575  58.331
H  49.275  46.705  61.419
H  47.829  46.540  60.983
H  54.026  34.808  56.730
H  55.191  35.782  56.755
H  59.159  58.694  51.751
H  50.121  32.644  50.994
H  59.140  53.270  69.485
H  50.259  33.375  49.671
H  36.122  49.519  39.604
H  37.381  50.298  39.943
H  56.376  47.083  40.662
H  57.892  47.171  40.620
H  52.893  41.053  65.167
H  51.292  37.842  58.548
H  50.674  36.516  58.139
H  51.603  41.011  64.367
H  57.190  45.824  30.890
H  55.672  45.784  30.854
H  57.043  34.338  61.083
H  60.429  58.641  52.582
H  37.870  47.891  35.345
H  38.852  48.938  34.851
H  71.349  47.518  45.162
H  69.176  43.583  45.646
H  43.395  30.957  40.129
H  39.525  64.245  41.522
H  38.880  62.878  41.369
H  40.096  33.418  38.375
H  40.270  32.014  38.928
H  59.372  43.858  71.421
H  39.936  49.099  32.874
H  41.322  48.480  32.819
H  59.949  42.666  70.677
H  59.201  58.926  67.040
H  59.399  60.432  67.038
H  64.207  37.891  59.271
H  63.967  36.897  60.395
H  41.644  44.719  66.852
H  36.365  52.338  35.742
H  34.880  52.063  35.584
H  41.892  46.198  66.612
H  63.925  62.752  45.609
H  63.703  63.409  44.257
H  51.573  69.916  42.822
H  50.401  68.959  42.692
H  72.681  48.092  44.710
H  37.045  41.099  44.474
H  36.267  39.863  44.056
H  55.916  34.683  60.125
H  67.825  44.250  45.836
H  41.348  46.852  62.309
H  65.430  61.081  51.552
H  37.478  65.886  53.412
H  39.836  51.191  29.008
H  40.687  49.934  29.069
H  36.731  65.619  52.118
H  68.706  40.484  61.902
H  67.416  39.719  61.660
H  64.775  32.724  48.213
H  64.195  33.995  47.619
H  37.805  37.375  63.814
H  59.698  40.066  67.282
H  58.250  40.161  67.730
H  65.239  45.796  32.974
H  37.115  36.782  65.029
H  54.233  35.297  48.481
H  41.050  39.935  66.728
H  39.601  40.329  66.503
H  63.434  62.373  37.577
H  38.452  48.060  52.046
H  37.299  47.672  52.954
H  63.967  63.777  37.801
H  56.909  59.813  55.176
H  56.772  58.347  55.548
H  68.248  47.396  52.685
H  66.801  47.857  52.698
H  53.329  34.994  47.298
H  64.948  44.347  33.323
H  61.478  68.994  50.696
H  60.144  69.715  50.609
H  42.002  47.580  61.148
H  60.239  56.208  30.061
H  60.911  55.034  30.750
H  42.281  66.928  35.341
H  41.219  65.854  35.186
H  37.377  67.096  55.305
H  46.104  73.841  50.551
H  47.275  73.037  51.089
H  36.269  67.523  56.252
H  60.387  62.941  61.404
H  60.936  63.016  59.989
H  56.429  42.510  45.984
H  56.973  43.289  47.169
H  61.325  47.191  35.178
H  64.319  37.389  54.155
H  65.728  36.851  53.977
H  60.379  48.378  35.137
H  37.982  51.316  49.341
H  37.401  51.654  50.703
H  56.245  36.958  60.786
H  55.063  37.876  61.043
H  31.978  63.538  47.343
H  52.470  33.042  58.624
H  53.729  33.887  58.711
H  32.533  62.603  48.403
H  64.028  60.724  51.089
H  44.799  51.451  34.491
H  44.416  29.838  40.014
H  58.702  46.926  46.346
H  38.968  55.284  58.101
H  39.193  53.829  57.728
H  55.725  64.341  65.071
H  51.623  48.247  32.665
H  50.222  48.427  32.106
H  54.842  65.519  64.697
H  57.485  72.449  47.740
H  56.949  72.383  46.320
H  46.017  57.719  41.895
H  45.617  57.665  43.359
H  61.602  55.808  52.146
H  36.923  33.837  42.915
H  48.418  51.441  32.065
H  60.711  54.947  51.268
H  45.491  37.223  38.236
H  46.558  37.098  39.310
H  68.102  50.393  42.491
H  68.483  48.989  42.924
H  33.507  47.729  40.851
H  66.846  58.828  43.261
H  68.356  58.727  43.388
H  33.020  47.128  42.158
H  35.203  47.089  59.388
H  36.718  47.058  59.495
H  48.705  49.978  31.776
H  35.517  33.432  42.506
H  47.287  29.419  41.360
H  33.409  60.391  42.629
H  58.694  40.569  44.246
H  57.530  41.339  43.648
H  42.602  35.602  65.599
H  50.019  72.836  44.419
H  51.045  73.676  45.159
H  52.882  52.985  35.162
H  52.070  54.097  34.521
H  54.489  35.402  62.136
H  72.882  48.554  42.288
H  71.604  47.747  42.142
H  55.273  34.127  62.394
H  59.093  49.063  48.298
H  58.899  49.236  46.802
H  49.771  61.913  41.534
H  48.751  60.789  41.586
H  37.817  38.495  66.421
H  56.708  31.125  41.707
H  55.620  30.071  41.806
H  37.798  39.249  67.739
H  60.830  54.763  65.798
H  59.669  55.642  65.370
H  44.448  66.871  41.490
H  45.627  67.478  42.231
H  48.721  29.392  41.857
H  34.050  60.038  41.298
H  48.267  34.965  60.473
H  59.930  47.590  45.748
H  49.038  35.637  59.351
H  70.938  55.899  58.591
H  40.678  50.330  57.009
H  40.608  48.818  56.890
H  42.956  50.026  32.932
H  41.854  52.327  37.118
H  43.098  53.142  37.427
H  41.587  50.633  33.184
H  65.756  63.105  55.306
H  66.618  63.777  54.252
H  49.800  31.147  46.943
H  48.691  30.190  46.544
H  46.377  35.544  47.050
H  61.063  50.249  69.231
H  60.626  42.238  57.006
H  45.729  35.748  45.692
H  45.188  47.651  60.220
H  44.123  46.994  61.079
H  45.291  67.332  39.510
H  44.585  68.677  39.511
H  45.447  47.022  36.245
H  50.192  73.670  50.638
H  51.462  73.411  51.430
H  46.770  46.461  35.753
H  51.572  44.324  67.257
H  52.891  44.732  66.624
H  59.869  40.980  57.393
H  61.749  51.462  69.835
H  39.847  47.067  55.495
H  38.908  65.619  50.615
H  69.718  56.412  57.846
H  52.855  69.916  55.991
H  51.867  70.990  46.316
H  51.862  70.440  47.731
H  53.886  48.831  63.547
H  54.236  48.431  62.125
H  33.586  48.087  45.085
H  35.237  38.789  45.757
H  34.557  37.985  46.851
H  33.588  46.812  44.261
H  58.730  47.751  31.226
H  59.352  48.579  30.116
H  41.272  39.997  35.069
H  40.240  39.277  35.921
H  42.938  54.625  34.474
H  53.197  68.069  54.311
H  54.202  69.205  54.388
H  44.430  54.346  34.478
H  65.609  42.820  60.058
H  66.128  44.237  60.236
H  58.605  63.249  45.777
H  59.952  63.728  45.263
H  38.513  47.680  55.108
H  38.776  64.292  49.889
H  64.840  59.625  48.758
H  51.411  69.741  56.426
H  55.481  35.795  32.154
H  66.983  57.609  60.586
H  54.203  34.856  34.953
H  34.148  44.003  55.523
H  48.210  59.699  61.349
H  68.287  49.554  38.435
H  69.220  48.367  38.269
H  48.111  61.173  61.700
H  28.973  55.575  56.231
H  27.977  54.428  56.248
H  62.609  42.255  58.222
H  63.715  42.418  57.194
H  49.803  66.139  49.437
H  41.773  60.183  38.097
H  40.880  59.853  36.914
H  48.406  66.722  49.305
H  69.479  62.365  56.482
H  68.858  62.449  55.098
H  56.896  56.521  72.146
H  57.817  55.320  72.265
H  58.133  60.614  51.377
H  43.486  43.619  63.215
H  42.437  44.012  62.189
H  58.230  61.320  52.718
H  32.296  47.427  52.729
H  32.004  47.040  54.168
H  53.882  35.101  37.524
H  52.852  35.710  36.588
H  61.432  41.523  43.861
H  33.125  63.805  58.912
H  32.867  44.404  54.812
H  66.695  50.084  60.003
H  67.052  49.975  58.531
H  30.815  58.877  53.506
H  57.163  59.810  65.360
H  59.048  47.235  37.980
H  61.963  57.982  46.023
H  63.370  58.334  46.474
H  58.718  45.949  38.717
H  33.591  47.576  36.156
H  33.685  46.619  37.331
H  52.926  41.860  60.861
H  52.831  42.116  62.355
H  35.189  43.996  41.040
H  49.364  64.096  32.782
H  50.751  63.749  32.271
H  33.873  44.753  41.063
H  33.840  63.308  57.668
H  64.913  47.260  67.464
H  41.100  48.711  37.758
H  40.996  47.201  37.628
H  45.267  54.075  37.198
H  65.401  40.084  48.731
H  64.485  39.082  49.411
H  46.648  53.450  37.286
H  58.073  35.983  60.047
H  59.358  35.772  60.828
H  47.621  60.183  68.421
H  46.276  60.885  68.381
H  30.468  60.352  53.397
H  38.440  69.042  53.812
H  36.962  69.390  53.770
H  63.922  47.250  68.615
H  57.518  58.380  65.731
H  60.570  42.768  43.962
H  35.097  51.334  33.219
H  50.135  52.827  28.609
H  50.152  51.648  29.566
H  28.243  45.060  53.739
H  48.618  33.878  56.234
H  48.765  32.873  57.363
H  29.451  45.349  54.613
H  29.413  53.576  40.528
H  29.323  53.212  42.000
H  34.928  48.781  43.361
H  34.249  50.092  43.005
H  55.803  30.179  51.578
H  48.273  45.163  71.521
H  48.368  45.142  73.037
H  56.918  30.698  50.686
H  47.597  52.194  73.163
H  47.310  51.390  71.907
H  39.558  36.097  54.192
H  40.788  35.731  53.380
H  43.555  71.158  47.375
H  32.199  38.897  62.018
H  31.855  40.297  62.495
H  44.727  72.103  47.175
H  57.070  56.005  42.482
H  55.885  55.059  42.574
H  59.959  47.942  64.044
H  59.650  46.974  65.172
H  37.116  52.725  55.222
H  53.767  39.564  49.158
H  53.256  40.993  49.119
H  33.345  51.228  40.514
H  40.833  54.285  43.292
H  35.171  39.917  52.452
H  36.170  38.969  51.813
H  52.065  70.844  53.704
H  63.853  61.347  62.463
H  64.107  59.859  62.299
H  51.375  69.602  53.167
H  70.133  55.405  39.679
H  69.426  54.378  40.546
H  49.576  71.014  52.127
H  49.748  71.013  53.636
H  40.987  62.074  57.639
H  66.688  42.998  47.455
H  67.731  41.896  47.503
H  36.604  51.146  33.187
H  39.889  61.198  58.216
H  58.844  46.968  27.749
H  71.410  40.486  43.981
H  70.991  41.935  43.801
H  62.465  37.168  50.183
H  42.406  51.915  48.698
H  41.506  53.109  48.966
H  61.701  38.461  49.961
H  43.916  61.375  35.357
H  43.451  61.225  36.795
H  34.279  40.971  42.884
H  35.029  41.815  41.869
H  32.697  50.112  41.315
H  41.586  52.969  43.199
H  57.684  47.031  28.728
H  67.604  38.994  49.110
H  54.502  44.093  61.847
H  32.480  57.455  53.287
H  56.703  53.275  43.589
H  57.931  54.145  43.384
H  55.687  40.341  42.958
H  41.104  55.749  33.958
H  42.276  56.698  34.138
H  45.603  36.327  43.185
H  45.060  35.800  41.868
H  44.228  49.172  65.609
H  41.018  67.167  39.104
H  41.016  66.593  37.698
H  44.786  47.774  65.408
H  40.072  56.565  54.365
H  39.744  55.330  55.186
H  44.094  43.228  42.252
H  42.807  42.465  41.995
H  45.776  40.897  36.182
H  64.785  35.120  42.326
H  63.474  34.446  42.693
H  45.171  40.194  37.384
H  40.613  55.549  40.562
H  41.832  56.289  40.040
H  55.589  68.078  45.456
H  54.476  68.418  46.432
H  58.761  28.936  57.452
H  40.014  36.184  39.206
H  38.525  35.903  39.118
H  60.219  29.357  57.378
H  56.623  39.211  42.564
H  64.978  52.180  49.712
H  63.467  52.257  49.847
H  65.430  62.460  63.520
H  40.729  57.103  48.461
H  39.474  56.720  47.697
H  35.298  65.634  55.559
H  62.747  35.308  48.630
H  63.291  34.688  49.905
H  41.882  42.569  66.451
H  42.725  41.310  66.349
H  71.564  48.113  39.336
H  49.185  50.293  27.558
H  48.959  48.792  27.597
H  71.055  46.820  39.947
H  60.478  34.872  53.793
H  61.044  33.560  54.309
H  38.282  66.119  41.977
H  66.248  41.032  52.353
H  59.417  34.428  44.341
H  36.721  63.435  63.036
H  38.074  64.115  62.921
H  60.500  35.464  44.587
H  45.796  70.447  55.299
H  46.022  71.662  54.417
H  34.654  43.619  36.026
H  35.908  42.774  35.894
H  60.948  39.064  57.470
H  30.200  48.118  52.672
H  30.286  49.368  53.531
H  60.871  37.870  58.406
H  66.242  61.573  62.593
H  65.259  40.096  51.681
H  53.988  43.708  63.223
H  39.777  66.348  42.111
H  36.029  45.292  35.664
H  38.423  52.625  64.518
H  37.996  53.820  60.694
H  38.607  55.203  60.558
H  39.186  53.926  64.699
H  35.551  50.159  62.285
H  36.343  49.174  61.444
H  42.889  47.836  35.768
H  41.825  48.704  35.119
H  44.546  42.868  59.557
H  33.832  52.534  59.449
H  34.906  52.353  60.506
H  45.336  41.574  59.458
H  58.822  32.641  47.279
H  58.491  31.817  48.511
H  28.436  54.650  48.525
H  27.544  54.819  49.742
H  57.940  54.884  59.409
H  61.869  33.244  48.637
H  61.563  32.239  49.734
H  56.569  54.232  59.426
H  59.678  53.240  30.432
H  60.478  52.445  29.414
H  66.110  61.236  59.921
H  67.471  60.929  60.520
H  31.380  57.087  52.307
H  51.586  71.431  41.093
H  52.960  71.822  40.577
H  41.827  37.799  34.323
H  43.032  38.508  34.917
H  57.496  60.164  68.808
H  57.763  59.261  70.000
H  62.521  66.746  47.969
H  47.688  32.043  47.197
H  48.653  32.477  48.286
H  61.147  67.387  48.062
H  35.688  52.346  62.999
H  36.724  51.994  61.946
H  41.623  61.330  60.892
H  41.300  61.650  62.340
H  66.196  32.317  50.976
H  46.075  66.570  36.021
H  45.938  65.423  35.036
H  66.039  33.579  50.147
H  44.301  58.647  47.157
H  34.820  45.919  34.992
H  45.708  58.221  47.538
H  61.519  46.261  44.995
H  69.637  39.077  41.053
H  59.936  38.542  42.327
H  60.409  38.039  40.974
H  69.346  39.737  42.389
H  43.141  52.645  65.427
H  43.153  51.129  65.508
H  59.672  60.291  41.506
H  60.893  61.132  41.835
H  44.578  32.802  44.020
H  38.300  49.849  31.604
H  38.703  51.276  31.276
H  44.019  31.633  44.812
H  60.707  45.725  43.829
H  53.677  33.436  34.843
H  67.496  40.480  49.406
H  48.916  32.770  45.283
H  45.660  47.271  69.966
H  46.714  46.297  70.462
H  54.711  34.661  44.383
H  54.978  34.675  45.878
H  70.880  39.680  48.543
H  59.239  34.532  65.122
H  59.789  35.906  65.462
H  71.046  38.184  48.335
H  38.398  50.711  60.693
H  38.411  49.212  60.448
H  67.894  42.600  61.181
H  68.545  42.659  62.552
H  63.902  55.775  31.712
H  40.239  48.035  64.476
H  40.932  48.970  63.500
H  62.557  55.258  32.193
H  35.168  45.710  64.327
H  34.095  46.767  64.522
H  40.241  40.457  40.389
H  40.151  38.947  40.531
H  54.001  34.522  53.753
H  35.442  44.917  45.635
H  35.802  46.321  45.180
H  54.512  35.622  54.667
H  59.134  60.262  35.003
H  58.625  60.824  33.687
H  56.041  58.698  48.377
H  53.270  32.075  63.120
H  69.480  55.543  49.659
H  68.146  55.958  49.061
H  51.875  31.560  62.809
H  39.927  70.596  55.292
H  55.267  28.796  60.379
H  56.539  28.939  59.562
H  47.661  36.917  55.470
H  46.283  36.284  55.391
H  28.720  48.263  50.662
H  31.678  43.111  56.184
H  30.922  41.813  55.957
H  28.576  49.623  50.002
H  40.976  47.253  71.475
H  41.252  48.346  72.492
H  30.242  45.498  44.095
H  31.434  45.572  45.033
H  57.351  59.465  48.405
H  38.547  60.157  41.911
H  38.480  42.704  30.976
H  38.932  60.126  40.442
H  40.864  30.834  59.331
H  40.630  32.025  60.243
H  66.560  58.951  60.014
H  44.433  38.043  61.922
H  54.598  65.834  51.303
H  55.075  66.118  49.889
H  44.699  39.526  61.734
H  43.293  49.505  60.255
H  43.495  50.870  59.620
H  39.498  58.018  40.746
H  39.435  57.177  39.483
H  37.750  41.374  31.016
H  35.407  46.662  43.026
H  45.167  41.541  54.983
H  58.180  28.103  52.418
H  64.196  51.633  38.547
H  66.940  42.940  53.246
H  65.423  42.884  53.275
H  31.576  62.211  54.852
H  30.168  62.370  55.398
H  65.620  47.501  46.586
H  62.922  35.646  38.080
H  64.229  34.875  38.056
H  65.870  46.669  45.340
H  49.369  50.388  64.195
H  49.661  48.911  64.394
H  48.286  41.618  56.188
H  49.253  40.745  56.969
H  42.956  54.365  58.446
H  62.582  50.844  67.419
H  63.193  50.240  68.672
H  41.594  54.116  57.822
H  37.010  59.303  64.369
H  37.552  60.720  64.422
H  32.379  47.124  39.061
H  32.349  45.931  40.001
H  59.158  71.647  55.598
H  46.371  55.956  35.492
H  47.297  54.754  35.443
H  59.679  70.223  55.684
H  54.403  42.408  30.410
H  54.596  43.851  29.976
H  60.264  61.073  45.038
H  61.266  61.611  44.031
H  63.684  52.476  39.702
H  58.810  58.002  47.285
H  46.551  42.132  54.780
H  59.609  44.163  29.278
H  60.469  45.414  29.337
H  43.698  52.827  62.958
H  45.149  52.421  63.142
H  60.511  53.777  43.255
H  44.338  51.443  68.974
H  45.478  50.930  68.112
H  60.342  52.989  44.541
H  42.319  66.466  63.497
H  43.181  67.705  63.669
H  47.923  64.764  34.355
H  47.883  63.256  34.179
H  56.662  28.119  52.404
H  50.596  64.977  41.266
H  33.246  37.801  55.431
H  51.132  64.346  42.539
H  49.009  37.870  39.522
H  47.891  38.876  39.308
H  52.441  26.626  49.423
H  53.195  27.463  50.441
H  39.784  40.294  49.839
H  43.761  48.267  68.053
H  43.670  46.751  68.100
H  39.426  41.545  50.623
H  52.689  47.033  36.289
H  52.439  47.187  37.779
H  57.629  57.090  47.566
H  34.715  38.183  55.474
H  36.473  51.868  56.298
H  35.666  45.178  42.833
H  50.853  47.060  26.899
H  58.334  64.357  51.959
H  66.747  34.330  57.117
H  66.042  34.709  55.827
H  37.409  62.263  45.583
H  44.508  42.343  37.823
H  43.860  43.582  38.415
H  36.182  62.786  44.858
H  48.367  26.726  50.323
H  48.127  26.076  48.972
H  56.668  55.898  68.130
H  56.077  54.916  67.134
H  60.142  33.707  41.859
H  49.716  59.273  29.853
H  49.310  60.397  28.916
H  60.865  34.999  42.195
H  43.345  54.245  61.314
H  43.940  52.958  60.770
H  72.564  49.240  50.654
H  72.364  47.735  50.649
H  38.328  39.613  63.833
H  43.340  38.931  37.365
H  41.984  39.611  37.432
H  36.813  39.573  63.930
H  48.537  39.637  53.714
H  48.022  41.050  53.510
H  68.337  50.065  51.863
H  69.579  50.835  52.278
H  58.359  64.843  50.520
H  58.477  56.474  67.021
H  62.260  33.396  60.774
H  62.508  34.539  59.807
H  50.165  32.789  44.418
H  40.339  67.641  53.106
H  39.921  66.505  54.024
H  49.775  36.926  44.079
H  30.728  50.788  37.045
H  31.814  51.749  37.494
H  49.693  38.040  45.107
H  61.727  38.149  36.827
H  62.854  37.233  36.382
H  63.661  46.504  46.675
H  62.737  47.650  47.048
H  63.353  46.185  54.379
H  50.421  73.702  54.780
H  62.216  40.452  51.029
H  50.606  73.036  53.427
H  55.898  38.129  66.603
H  57.145  38.882  66.172
H  49.176  52.538  70.520
H  50.204  53.623  70.787
H  49.961  70.060  48.815
H  42.483  59.570  45.594
H  43.819  60.281  45.727
H  49.386  68.690  49.127
H  52.828  65.426  36.193
H  53.934  66.439  36.432
H  51.864  44.889  26.430
H  52.300  45.504  27.748
H  58.463  57.285  68.305
H  62.493  46.730  53.252
H  40.600  69.264  55.011
H  52.207  37.164  38.784
H  63.066  41.442  51.805
H  54.872  27.955  58.175
H  53.738  28.959  58.065
H  36.376  68.383  51.885
H  35.226  67.416  52.108
H  51.536  38.371  53.733
H  49.777  31.156  55.855
H  51.235  30.761  56.014
H  50.497  38.899  54.707
H  53.158  44.050  59.685
H  52.160  45.130  60.065
H  52.186  29.741  61.554
H  52.424  28.986  60.258
H  41.354  68.705  59.862
H  58.183  35.584  33.438
H  58.570  36.933  34.019
H  41.995  69.316  61.096
H  53.266  35.463  39.714
H  53.968  36.696  40.254
H  56.172  46.541  54.025
H  55.718  45.484  55.017
H  66.621  44.808  66.077
H  60.699  47.633  68.162
H  61.676  47.982  67.052
H  66.137  45.668  64.923
H  43.651  62.721  45.189
H  45.136  63.039  45.186
H  49.374  46.723  26.962
H  48.597  30.508  39.959
H  42.847  35.777  50.428
H  42.552  35.083  49.110
H  48.249  31.586  40.970
H  32.353  49.702  59.462
H  32.509  48.214  59.722
H  40.629  54.992  45.415
H  40.153  56.419  45.626
H  33.328  55.144  60.237
H  47.170  44.322  35.519
H  47.442  42.976  36.168
H  32.253  55.931  59.508
H  46.096  65.418  41.302
H  47.520  64.959  41.558
H  35.727  55.045  51.616
H  34.484  54.357  52.155
H  61.094  44.607  63.279
H  53.567  37.631  38.295
H  32.711  61.123  61.444
H  59.992  45.637  63.460
H  52.729  51.486  66.688
H  52.157  51.976  65.369
H  52.820  34.072  60.717
H  53.468  32.700  60.761
H  35.002  53.905  40.268
H  44.268  43.519  71.858
H  45.437  42.633  71.464
H  33.649  53.322  39.899
H  41.070  31.262  62.436
H  42.459  30.651  62.378
H  50.714  65.785  45.735
H  49.339  66.377  45.990
H  32.965  59.756  60.831
H  49.464  60.922  63.802
H  37.768  60.415  58.665
H  43.349  68.360  51.616
H  55.747  48.494  47.815
H  53.804  50.032  48.986
H  36.108  62.821  50.512
H  37.391  63.126  51.266
H  49.412  46.442  49.385
H  46.776  43.269  59.680
H  47.915  43.485  58.699
H  46.605  50.784  53.329
H  45.476  46.893  31.192
H  45.341  45.481  30.650
H  53.259  48.104  50.963
H  63.779  51.048  30.146
H  62.365  50.493  30.146
H  57.093  48.154  48.430
H  48.927  52.406  54.021
H  40.770  48.560  50.600
H  54.439  49.401  51.389
H  54.460  49.317  58.949
H  55.503  48.437  58.282
H  52.051  49.664  53.130
H  47.253  36.497  67.701
H  46.518  35.365  67.004
H  52.561  47.933  53.083
H  40.077  46.397  52.107
H  40.913  47.040  53.200
H  45.964  53.365  45.744
H  42.819  33.346  34.155
H  43.550  32.564  35.233
H  39.384  49.133  50.360
H  48.342  47.059  43.932
H  53.991  51.680  46.508
H  48.599  49.324  70.834
H  53.777  45.608  44.989
H  52.811  63.163  38.297
H  51.951  63.982  39.244
H  50.467  47.345  43.355
H  36.012  54.593  32.766
H  37.051  55.369  31.977
H  50.166  45.575  42.994
H  57.227  58.997  60.119
H  56.150  59.579  59.220
H  46.490  45.733  49.144
H  57.054  48.971  71.540
H  57.328  49.115  73.027
H  53.728  48.878  54.911
H  49.656  50.414  70.837
H  35.494  39.415  61.904
H  51.038  50.892  45.952
H  43.178  39.428  32.564
H  44.359  40.347  32.826
H  52.442  51.330  43.891
H  62.404  64.672  43.007
H  61.506  63.461  42.821
H  51.955  49.598  44.042
H  58.696  46.723  44.124
H  58.165  47.263  42.808
H  53.645  50.102  44.466
H  53.795  66.182  55.271
H  54.546  67.237  56.064
H  52.726  52.754  45.787
H  35.067  38.114  61.246
H  61.753  33.581  51.467
H  61.609  35.046  51.842
H  46.477  47.113  46.174
H  70.442  51.455  50.188
H  70.775  52.936  50.234
H  48.594  46.979  52.149
H  61.624  40.044  35.726
H  61.737  41.539  35.966
H  52.788  47.064  43.347
H  59.867  44.670  40.552
H  61.161  44.384  39.811
H  47.860  44.657  43.762
H  38.687  34.146  36.853
H  38.575  35.660  36.845
H  54.748  50.997  53.073
H  60.047  51.994  50.061
H  51.419  49.877  50.770
H  60.949  51.200  49.132
H  41.972  43.015  35.097
H  41.061  42.573  36.228
H  48.851  43.939  49.480
H  47.630  32.581  63.660
H  48.982  31.892  63.733
H  48.577  49.893  48.452
H  63.450  50.450  43.434
H  64.550  49.590  44.032
H  46.003  49.200  47.141
H  65.811  62.206  43.729
H  66.302  62.352  45.158
H  46.609  51.625  47.418
H  42.851  64.539  32.881
H  55.778  50.537  57.663
H  58.175  36.638  50.337
H  57.178  35.516  50.565
H  49.235  48.678  50.337
H  50.700  65.040  56.893
H  52.099  64.494  57.123
H  45.981  52.960  43.978
H  37.705  38.773  53.375
H  37.285  37.365  52.990
H  45.319  51.753  51.316
H  42.001  62.276  64.920
H  43.484  62.032  64.704
H  47.941  53.268  52.003
H  46.791  30.829  43.703
H  47.086  32.313  43.829
H  45.886  54.423  52.845
H  55.853  47.845  63.530
H  55.636  46.343  63.570
H  46.828  53.709  54.212
H  68.249  53.510  37.213
H  69.235  53.667  36.069
H  45.319  52.890  53.627
H  39.598  52.457  36.217
H  38.516  51.391  36.211
H  45.816  53.364  50.657
H  33.181  60.105  36.200
H  34.495  59.423  36.536
H  46.803  51.894  50.278
H  58.662  51.436  36.468
H  58.556  50.233  35.548
H  46.759  49.024  51.951
H  50.416  46.450  34.524
H  50.507  45.766  35.877
H  39.143  42.936  60.726
H  40.373  43.449  61.455
H  52.479  45.488  42.506
H  61.073  52.109  65.508
H  66.632  55.113  45.565
H  61.261  47.340  59.734
H  60.597  46.134  59.093
H  47.689  63.664  60.296
H  48.941  63.816  61.142
H  39.451  60.881  32.454
H  60.847  54.204  40.133
H  61.983  54.523  39.177
H  39.846  59.502  32.955
H  60.648  61.632  34.001
H  60.925  62.847  33.133
H  50.065  33.610  41.945
H  49.461  34.951  42.326
H  49.762  42.321  58.440
H  49.054  35.690  39.816
H  59.317  51.490  40.123
H  48.041  34.561  39.892
H  66.235  45.374  57.065
H  66.982  44.982  58.328
H  69.610  54.050  52.030
H  69.595  53.273  53.335
H  70.642  44.406  55.467
H  60.078  59.784  37.704
H  60.040  61.216  37.199
H  69.713  44.292  54.272
H  72.315  53.947  41.615
H  71.386  52.998  40.878
H  46.636  60.267  65.709
H  60.760  51.367  40.581
H  50.358  41.960  59.790
H  65.228  54.601  45.296
H  60.892  57.797  61.275
H  33.309  38.997  53.582
H  50.132  66.737  43.552
H  28.861  61.710  48.918
H  28.376  60.456  49.624
H  67.983  60.838  45.628
H  67.685  61.789  46.774
H  46.348  66.570  32.759
H  43.103  65.167  50.976
H  44.046  66.305  50.629
H  46.309  65.056  32.876
H  30.229  60.796  51.087
H  31.195  61.926  50.771
H  62.123  60.576  37.505
H  63.175  59.485  37.399
H  48.420  54.696  65.276
H  46.842  54.525  71.471
H  46.561  53.538  70.351
H  49.781  55.358  65.406
H  37.439  62.864  66.183
H  36.823  61.558  66.653
H  56.610  31.946  47.378
H  56.288  32.689  46.093
H  42.746  33.608  57.669
H  54.047  58.797  50.522
H  55.538  59.039  50.674
H  41.370  33.067  58.016
H  70.669  54.892  61.373
H  69.879  53.658  60.972
H  60.119  57.942  59.976
H  48.131  60.368  65.462
H  43.638  64.314  31.601
H  43.834  51.077  37.270
H  38.340  59.501  54.672
H  60.016  47.190  41.611
H  60.601  48.393  40.893
H  47.091  46.597  51.226
H  46.444  40.236  68.306
H  46.321  38.872  67.650
H  46.373  45.688  43.682
H  47.410  41.384  50.951
H  48.445  40.614  50.150
H  44.740  45.706  45.551
H  42.486  70.312  55.440
H  43.729  69.467  55.662
H  43.611  44.238  47.210
H  39.738  55.930  65.427
H  52.533  52.166  47.484
H  38.247  56.092  65.665
H  48.791  58.194  43.250
H  47.938  59.446  43.142
H  46.970  41.517  47.098
H  27.198  49.160  46.149
H  26.203  48.012  46.140
H  48.118  42.997  45.462
H  29.854  53.476  50.599
H  29.621  52.841  49.239
H  51.541  44.983  46.545
H  44.686  36.588  34.146
H  45.039  35.127  34.364
H  52.675  44.237  44.551
H  60.289  52.164  64.208
H  44.715  42.134  47.983
H  53.443  35.975  52.125
H  52.380  37.058  52.171
H  53.652  51.827  57.739
H  43.515  50.391  35.954
H  60.051  58.350  43.014
H  59.999  58.481  44.526
H  44.279  45.220  57.923
H  43.057  44.327  57.798
H  71.981  51.782  42.613
H  32.052  37.851  42.597
H  30.906  36.932  42.981
H  73.160  50.968  43.116
H  51.111  43.380  69.197
H  52.499  43.177  69.779
H  48.777  66.219  51.691
H  48.447  67.685  51.470
H  37.986  65.721  56.912
H  46.488  27.134  45.595
H  47.356  28.355  45.343
H  39.208  66.181  56.136
H  56.130  43.189  39.416
H  57.403  43.486  38.644
H  44.508  60.103  38.365
H  45.598  60.102  37.308
H  61.163  68.398  53.522
H  52.150  49.695  73.416
H  53.311  50.672  73.465
H  62.358  68.749  54.390
H  47.474  72.476  47.274
H  48.888  72.871  46.884
H  53.718  38.568  57.881
H  54.637  37.927  56.856
H  39.420  58.549  55.156
H  34.394  37.993  53.233
H  48.150  51.357  46.487
H  66.468  35.805  60.537
H  43.913  59.947  30.102
H  40.398  60.609  48.774
H  39.510  61.805  49.072
H  64.435  58.299  59.762
H  63.011  57.829  60.007
H  32.487  37.986  48.777
H  32.427  38.320  47.296
H  51.665  50.169  37.738
H  51.870  49.041  36.742
H  48.077  40.100  33.743
H  46.678  40.685  33.655
H  45.568  39.349  46.863
H  44.859  38.034  47.136
H  45.002  60.186  29.072
H  70.188  55.143  54.577
H  42.865  35.246  41.067
H  42.711  36.723  40.749
H  68.679  64.706  54.414
H  67.717  65.872  54.271
H  60.557  60.284  55.289
H  60.690  58.786  55.076
H  34.316  43.331  63.249
H  35.439  42.313  63.346
H  30.745  56.770  48.803
H  31.229  57.337  50.126
H  50.625  67.530  47.617
H  51.981  66.848  47.561
H  34.055  40.310  48.744
H  71.414  55.518  53.765
H  35.183  39.293  48.711
H  57.256  49.125  41.427
H  47.371  52.203  29.420
H  34.831  50.219  59.980
H  40.492  52.344  55.828
H  39.235  53.173  55.626
H  36.270  60.248  50.635
H  36.849  58.849  50.761
H  41.978  56.037  60.302
H  40.805  56.280  59.369
H  45.450  44.509  54.186
H  46.438  45.523  53.637
H  39.797  49.033  47.436
H  38.657  48.163  47.936
H  39.128  62.067  35.312
H  39.717  63.463  35.218
H  58.728  49.478  41.306
H  41.596  64.494  46.610
H  35.615  31.049  45.633
H  35.187  31.731  44.346
H  54.068  42.073  44.000
H  53.585  40.732  43.476
H  45.235  52.189  66.076
H  46.525  52.938  66.362
H  48.130  58.145  39.127
H  49.561  57.643  39.207
H  58.314  36.415  54.994
H  59.398  35.863  55.903
H  57.000  40.821  58.920
H  57.598  42.215  58.856
H  46.227  51.376  28.861
H  41.602  65.091  45.213
H  67.194  44.244  49.575
H  66.301  45.405  49.172
H  63.378  41.698  37.591
H  61.862  40.483  41.968
H  62.361  41.895  41.717
H  48.415  39.981  36.331
H  49.602  40.929  36.324
H  70.498  40.032  53.243
H  70.202  38.719  53.948
H  67.923  60.327  40.996
H  66.873  60.802  40.007
H  62.704  40.952  54.990
H  62.560  39.581  55.627
H  55.919  34.975  52.711
H  56.470  36.380  52.882
H  56.198  61.110  67.136
H  59.273  55.359  47.775
H  57.479  61.925  67.100
H  48.881  51.308  39.282
H  56.651  66.515  47.266
H  57.449  67.796  47.100
H  49.291  30.171  52.629
H  48.266  31.183  52.149
H  43.315  53.107  67.572
H  42.843  54.422  66.978
H  68.043  45.539  37.474
H  66.625  45.005  37.568
H  53.801  61.333  57.342
H  54.243  62.392  56.347
H  42.861  36.310  53.831
H  43.356  36.646  55.227
H  48.493  49.898  39.690
H  59.064  54.895  46.344
H  48.712  53.945  37.965
H  48.746  55.149  38.890
H  63.446  43.136  38.074
H  42.907  72.239  54.348
H  44.245  72.947  54.225
H  43.026  46.874  38.379
H  42.284  45.562  38.193
H  60.790  39.700  44.895
H  59.682  38.708  45.199
H  37.440  47.890  32.437
H  36.394  47.022  33.114
H  54.132  41.369  34.143
H  55.099  42.349  33.502
H  69.720  39.029  44.923
H  70.235  37.645  45.278
H  35.671  47.247  47.676
H  37.065  46.783  47.291
H  55.378  40.959  49.725
H  56.509  41.959  49.884
H  58.321  59.411  45.598
H  56.934  59.444  44.981
H  38.072  34.162  55.366
H  36.987  33.101  55.440
H  49.918  38.561  62.973
H  51.178  39.024  62.262
H  69.939  50.202  54.389
H  70.977  51.259  54.055
H  60.432  43.158  55.028
H  61.826  43.674  54.718
H  46.527  30.205  48.376
H  46.932  29.150  47.361
H  34.487  49.517  58.679
H  34.701  39.987  65.776
H  35.570  41.067  65.155
H  42.151  63.273  38.266
H  49.998  53.803  57.675
H  56.489  61.521  46.579
H  55.415  60.450  46.663
H  50.294  56.660  48.817
H  33.307  44.280  38.245
H  31.907  43.841  37.851
H  52.605  53.958  57.397
H  41.918  55.559  55.531
H  43.025  55.977  54.578
H  47.593  44.314  50.765
H  30.252  53.395  53.650
H  30.111  51.885  53.733
H  47.936  53.024  58.534
H  40.593  50.960  60.364
H  32.769  59.805  53.913
H  53.529  49.255  46.860
H  41.077  51.712  30.920
H  41.929  51.984  29.692
H  49.811  45.563  50.910
H  55.281  31.167  48.948
H  54.366  30.464  49.936
H  50.641  53.926  47.347
H  56.754  68.213  39.391
H  56.810  69.725  39.518
H  49.343  54.303  48.555
H  49.620  58.592  65.035
H  48.964  58.080  66.306
H  47.620  45.375  47.967
H  33.922  60.737  53.583
H  40.779  50.220  61.677
H  52.070  56.860  49.126
H  64.815  56.650  52.737
H  46.863  50.678  44.484
H  52.107  37.030  60.771
H  53.045  38.077  60.196
H  44.793  49.761  45.467
H  40.662  68.063  48.230
H  41.199  69.294  48.939
H  44.382  51.166  44.406
H  51.512  35.739  31.564
H  50.783  36.720  32.467
H  44.378  51.365  46.206
H  40.819  46.664  33.919
H  39.533  46.874  33.139
H  47.539  53.054  44.901
H  68.184  64.943  44.426
H  66.852  64.286  44.112
H  52.402  54.402  49.034
H  68.750  40.920  55.084
H  68.400  42.369  54.789
H  54.965  48.635  53.574
H  34.154  35.982  47.724
H  35.404  35.123  47.645
H  47.220  52.871  56.877
H  47.203  51.219  42.369
H  47.588  52.274  41.346
H  50.418  52.866  48.792
H  55.787  37.344  50.644
H  54.275  37.278  50.520
H  53.331  55.185  56.280
H  66.018  56.732  51.814
H  61.477  53.783  49.235
H  65.398  34.751  60.316
H  61.054  55.236  49.107
H  59.688  40.824  63.871
H  47.535  43.078  33.748
H  49.964  54.621  50.859
H  29.206  62.078  52.594
H  30.017  63.299  52.992
H  55.236  54.601  54.815
H  49.763  63.109  38.690
H  50.266  61.821  39.317
H  52.985  54.119  51.425
H  58.893  67.636  40.453
H  58.933  68.391  39.136
H  46.634  44.163  48.564
H  61.377  52.217  35.958
H  60.945  50.761  35.972
H  46.775  42.978  32.437
H  55.216  50.759  54.669
H  61.697  32.877  37.546
H  57.346  53.289  54.718
H  39.099  50.125  52.447
H  40.462  50.372  51.824
H  49.463  43.696  32.266
H  49.871  45.006  32.917
H  63.857  56.262  45.921
H  65.251  56.822  45.698
H  45.866  60.608  59.066
H  46.499  61.674  59.944
H  52.657  61.410  52.681
H  52.988  62.664  51.891
H  41.253  62.468  37.343
H  61.133  34.260  37.826
H  50.906  48.382  45.863
H  56.929  47.978  56.571
H  55.692  47.096  56.563
H  60.061  40.598  62.417
H  48.931  50.837  58.421
H  46.472  52.221  31.427
H  45.810  50.868  31.628
H  47.517  50.526  57.331
H  49.120  72.218  57.237
H  48.499  72.082  58.617
H  49.060  54.111  56.133
H  47.851  33.327  66.480
H  46.816  33.820  65.484
H  51.494  56.201  47.539
H  38.493  50.537  56.305
H  38.600  50.117  54.850
H  50.145  50.156  56.452
H  39.128  56.419  42.315
H  38.167  55.355  41.814
H  50.852  52.155  50.786
H  61.145  52.231  51.953
H  62.630  51.926  52.042
H  53.315  53.824  53.762
H  69.602  62.390  43.510
H  68.480  61.367  43.524
H  57.630  51.259  56.147
H  46.869  50.006  26.768
H  47.484  48.872  25.967
H  51.278  55.837  51.105
H  54.484  31.132  59.134
H  55.233  32.430  59.382
H  53.648  51.217  54.314
H  51.127  54.581  55.525
H  44.729  68.893  51.270
H  51.641  66.899  43.568
H  28.473  57.520  55.221
H  60.376  54.349  37.468
H  60.055  53.159  38.355
H  62.937  60.274  58.917
H  45.895  27.000  49.393
H  46.949  28.091  49.315
H  61.439  60.105  58.738
H  43.582  41.262  62.187
H  45.046  41.664  62.130
H  30.827  56.917  39.173
H  29.408  56.375  39.129
H  54.203  67.970  51.655
H  66.879  47.590  33.643
H  66.851  48.904  32.882
H  43.676  41.892  52.731
H  53.346  67.876  50.405
H  62.265  70.497  46.186
H  58.814  34.820  49.232
H  59.711  33.827  49.951
H  64.421  60.185  45.926
H  35.523  48.994  45.603
H  36.824  49.534  46.171
H  65.916  60.071  46.171
H  48.317  27.918  56.717
H  48.819  29.184  56.046
H  54.927  57.015  32.801
H  54.101  58.193  32.314
H  63.956  64.806  49.657
H  38.133  31.717  42.133
H  60.778  70.258  45.986
H  36.660  31.564  41.795
H  44.631  40.718  52.606
H  36.968  58.772  40.548
H  69.072  36.187  49.427
H  67.874  35.703  48.630
H  33.685  60.871  56.326
H  41.834  64.192  57.838
H  40.986  64.907  56.800
H  32.548  61.708  56.886
H  65.179  37.615  40.654
H  64.983  39.097  40.919
H  55.246  59.639  63.111
H  56.477  60.506  63.311
H  55.601  43.689  37.135
H  44.303  59.846  67.365
H  44.098  61.348  67.260
H  66.076  59.981  53.445
H  55.359  44.526  35.892
H  40.719  62.455  51.171
H  44.727  72.047  43.119
H  44.986  70.606  42.717
H  57.461  67.995  43.948
H  42.263  32.318  47.455
H  43.268  33.296  48.038
H  57.109  68.987  42.854
H  59.423  71.991  46.773
H  58.651  70.714  47.051
H  47.041  43.608  27.805
H  47.149  42.753  29.055
H  66.501  58.602  53.918
H  36.261  60.062  40.924
H  41.007  63.946  51.172
H  63.786  63.299  49.574
H  35.209  66.957  47.951
H  36.458  66.975  47.086
H  56.298  38.190  64.217
H  37.537  58.359  59.301
H  43.301  38.572  52.710
H  44.572  37.961  52.145
H  38.776  57.618  58.832
H  41.930  68.832  40.848
H  42.175  70.026  39.941
H  62.755  46.337  49.509
H  62.398  46.466  50.979
H  49.539  39.521  69.799
H  51.155  40.265  42.766
H  49.679  39.955  42.946
H  49.657  40.311  68.507
H  56.604  37.838  62.771
H  68.815  40.490  59.341
H  45.826  62.868  64.981
H  44.801  63.764  64.307
H  50.085  48.148  37.796
H  52.987  48.755  71.405
H  53.905  48.595  72.605
H  49.556  49.567  37.688
H  34.958  51.745  39.053
H  34.005  52.280  37.999
H  64.191  52.419  62.743
H  64.936  52.011  64.002
H  37.806  42.431  58.305
H  46.970  69.510  51.404
H  46.667  70.386  50.201
H  67.678  41.495  59.291
H  32.582  57.907  41.392
H  31.396  58.523  40.671
H  49.017  57.236  29.401
H  67.635  39.665  39.440
H  68.674  40.728  39.126
H  38.842  44.019  70.613
H  55.057  73.358  48.972
H  56.159  72.883  49.903
H  38.866  45.504  70.929
H  62.516  33.329  45.891
H  62.938  32.304  46.929
H  33.828  62.811  54.691
H  34.901  62.769  55.765
H  57.384  62.100  48.655
H  40.861  57.054  36.313
H  40.133  58.148  35.551
H  56.773  63.438  48.279
H  39.410  54.407  48.630
H  39.647  54.069  47.169
H  51.148  38.869  65.117
H  51.048  37.495  65.755
H  40.134  35.614  60.098
H  51.940  30.198  37.128
H  50.859  30.736  38.048
H  39.450  34.573  60.966
H  31.939  41.718  43.941
H  30.807  42.466  44.622
H  48.615  54.466  42.284
H  47.110  54.266  42.240
H  49.307  55.793  29.025
H  48.490  38.276  66.208
H  48.769  37.406  64.994
H  62.778  50.899  61.962
H  62.216  50.626  63.346
H  33.635  58.065  58.184
H  56.213  57.423  45.609
H  63.520  47.884  44.957
H  64.387  47.383  43.816
H  56.872  53.670  28.239
H  58.067  52.864  27.760
H  53.953  41.146  72.162
H  42.097  60.451  66.877
H  42.189  59.450  68.015
H  54.201  42.588  71.756
H  67.250  53.042  52.207
H  67.415  54.133  51.164
H  38.724  32.099  47.016
H  38.496  30.599  46.948
H  60.432  45.363  37.448
H  60.581  49.759  58.770
H  64.812  32.725  42.133
H  61.538  46.156  38.122
H  52.376  60.552  42.028
H  51.592  60.676  40.733
H  54.745  32.227  52.314
H  53.412  31.895  51.666
H  36.985  52.570  38.864
H  53.129  32.177  44.686
H  54.339  31.522  45.329
H  37.408  53.177  37.538
H  54.423  61.403  68.969
H  54.873  60.024  68.519
H  65.137  53.254  51.626
H  63.973  53.951  52.309
H  65.078  33.448  40.825
H  42.263  35.091  60.162
H  43.678  35.611  59.976
H  61.729  49.751  59.763
H  48.336  61.939  63.837
H  50.997  61.173  47.994
H  52.396  61.596  48.405
H  47.663  29.147  59.185
H  49.009  28.675  58.663
H  61.834  48.396  62.587
H  53.419  72.512  50.873
H  53.417  71.791  52.209
H  60.696  48.427  61.582
H  58.760  40.594  55.401
H  57.263  40.342  55.442
H  36.672  49.299  58.795
H  37.192  50.532  58.077
H  52.398  68.309  60.005
H  52.713  52.562  70.523
H  53.755  51.458  70.526
H  52.155  69.020  61.325
H  65.686  43.942  63.605
H  66.928  44.673  63.127
H  33.792  44.372  48.716
H  34.954  44.672  47.785
H  49.191  55.635  70.678
H  46.516  65.208  43.775
H  45.004  65.074  43.731
H  50.407  56.022  71.501
H  39.590  61.054  65.790
H  39.785  62.266  66.685
H  59.618  69.888  44.128
H  59.921  68.577  44.832
H  51.070  45.842  73.806
H  37.723  43.909  58.646
H  62.968  44.962  42.239
H  51.189  44.428  73.265
H  38.248  36.929  58.213
H  36.950  63.423  47.446
H  37.403  64.830  47.097
H  40.228  63.116  33.105
H  50.993  64.317  48.430
H  51.356  64.447  49.899
H  40.714  62.708  31.726
H  47.641  49.035  63.483
H  46.672  47.871  63.596
H  73.687  50.496  54.881
H  72.516  50.951  55.734
H  72.692  50.781  46.473
H  57.886  44.680  44.246
H  37.631  38.231  58.692
H  58.450  43.329  43.841
H  40.178  61.993  46.984
H  39.541  63.306  46.562
H  60.289  51.915  61.546
H  59.607  51.195  60.395
H  38.511  59.472  57.735
H  70.923  47.299  59.313
H  71.854  46.104  59.210
H  62.983  60.217  47.650
H  62.704  60.131  49.140
H  66.893  46.910  39.725
H  67.929  45.908  40.200
H  32.652  59.166  58.542
H  54.738  57.106  45.787
H  72.223  50.447  47.879
H  50.270  33.603  46.804
H  46.414  38.901  49.629
H  45.169  39.216  50.440
H  58.538  59.082  63.022
H  58.572  57.763  62.269
H  39.163  58.806  63.839
H  40.552  58.411  63.369
H  39.827  52.806  71.238
H  45.493  67.109  45.449
H  44.275  67.536  44.649
H  40.563  53.332  70.018
H  57.306  54.810  70.187
H  56.565  53.889  71.141
H  55.641  39.125  31.653
H  54.565  38.498  30.784
H  47.465  30.386  36.610
H  47.384  54.440  32.544
H  48.290  53.689  31.584
H  48.233  29.972  37.853
H  63.915  64.969  52.610
H  63.799  66.388  53.140
H  61.786  29.339  46.447
H  61.910  30.389  45.356
H  51.262  35.893  46.684
H  69.221  41.604  52.222
H  68.939  43.096  52.241
H  51.744  37.315  46.457
H  57.598  48.865  58.762
H  57.125  50.117  59.480
H  70.551  42.052  55.724
H  70.585  42.692  57.101
H  51.589  32.852  46.848
H  61.771  45.826  41.884
H  29.618  58.512  55.330
H  41.817  46.073  69.354
H  49.141  47.116  70.606
H  65.453  67.652  44.172
H  65.800  66.229  43.769
H  62.064  43.081  68.990
H  69.567  36.398  54.081
H  68.174  35.792  54.082
H  48.273  47.221  30.182
H  47.596  47.609  28.879
H  55.851  53.388  46.049
H  28.856  45.205  49.081
H  30.086  46.095  49.065
H  55.670  54.846  45.665
H  49.124  42.169  27.819
H  49.499  40.794  28.342
H  61.401  44.446  68.926
H  47.136  47.178  66.177
H  51.990  57.164  40.112
H  54.389  68.838  39.399
H  53.166  68.439  40.206
H  51.865  58.060  38.892
H  47.486  44.090  66.570
H  48.811  43.815  67.261
H  40.433  36.884  47.353
H  39.152  37.175  46.591
H  60.045  57.221  49.073
H  42.595  54.173  70.090
H  43.074  53.366  71.285
H  61.121  57.420  50.126
H  43.818  37.610  43.068
H  46.392  48.226  66.985
H  43.146  36.248  43.042
H  63.313  56.813  33.565
H  65.979  57.661  47.736
H  54.035  42.939  52.423
H  53.299  41.610  52.417
H  66.199  52.274  56.708
H  74.103  52.047  50.142
H  72.626  51.701  50.072
H  43.013  58.999  50.939
H  43.342  60.443  50.602
H  28.097  58.299  50.210
H  55.222  67.046  34.719
H  56.069  67.611  35.846
H  28.674  57.738  48.922
H  36.231  47.977  41.453
H  36.704  46.548  41.255
H  64.145  56.494  34.795
H  46.256  53.083  34.432
H  50.932  52.366  37.073
H  44.410  30.800  48.252
H  43.649  29.504  48.469
H  50.450  51.306  36.098
H  50.262  72.690  48.669
H  48.818  72.910  49.084
H  60.914  35.723  46.736
H  60.248  34.410  47.109
H  34.947  58.382  66.928
H  56.434  71.499  53.185
H  57.342  72.553  52.576
H  35.517  59.775  66.727
H  67.489  57.622  47.577
H  47.191  52.068  33.797
H  31.863  63.971  50.313
H  30.358  63.860  50.137
H  51.663  67.775  45.581
H  69.835  58.150  48.350
H  62.505  46.337  57.772
H  66.338  65.642  56.866
H  65.424  66.571  57.646
H  58.221  51.603  43.254
H  59.389  51.324  42.324
H  44.325  48.104  33.591
H  70.488  59.975  46.639
H  69.304  59.093  46.285
H  44.820  46.676  33.441
H  36.668  45.393  48.964
H  37.644  44.554  48.158
H  51.265  57.996  32.148
H  69.260  59.308  49.147
H  51.596  58.561  30.777
H  54.421  70.146  37.618
H  55.411  69.008  37.444
H  47.684  37.030  31.162
H  60.024  43.062  59.178
H  59.272  44.346  58.877
H  57.549  34.967  40.617
H  58.044  33.637  41.159
H  38.920  56.274  37.095
H  58.291  41.824  52.770
H  59.116  43.003  53.253
H  38.889  54.756  37.093
H  44.058  27.801  46.827
H  43.207  26.899  47.704
H  49.094  37.593  31.178
H  62.503  46.785  56.321
H  62.655  35.407  44.991
H  63.686  35.620  46.086
H  40.711  48.875  54.396
H  41.025  50.361  54.391
H  51.114  69.063  44.993
H  54.920  64.584  56.280
H  54.632  64.475  57.767
H  63.901  50.969  33.255
H  64.007  49.828  34.252
H  55.519  44.473  33.054
H  69.868  44.127  43.628
H  70.772  44.752  44.677
H  55.075  45.904  33.305
H  42.306  30.576  37.847
H  42.448  32.026  38.276
H  44.670  33.314  65.765
H  43.208  33.361  66.175
H  54.420  28.643  52.855
H  56.983  49.897  44.212
H  57.937  48.766  44.554
H  54.556  27.896  54.170
H  55.808  41.580  53.187
H  56.038  40.193  52.611
H  48.887  62.245  50.246
H  50.051  61.291  50.449
H  42.246  49.148  66.716
H  50.765  61.188  30.366
H  51.003  62.688  30.359
H  41.039  48.227  66.763
H  66.661  59.945  56.561
H  67.052  61.077  55.627
H  66.619  50.833  56.473
H  64.198  49.580  55.746
H  65.463  49.606  54.907
H  43.074  62.740  47.415
H  52.459  70.122  50.429
H  57.047  33.135  57.549
H  55.740  33.880  57.759
H  51.337  71.114  50.178
H  52.046  37.342  70.513
H  51.699  36.262  69.503
H  47.414  61.777  55.140
H  46.395  60.712  55.506
H  29.685  60.544  42.174
H  59.434  60.314  47.286
H  60.339  59.376  46.507
H  30.245  60.466  40.764
H  38.460  50.912  63.118
H  49.893  43.705  56.613
H  38.159  49.500  62.646
H  44.882  54.807  39.516
H  43.016  32.764  62.338
H  57.620  53.780  41.234
H  58.603  54.440  40.283
H  43.591  33.525  61.157
H  28.033  41.990  51.318
H  28.004  40.494  51.576
H  33.432  48.190  32.480
H  34.538  48.425  31.466
H  37.250  41.936  38.245
H  59.942  37.917  54.781
H  59.978  37.003  53.569
H  37.634  41.384  36.884
H  44.582  54.435  40.957
H  49.353  43.944  55.214
H  58.511  63.905  60.707
H  57.685  64.808  61.607
H  50.498  47.417  69.995
H  36.624  60.356  60.947
H  36.255  37.323  48.815
H  35.753  36.223  49.734
H  36.746  61.702  61.642
H  57.093  46.780  33.253
H  58.395  46.857  34.031
H  43.555  46.004  52.908
H  42.842  44.857  52.213
H  34.573  60.212  48.658
H  65.187  52.028  47.256
H  66.638  52.473  47.300
H  34.589  58.736  48.301
H  56.058  50.069  67.226
H  56.486  49.088  68.304
H  58.226  54.188  64.499
H  57.283  55.116  65.245
H  43.870  42.000  35.656
H  59.014  44.827  61.089
H  58.854  43.536  61.873
H  43.442  41.657  34.240
H  37.857  50.873  44.647
H  36.572  50.265  44.111
H  36.592  31.422  53.492
H  35.092  31.439  53.255
H  33.424  45.524  66.862
H  37.302  53.086  42.117
H  36.030  53.881  42.356
H  34.834  46.062  66.689
H  30.415  39.497  42.599
H  40.333  45.756  69.287
H  31.827  40.038  42.455
H  58.177  47.300  62.920
H  45.802  32.204  34.145
H  46.068  33.126  35.322
H  50.204  33.333  62.523
H  38.625  38.418  34.063
H  37.192  37.945  34.232
H  34.747  57.588  39.406
H  34.114  58.955  39.212
H  56.109  62.671  62.596
H  66.942  59.882  48.114
H  66.716  60.554  49.457
H  57.034  63.465  63.503
H  47.547  45.972  33.042
H  48.758  46.889  33.017
H  51.147  34.446  62.100
H  71.285  53.145  55.173
H  59.522  40.544  41.497
H  46.696  32.292  53.247
H  48.068  32.705  53.751
H  58.185  39.903  41.171
H  54.260  28.717  44.541
H  53.272  28.631  45.691
H  51.374  30.763  50.628
H  52.335  29.605  50.426
H  53.336  48.199  27.976
H  57.588  55.772  44.847
H  58.135  57.068  44.275
H  54.750  48.665  27.673
H  44.437  62.856  48.074
H  69.860  52.926  55.651
H  47.663  27.913  52.062
H  48.369  27.745  53.397
H  37.065  32.512  49.030
H  59.487  40.410  35.351
H  62.276  43.266  49.852
H  63.389  42.296  49.496
H  58.145  41.096  35.535
H  34.823  46.306  54.893
H  36.270  46.734  55.062
H  55.529  30.336  62.862
H  54.262  29.721  62.295
H  51.041  66.117  63.056
H  62.562  37.504  44.189
H  61.068  37.498  43.917
H  52.316  66.913  62.842
H  63.140  39.524  45.000
H  63.496  40.984  45.220
H  33.600  56.088  40.583
H  32.458  55.113  40.357
H  48.401  57.988  31.627
H  32.204  42.040  41.249
H  33.445  42.446  40.474
H  46.974  58.475  31.447
H  47.565  61.008  39.730
H  48.467  60.837  38.520
H  51.972  50.771  32.562
H  50.754  50.799  31.655
H  61.500  62.477  57.072
H  42.039  63.046  34.549
H  42.162  63.811  35.855
H  61.290  62.463  55.568
H  35.630  32.987  49.176
H  58.658  48.643  62.399
H  36.251  64.470  55.352
H  42.123  50.638  69.673
H  34.484  50.944  56.775
H  53.566  46.805  59.816
H  60.698  52.527  47.065
H  57.985  46.686  59.275
H  58.284  47.510  60.515
H  37.335  67.594  58.327
H  36.833  66.366  59.066
H  61.196  43.457  66.970
H  43.245  59.931  61.677
H  42.912  58.861  60.653
H  61.023  41.966  66.740
H  62.322  41.242  47.887
H  61.175  40.623  47.107
H  50.170  39.862  47.088
H  51.365  40.293  46.256
H  50.262  26.694  49.124
H  53.224  58.916  35.797
H  54.530  58.142  35.761
H  50.903  26.616  47.750
H  60.446  64.837  47.656
H  59.850  64.372  48.972
H  32.556  34.222  46.059
H  33.294  32.927  46.348
H  62.702  32.431  43.143
H  32.626  49.373  54.635
H  34.063  48.974  54.347
H  62.491  30.929  43.055
H  51.846  53.619  29.948
H  50.470  54.100  30.371
H  67.098  45.143  53.232
H  54.049  46.049  58.590
H  65.846  45.371  54.059
H  61.548  53.559  46.344
H  68.643  58.060  55.543
H  40.999  41.224  32.009
H  40.466  40.159  32.951
H  34.931  33.608  54.997
H  43.328  54.788  44.994
H  43.547  53.911  43.773
H  49.503  36.598  61.284
H  48.859  36.487  62.655
H  34.816  51.324  66.199
H  35.655  56.006  63.340
H  34.311  56.575  63.759
H  34.191  50.550  65.052
H  27.507  47.100  48.483
H  28.669  47.823  47.823
H  58.296  46.486  55.626
H  57.912  45.052  55.304
H  53.869  62.132  42.724
H  33.729  53.605  49.519
H  33.617  54.701  48.474
H  52.752  62.811  41.951
H  67.421  49.797  47.048
H  67.858  48.343  47.016
H  46.036  42.989  64.164
H  46.724  44.296  64.515
H  46.711  69.240  41.484
H  51.729  47.646  57.263
H  53.139  48.062  56.881
H  46.862  70.369  40.480
H  61.860  59.730  60.865
H  61.878  61.225  61.133
H  67.935  56.823  56.066
H  33.757  32.893  54.352
H  58.008  39.272  69.730
H  57.793  33.946  63.176
H  51.972  37.639  56.456
H  52.578  36.392  55.836
H  51.801  49.308  64.061
H  52.167  50.644  63.438
H  52.563  57.810  68.965
H  42.555  33.323  45.048
H  41.320  32.505  45.380
H  52.965  59.239  69.286
H  42.925  40.758  68.667
H  43.531  39.391  68.402
H  37.946  57.181  62.645
H  38.615  56.109  63.487
H  28.452  43.350  47.968
H  42.099  40.087  29.398
H  41.729  41.553  29.540
H  27.171  42.644  47.559
H  66.309  37.979  44.010
H  65.561  38.993  44.857
H  50.217  49.434  62.282
H  50.595  48.000  62.611
H  44.262  57.129  64.717
H  48.273  44.117  30.465
H  47.937  44.990  29.268
H  43.429  56.662  65.898
H  31.687  50.444  47.806
H  30.739  49.454  48.460
H  56.387  33.951  49.241
H  56.100  33.242  50.552
H  29.721  53.042  37.353
H  53.067  46.789  33.456
H  56.810  33.653  64.296
H  56.241  52.980  51.397
H  54.027  47.962  33.365
H  57.670  37.964  69.036
H  37.962  55.138  68.109
H  39.231  55.947  68.318
H  54.667  71.101  49.267
H  55.848  70.307  48.736
H  36.349  52.824  65.370
H  46.018  36.451  51.459
H  47.350  35.862  51.030
H  36.839  54.204  64.969
H  34.779  52.285  46.779
H  33.705  52.141  47.843
H  65.899  62.229  37.616
H  66.446  60.813  37.579
H  55.953  62.539  38.577
H  64.703  39.209  55.960
H  65.299  40.397  55.225
H  54.590  62.175  39.137
H  56.657  51.486  29.410
H  56.767  49.984  29.216
H  44.743  56.532  33.763
H  44.673  57.268  32.437
H  47.232  30.157  63.558
H  42.718  70.442  42.888
H  43.355  69.081  42.666
H  45.771  30.573  63.539
H  54.484  39.655  28.599
H  53.663  40.876  28.975
H  53.312  65.559  38.372
H  52.059  66.399  38.550
H  56.809  54.342  51.755
H  52.750  53.869  31.981
H  57.959  39.546  63.248
H  34.854  55.645  38.403
H  68.599  48.887  59.754
H  69.044  50.304  59.437
H  43.309  53.600  30.274
H  57.464  51.419  63.201
H  58.180  50.768  62.031
H  42.973  54.368  31.540
H  48.998  36.509  49.692
H  49.529  37.909  49.942
H  54.234  66.690  41.591
H  52.806  66.228  41.826
H  54.088  71.602  43.752
H  44.615  62.140  54.620
H  45.236  61.447  53.420
H  55.519  71.928  44.142
H  32.559  37.228  59.580
H  33.417  38.478  59.660
H  37.633  34.829  48.150
H  37.392  36.110  47.369
H  71.458  49.701  43.698
H  52.400  38.544  43.899
H  53.210  37.313  44.264
H  70.486  49.931  42.554
H  45.128  64.530  36.929
H  44.024  63.493  37.033
H  71.522  44.702  48.937
H  72.574  43.664  48.588
H  36.855  63.568  58.652
H  55.524  38.068  41.002
H  54.154  38.705  41.161
H  60.836  47.983  43.570
H  36.170  64.357  57.550
H  62.185  48.657  43.386
H  52.742  30.044  53.109
H  56.458  69.367  55.518
H  32.728  49.393  39.205
H  32.870  49.828  37.756
H  55.898  63.450  41.245
H  38.275  42.713  53.491
H  39.786  42.795  53.614
H  54.940  64.180  42.170
H  62.916  54.489  54.167
H  63.458  53.258  54.871
H  31.999  58.993  38.605
H  31.784  60.313  37.887
H  65.347  43.601  51.110
H  63.784  65.301  41.307
H  64.897  64.898  42.259
H  65.266  42.156  50.650
H  68.300  47.358  57.875
H  68.968  46.090  58.377
H  56.562  31.207  44.423
H  56.419  32.590  43.815
H  48.786  68.056  37.651
H  61.866  67.818  56.328
H  62.760  67.555  57.527
H  48.699  69.550  37.391
H  55.763  52.163  39.858
H  57.042  51.351  39.757
H  69.359  45.017  49.189
H  69.331  43.500  49.130
H  43.655  56.387  61.706
H  51.363  29.429  53.270
H  44.566  55.924  60.583
H  58.847  38.694  62.358
H  39.199  54.937  70.654
H  48.334  61.089  44.558
H  39.982  33.603  54.483
H  65.227  65.918  51.064
H  66.412  65.511  50.205
H  41.302  33.002  54.033
H  47.021  63.326  39.888
H  46.116  63.579  38.695
H  52.244  62.951  64.515
H  53.044  63.881  65.411
H  37.535  56.264  38.817
H  60.475  67.963  58.237
H  59.120  67.545  57.692
H  36.861  57.618  38.682
H  57.880  40.091  38.998
H  56.640  40.616  39.701
H  65.575  40.519  46.581
H  65.231  41.944  46.185
H  62.333  56.292  69.178
H  48.354  62.189  36.103
H  47.197  61.540  36.842
H  61.839  55.881  67.801
H  59.042  44.231  67.699
H  59.913  45.474  67.665
H  53.301  34.382  42.198
H  53.945  33.211  42.918
H  58.867  47.975  66.969
H  36.298  50.639  31.053
H  35.356  51.829  31.096
H  57.946  49.123  66.593
H  36.041  54.768  38.045
H  54.250  68.956  58.238
H  40.142  55.957  71.268
H  54.200  67.438  58.230
H  30.533  47.101  40.436
H  49.611  60.716  45.289
H  36.823  64.766  60.682
H  63.210  59.568  39.721
H  64.582  59.204  39.181
H  35.450  65.377  60.464
H  62.421  55.352  44.448
H  61.181  55.648  45.274
H  55.302  53.421  30.383
H  54.477  52.161  30.188
H  38.085  54.343  39.862
H  52.033  29.985  47.545
H  52.481  30.917  48.657
H  39.028  53.347  39.211
H  45.188  32.364  46.527
H  45.973  33.586  46.084
H  37.085  54.074  47.297
H  37.471  53.317  48.556
H  54.220  52.063  33.513
H  60.269  42.614  38.740
H  61.274  41.595  38.230
H  55.227  52.378  34.605
H  52.996  32.637  37.024
H  51.682  33.152  37.585
H  53.517  45.919  31.487
H  53.082  44.464  31.450
H  44.586  36.612  49.334
H  65.881  56.104  62.783
H  64.462  56.451  63.196
H  45.208  35.231  49.445
H  31.294  48.369  40.782
H  57.276  70.556  55.990
H  51.705  52.958  32.599
H  41.587  42.097  63.255
H  55.671  49.170  34.492
H  58.857  36.707  67.434
H  31.583  54.059  49.315
H  31.783  53.617  47.876
H  39.511  45.697  40.969
H  40.600  45.975  41.989
H  37.834  54.745  52.450
H  39.669  46.511  49.043
H  40.271  46.655  47.656
H  37.878  54.324  53.909
H  37.083  41.963  61.928
H  37.427  40.487  62.025
H  45.605  35.282  31.535
H  45.130  36.725  31.545
H  51.494  53.909  72.998
H  35.688  40.388  37.131
H  36.566  39.511  36.256
H  52.408  54.711  72.088
H  61.062  42.439  61.688
H  62.325  43.161  62.123
H  63.302  48.780  64.408
H  63.141  47.556  65.292
H  47.216  50.950  65.711
H  28.707  52.337  52.094
H  27.907  52.765  53.312
H  47.311  51.602  64.343
H  50.891  41.130  61.881
H  49.976  42.316  62.130
H  39.183  45.020  63.388
H  56.468  50.462  34.468
H  39.018  46.488  63.039
H  57.470  36.612  66.822
H  54.009  46.872  39.292
H  39.435  58.342  37.627
H  38.445  59.131  38.466
H  32.694  60.413  51.326
H  62.403  41.589  64.102
H  63.567  42.226  64.841
H  31.490  54.673  51.483
H  32.633  55.542  50.988
H  40.711  30.212  47.908
H  62.862  57.107  41.206
H  62.438  56.449  42.507
H  41.298  28.812  47.951
H  54.503  50.130  36.859
H  54.075  48.673  36.826
H  58.170  49.633  37.629
H  57.279  49.032  38.702
H  33.722  47.629  48.634
H  70.060  50.833  37.554
H  70.331  52.327  37.565
H  32.941  48.477  49.622
H  58.071  43.220  36.244
H  59.490  42.920  36.692
H  49.997  49.848  41.986
H  49.569  51.278  41.708
H  51.738  45.603  70.346
H  39.848  38.748  53.929
H  40.888  39.757  53.476
H  51.953  45.997  71.797
H  41.466  58.556  65.855
H  41.184  59.769  64.986
H  55.157  47.344  38.417
H  31.757  59.221  51.239
H  50.425  51.861  72.871
H  37.040  56.494  55.872
H  50.607  67.530  36.436
H  52.045  67.499  35.950
H  48.321  51.659  35.640
H  48.360  51.325  37.121
H  63.920  54.287  33.646
H  47.585  39.347  57.399
H  48.315  38.916  56.138
H  65.407  54.189  33.938
H  68.912  54.642  46.277
H  68.189  53.363  45.892
H  43.201  47.441  71.922
H  44.624  47.970  71.976
H  46.282  60.188  50.895
H  57.715  43.268  69.546
H  56.375  42.898  68.937
H  46.292  59.474  52.236
H  61.983  30.623  51.231
H  61.276  29.280  51.300
H  47.715  57.893  70.929
H  48.555  58.479  72.050
H  57.871  60.982  38.550
H  56.529  68.809  62.900
H  56.425  68.105  64.242
H  58.025  59.475  38.665
H  62.233  52.977  30.633
H  63.652  53.423  30.329
H  60.063  71.870  49.204
H  60.247  70.511  48.551
H  50.612  67.675  56.185
H  54.561  69.499  43.099
H  38.278  57.156  56.452
H  49.767  51.880  33.994
H  54.325  70.374  41.880
H  51.712  51.457  72.173
H  35.397  55.618  45.278
H  35.103  54.527  44.264
H  49.711  54.937  33.544
H  50.132  55.260  34.967
H  55.770  41.553  36.566
H  46.690  58.044  34.566
H  47.179  57.312  33.329
H  54.264  41.426  36.716
H  54.916  43.920  58.370
H  55.628  43.445  57.115
H  51.940  49.322  34.559
H  52.887  50.459  34.901
H  31.231  52.333  56.846
H  38.195  56.849  33.136
H  39.551  56.542  32.526
H  30.879  53.746  57.278
H  55.991  56.971  64.998
H  55.208  57.488  63.804
H  60.521  42.500  48.643
H  59.345  42.342  47.696
H  30.253  55.364  62.773
H  58.974  42.906  63.999
H  60.150  43.345  64.853
H  29.733  55.340  61.346
H  59.583  39.297  52.062
H  59.586  37.897  51.473
H  72.433  44.769  42.633
H  72.849  46.171  43.041
H  49.859  53.076  34.925
H  30.922  53.962  37.229
H  45.548  62.703  34.706
H  58.838  39.459  58.575
H  34.120  62.214  60.104
H  35.327  63.070  60.443
H  53.624  32.532  47.665
H  64.852  50.125  48.306
H  65.778  48.922  48.260
H  54.908  33.344  47.684
H  56.428  69.070  60.717
H  55.778  70.352  60.228
H  42.181  35.470  32.324
H  42.528  36.927  32.075
H  48.968  40.371  62.115
H  42.829  63.546  62.731
H  43.597  62.253  62.518
H  48.105  41.332  62.914
H  48.221  42.090  65.355
H  46.825  41.936  65.932
H  61.232  58.707  66.126
H  61.042  57.200  66.107
H  52.388  35.563  59.155
H  64.322  33.884  44.758
H  65.809  34.029  45.032
H  53.764  36.203  59.206
H  43.045  69.782  58.361
H  41.822  69.147  57.722
H  51.737  55.756  31.360
H  50.259  56.074  31.506
H  55.071  39.290  37.589
H  39.650  47.821  68.948
H  38.239  47.768  69.508
H  34.484  35.134  52.223
H  56.309  39.327  36.709
H  35.229  35.275  53.539
H  38.939  52.933  67.383
H  42.699  41.589  64.157
H  44.741  41.450  65.052
H  44.372  40.074  65.579
H  55.516  63.953  50.058
H  57.103  42.633  55.637
H  58.121  42.718  56.760
H  54.037  63.651  50.224
H  52.596  48.856  60.493
H  51.887  48.761  59.153
H  61.596  58.462  38.592
H  61.296  57.039  39.031
H  53.475  55.572  27.747
H  47.501  49.766  68.733
H  46.585  49.264  69.835
H  54.290  54.379  28.214
H  44.170  40.394  57.503
H  45.407  39.615  57.093
H  50.565  43.982  28.514
H  50.570  45.340  29.194
H  32.185  38.723  38.142
H  35.342  39.136  34.188
H  35.791  40.568  33.958
H  32.865  39.727  39.057
H  47.305  37.875  61.635
H  46.286  37.002  62.347
H  38.658  52.853  45.572
H  40.014  52.286  45.189
H  63.500  54.250  48.415
H  40.005  53.972  67.685
H  64.584  54.571  47.400
H  44.503  63.682  34.200
H  60.955  68.493  41.907
H  45.090  29.507  61.489
H  34.459  50.522  49.500
H  37.155  50.133  69.042
H  38.351  51.062  69.155
H  35.458  51.653  49.670
H  41.790  48.653  48.645
H  41.736  49.977  47.904
H  55.887  50.539  70.403
H  56.801  51.740  70.570
H  39.057  41.795  33.878
H  65.617  48.980  39.717
H  66.923  49.619  40.155
H  38.388  40.836  34.847
H  66.242  53.071  35.639
H  66.352  51.726  36.336
H  52.821  44.508  34.418
H  52.725  43.003  34.599
H  36.029  36.321  58.816
H  45.887  68.473  49.443
H  45.471  69.607  48.523
H  34.560  36.707  58.836
H  56.544  32.524  53.570
H  57.363  31.309  53.969
H  64.391  46.133  52.119
H  63.658  44.847  51.776
H  47.937  63.635  31.023
H  60.516  38.617  64.371
H  59.175  38.764  65.069
H  48.045  62.151  30.717
H  59.565  40.080  59.755
H  36.154  47.057  50.309
H  61.726  67.526  41.026
H  37.670  46.991  50.249
H  56.503  61.838  32.848
H  44.580  30.920  61.718
H  48.683  35.054  31.035
H  36.411  49.370  66.701
H  35.526  48.150  66.890
H  48.888  35.582  32.445
H  66.109  47.349  59.935
H  64.604  47.552  59.920
H  63.368  59.643  54.377
H  62.910  61.010  53.899
H  56.463  63.344  57.242
H  47.772  34.591  35.173
H  49.182  35.038  34.828
H  56.501  61.860  57.562
H  56.666  44.793  48.871
H  57.426  45.982  48.310
H  63.643  35.837  52.122
H  64.660  34.727  51.925
H  59.677  63.571  39.330
H  72.561  44.022  53.633
H  72.747  45.430  53.094
H  60.481  64.842  39.541
H  61.493  53.315  67.318
H  59.979  53.320  67.435
H  53.985  60.878  71.062
H  53.157  59.661  71.436
H  46.842  64.268  46.258
H  59.062  66.446  45.539
H  58.291  65.374  46.290
H  45.436  64.554  46.753
H  57.644  62.840  32.798
H  43.453  62.567  41.635
H  53.958  59.846  55.698
H  54.850  58.992  56.581
H  52.118  29.195  42.962
H  52.978  30.438  42.811
H  38.467  52.299  59.177
H  40.190  39.404  30.644
H  40.688  38.295  31.555
H  52.005  62.275  55.119
H  51.403  61.048  54.457
H  67.906  64.136  46.634
H  51.250  34.681  56.970
H  52.118  34.181  55.829
H  66.423  64.231  46.320
H  65.942  38.734  60.336
H  64.666  39.227  60.995
H  48.071  43.440  62.495
H  46.722  44.115  62.318
H  38.784  34.929  46.139
H  33.282  50.188  45.791
H  33.767  49.487  47.048
H  37.637  34.228  45.433
H  35.164  60.742  57.954
H  36.150  61.528  57.108
H  38.571  62.565  57.021
H  39.083  63.516  58.089
H  40.037  70.143  50.605
H  29.134  56.211  52.936
H  29.091  55.222  51.784
H  39.285  70.212  51.923
H  46.096  63.312  57.037
H  46.379  64.075  58.319
H  36.958  52.306  59.353
H  47.380  47.735  39.528
H  40.292  36.103  57.868
H  46.751  51.932  39.288
H  49.476  66.919  58.438
H  57.319  35.380  58.069
H  58.793  35.023  58.142
H  50.796  67.047  59.180
H  38.014  29.765  44.352
H  39.138  29.453  43.380
H  64.907  40.810  62.719
H  64.511  40.307  64.096
H  47.092  61.159  34.392
H  52.548  36.364  49.511
H  51.130  36.510  48.986
H  46.603  60.127  33.391
H  56.415  58.638  67.616
H  55.525  57.749  68.468
H  50.233  30.600  44.643
H  48.946  29.886  44.272
H  49.132  40.870  39.948
H  41.109  57.790  61.302
H  39.635  58.152  61.375
H  48.510  41.207  41.291
H  38.695  41.822  64.311
H  38.317  42.998  63.428
H  61.376  61.822  49.602
H  59.993  62.378  49.889
H  46.158  43.011  67.952
H  40.389  63.238  39.767
H  40.856  61.998  40.509
H  45.087  41.936  68.013
H  46.804  50.628  38.512
H  41.633  36.437  57.239
H  49.693  40.468  65.590
H  46.043  47.105  39.179
H  69.891  51.911  48.107
H  39.578  34.612  42.195
H  36.686  40.964  60.009
H  38.065  40.385  59.747
H  49.627  58.814  33.454
H  49.619  57.296  33.486
H  27.791  44.103  50.660
H  59.569  66.507  53.482
H  59.046  67.883  53.109
H  26.866  44.342  49.480
H  53.534  68.943  64.622
H  54.367  67.712  64.931
H  41.075  29.416  52.126
H  41.918  28.256  52.627
H  50.326  56.085  68.444
H  56.525  53.586  35.911
H  57.080  53.976  34.553
H  49.899  54.630  68.368
H  35.839  51.454  42.402
H  37.215  50.892  42.091
H  49.867  38.875  37.580
H  50.549  39.964  38.390
H  55.332  40.646  57.327
H  32.028  45.613  50.320
H  33.090  46.579  50.815
H  53.985  41.276  57.017
H  57.544  38.397  44.643
H  56.936  39.108  45.839
H  39.401  61.710  43.579
H  40.539  60.862  43.038
H  49.882  43.480  34.865
H  54.881  46.762  67.830
H  50.663  42.195  34.655
H  41.664  44.122  64.692
H  70.957  52.990  48.042
H  54.632  46.133  66.470
H  40.865  39.450  64.477
H  40.556  38.360  63.466
H  59.366  64.043  43.104
H  58.275  64.945  43.654
H  41.708  66.862  49.749
H  64.742  56.062  59.504
H  64.297  56.200  60.949
H  41.420  65.424  49.355
H  43.571  67.194  59.174
H  44.997  67.640  59.448
H  62.426  58.511  43.335
H  63.847  58.041  43.080
H  51.279  54.749  26.323
H  55.203  66.667  38.557
H  56.590  66.099  38.803
H  50.775  54.758  27.755
H  47.598  33.698  42.184
H  46.111  33.392  42.168
H  38.509  71.171  49.367
H  37.563  70.105  48.844
H  41.452  39.201  51.423
H  62.265  55.143  34.876
H  60.860  55.112  35.452
H  40.977  37.976  52.186
H  43.112  66.960  38.254
H  44.063  66.438  37.191
H  40.910  45.440  64.720
H  38.843  35.578  41.282
H  66.379  57.489  35.898
H  50.428  41.671  66.156
H  38.014  38.296  40.064
H  44.265  47.121  56.557
H  69.351  51.582  44.576
H  69.850  50.269  45.155
H  66.344  48.308  37.756
H  59.014  27.817  46.564
H  59.327  27.766  48.050
H  65.561  47.028  37.520
H  44.415  61.810  33.044
H  43.056  61.253  32.655
H  59.113  56.666  41.908
H  59.888  55.363  41.814
H  39.350  61.702  60.552
H  37.353  61.302  53.387
H  36.784  62.343  54.335
H  38.997  60.225  60.523
H  49.919  66.220  65.685
H  50.325  67.648  65.363
H  45.757  57.599  67.533
H  46.214  56.252  67.002
H  58.483  35.384  52.962
H  64.283  42.260  40.632
H  65.356  41.204  40.432
H  58.059  33.948  52.712
H  47.311  61.163  47.607
H  48.817  61.356  47.634
H  54.277  38.426  33.569
H  53.870  37.349  34.558
H  47.887  46.008  63.766
H  48.421  56.098  36.931
H  42.975  46.648  55.909
H  49.130  57.264  36.265
H  45.705  58.026  39.117
H  56.595  47.937  30.726
H  66.419  51.838  33.547
H  65.834  52.204  32.194
H  36.413  46.167  68.222
H  37.596  45.219  68.317
H  61.519  63.082  40.431
H  44.519  51.684  71.157
H  45.406  52.478  72.099
H  62.477  63.917  39.601
H  37.041  42.144  66.974
H  37.581  41.061  66.057
H  58.714  42.279  66.206
H  57.279  42.761  66.088
H  48.017  32.535  36.253
H  41.544  48.449  40.511
H  41.513  46.953  40.252
H  47.924  32.036  34.822
H  51.259  60.628  66.572
H  50.210  61.715  66.413
H  49.531  53.152  63.724
H  50.974  52.697  63.586
H  30.154  43.713  52.175
H  35.185  42.180  49.015
H  35.027  41.863  50.492
H  29.969  42.943  50.879
H  44.142  71.033  39.586
H  43.548  71.470  40.913
H  55.798  56.241  36.580
H  54.935  55.428  37.528
H  46.038  59.356  39.770
H  55.467  48.182  31.714
H  37.687  39.251  38.930
H  49.163  46.776  64.063
H  64.423  50.142  41.377
H  46.207  33.155  59.952
H  53.144  43.157  37.528
H  55.959  47.416  69.636
H  55.803  46.701  70.967
H  52.604  44.577  37.515
H  63.099  39.581  66.444
H  61.604  39.317  66.419
H  56.853  39.249  50.816
H  57.840  40.338  51.197
H  60.428  42.529  32.292
H  33.866  46.101  61.156
H  34.680  47.206  61.806
H  61.699  43.350  32.432
H  40.730  34.706  47.441
H  41.060  34.904  45.972
H  54.980  36.461  42.935
H  56.025  35.371  42.769
H  57.915  40.547  48.112
H  71.924  41.640  47.796
H  70.733  42.576  47.677
H  58.619  39.591  47.164
H  35.604  38.421  57.640
H  34.591  39.514  57.346
H  56.646  58.283  40.136
H  55.876  58.531  38.851
H  53.219  73.401  46.630
H  47.260  44.660  37.910
H  46.095  44.105  38.712
H  53.544  73.215  45.158
H  45.059  32.162  59.974
H  65.587  51.052  41.730
H  55.454  46.447  73.125
H  61.349  32.204  57.026
H  60.817  48.993  71.288
H  59.847  49.838  72.094
H  38.446  39.278  47.144
H  35.580  47.996  35.032
H  34.587  49.000  34.475
H  37.180  38.523  46.778
H  49.447  66.616  34.264
H  50.131  65.509  35.048
H  45.160  34.248  38.907
H  45.894  35.029  39.983
H  38.499  53.782  31.206
H  33.099  57.583  55.555
H  33.849  56.263  55.565
H  37.263  52.920  31.019
H  37.675  43.923  51.700
H  38.089  45.154  52.487
H  42.066  32.278  56.034
H  41.071  31.191  56.400
H  70.260  40.950  45.857
H  48.063  64.286  37.942
H  48.489  64.884  39.271
H  68.848  41.408  45.536
H  36.947  57.371  67.422
H  36.736  57.141  68.909
H  38.205  58.923  66.505
H  39.396  57.989  66.624
H  61.978  33.577  56.857
H  42.384  41.617  39.989
H  42.578  40.122  40.176
H  54.033  46.161  72.672
H  41.431  52.773  64.032
H  41.206  51.358  63.530
H  66.386  58.993  36.108
H  47.922  34.494  62.608
H  50.580  36.037  37.531
H  43.019  36.828  37.953
H  43.542  35.403  37.962
H  56.978  50.320  46.499
H  56.072  51.334  47.175
H  32.266  64.714  56.564
H  40.282  60.538  54.765
H  41.760  60.875  54.677
H  33.210  65.899  56.466
H  61.322  44.525  57.331
H  60.229  45.405  56.749
H  61.429  62.889  35.999
H  62.367  62.738  34.814
H  44.169  67.340  34.176
H  42.737  56.048  47.088
H  42.073  54.761  47.544
H  43.900  65.851  34.302
H  51.826  49.460  66.996
H  50.743  50.458  66.626
H  61.139  60.305  39.809
H  60.002  61.256  39.479
H  33.744  41.364  55.708
H  40.125  43.470  38.002
H  39.988  41.987  38.298
H  32.601  40.376  55.551
H  30.743  38.405  45.768
H  31.401  39.759  45.571
H  70.450  53.484  44.469
H  46.598  34.548  61.865
H  71.532  54.191  45.266
H  50.216  34.791  36.742
H  51.771  56.602  29.319
H  62.095  63.259  47.755
H  61.510  61.970  47.204
H  55.349  53.982  63.805
H  42.242  43.823  39.890
H  40.907  43.923  40.608
H  57.351  52.793  68.058
H  57.653  51.305  68.113
H  36.988  49.337  51.006
H  44.056  35.727  68.555
H  43.319  36.688  67.638
H  35.685  50.074  51.264
H  44.727  53.284  32.353
H  43.889  52.137  31.815
H  47.344  46.227  26.270
H  45.953  46.222  26.880
H  50.866  28.805  48.996
H  70.902  47.054  49.108
H  69.588  47.512  48.500
H  50.190  30.160  48.875
H  42.275  51.557  57.922
H  42.803  52.533  56.885
H  67.166  62.635  48.891
H  68.540  62.489  49.520
H  63.635  52.302  34.986
H  44.083  29.841  53.496
H  43.147  30.172  54.645
H  63.651  51.811  36.423
H  32.677  41.968  47.871
H  31.985  40.619  47.953
H  50.994  57.393  28.282
H  56.131  54.055  62.506
H  56.636  59.411  33.495
H  35.862  43.985  53.919
H  68.038  35.134  43.789
H  68.369  36.596  44.032
H  68.392  37.055  51.570
H  69.660  37.737  52.054
H  42.478  43.307  32.067
H  56.773  44.822  52.664
H  56.956  43.512  53.411
H  43.076  41.911  32.030
H  68.823  52.511  58.388
H  68.875  53.903  58.992
H  51.876  36.383  62.861
H  52.119  36.028  64.317
H  49.029  46.173  66.644
H  41.114  37.998  49.148
H  42.263  37.201  48.555
H  50.013  45.492  65.708
H  34.729  42.036  66.969
H  35.022  43.526  66.960
H  52.817  47.414  66.709
H  51.306  47.362  66.573
H  47.053  73.674  53.980
H  56.814  28.474  50.238
H  56.550  27.209  49.440
H  48.163  72.957  53.232
H  59.119  57.544  37.523
H  57.942  56.747  38.057
H  31.865  54.376  54.764
H  32.749  54.340  53.530
H  42.124  62.364  42.340
H  50.741  60.353  68.983
H  36.825  44.596  54.922
H  40.383  30.481  45.612
H  49.770  59.185  68.982
H  56.682  58.306  32.454
H  66.080  49.434  34.874
H  67.343  48.840  35.472
H  41.870  57.486  57.039
H  40.398  57.113  57.032
H  50.504  34.017  59.080
H  67.509  53.737  48.876
H  68.923  53.873  48.340
H  49.856  32.914  59.897
H  53.607  41.427  69.003
H  52.309  40.645  68.903
H  30.222  54.785  44.084
H  30.445  53.297  44.295
H  36.459  41.739  52.158
H  35.885  45.929  52.714
H  34.380  45.845  52.530
H  37.119  40.852  51.117
H  58.116  67.967  55.119
H  58.148  66.449  55.176
H  60.074  37.000  49.204
H  60.779  35.727  49.639
H  39.001  41.003  55.083
H  48.703  29.242  50.651
H  48.187  30.409  49.828
H  39.497  42.125  55.978
H  45.156  28.901  45.182
H  44.340  29.840  46.053
H  63.751  32.374  53.086
H  62.323  31.858  53.136
H  41.861  30.395  45.952
H  49.375  69.561  39.484
H  50.131  70.877  39.534
H  47.507  67.872  53.973
H  64.598  62.789  40.305
H  41.833  39.113  43.817
H  42.118  39.698  42.445
H  56.809  63.464  54.272
H  59.284  71.581  52.953
H  58.639  70.271  52.535
H  57.388  64.226  55.452
H  47.297  29.683  53.481
H  46.089  29.799  54.393
H  47.800  35.705  53.203
H  48.788  34.892  52.385
H  64.881  31.792  44.343
H  45.494  38.713  59.966
H  44.666  38.341  58.749
H  64.456  31.275  45.706
H  56.488  70.614  41.505
H  57.749  71.041  42.237
H  48.944  64.919  55.530
H  47.514  65.424  55.469
H  63.613  56.219  38.581
H  30.458  52.605  60.647
H  31.247  53.902  60.653
H  64.948  56.617  39.186
H  53.781  29.584  40.700
H  52.803  29.187  39.609
H  63.494  48.824  53.802
H  64.777  48.660  53.006
H  61.334  48.548  51.233
H  62.826  37.288  57.075
H  64.630  61.582  41.226
H  63.808  36.184  56.721
H  42.962  55.561  37.540
H  56.064  37.158  34.620
H  28.912  39.018  48.268
H  30.417  39.147  48.425
H  39.773  42.345  69.409
H  39.716  40.836  69.248
H  70.426  51.105  57.131
H  33.350  53.551  45.143
H  32.311  52.543  45.601
H  69.109  50.651  56.526
H  66.944  40.914  37.763
H  66.164  42.210  37.625
H  65.596  45.420  42.830
H  65.880  46.163  41.537
H  50.563  69.310  62.891
H  63.789  48.663  32.327
H  64.774  49.500  31.532
H  51.329  70.594  62.621
H  53.481  63.987  34.617
H  52.378  64.354  33.640
H  56.990  65.481  53.322
H  56.172  64.671  52.331
H  53.519  55.079  30.262
H  58.509  61.599  63.626
H  59.806  60.859  63.354
H  54.663  56.077  30.254
H  31.154  50.086  56.795
H  32.398  49.239  57.002
H  33.005  54.093  56.633
H  34.076  53.130  56.151
H  43.828  55.479  36.295
H  56.260  35.690  34.956
H  61.900  49.364  52.383
H  28.427  42.876  53.344
H  28.907  41.832  54.338
H  55.314  52.175  37.096
H  51.994  49.015  30.051
H  50.571  49.502  29.841
H  56.435  51.151  37.118
H  40.714  64.308  64.624
H  39.225  64.069  64.810
H  50.061  26.460  44.431
H  49.517  26.666  45.834
H  37.625  59.175  48.599
H  38.887  43.322  36.168
H  38.041  44.579  36.260
H  39.052  58.671  48.724
H  42.741  27.604  44.461
H  41.712  27.728  45.572
H  54.904  36.895  36.587
H  56.389  36.990  36.892
H  69.288  38.656  57.587
H  37.258  41.290  41.482
H  38.203  42.025  40.547
H  68.284  38.212  58.636
H  34.717  58.710  52.139
H  33.893  58.243  50.952
H  49.617  35.289  65.084
H  48.172  35.321  64.617
H  39.677  31.227  54.387
H  61.647  46.293  61.957
H  63.072  45.895  61.615
H  39.233  30.702  53.032
H  48.423  68.894  53.323
H  57.751  66.266  41.787
H  56.362  65.969  41.248
H  34.129  37.149  42.795
H  34.246  37.061  44.307
H  37.263  70.166  46.557
H  36.042  69.303  46.286
H  53.934  44.031  27.774
H  53.545  28.181  48.325
H  54.681  28.527  47.378
H  54.082  42.533  27.576
H  31.404  40.248  53.709
H  31.211  41.706  53.330
H  28.689  53.138  46.945
H  28.648  53.653  45.517
H  44.286  51.207  40.954
H  38.170  38.430  43.503
H  39.219  38.097  44.551
H  45.394  52.241  41.040
H  52.616  40.002  36.379
H  30.311  55.771  46.888
H  36.822  44.139  33.552
H  35.366  44.350  33.173
H  29.301  48.559  38.938
H  36.382  35.567  55.433
H  36.173  36.754  56.356
H  30.120  49.838  38.972
H  59.019  51.378  65.830
H  57.562  51.117  65.489
H  60.389  59.415  49.231
H  59.225  60.359  49.481
H  56.951  41.631  31.533
H  35.794  60.236  38.222
H  36.315  60.695  36.872
H  56.524  41.131  30.164
H  31.580  55.182  46.298
H  51.766  38.748  36.477
H  49.422  68.447  56.726
H  54.434  39.482  64.921
H  55.482  51.902  64.973
H  54.547  50.752  64.641
H  40.194  37.534  61.167
H  60.873  55.097  60.002
H  59.628  55.847  60.443
H  39.194  38.673  61.067
H  49.450  35.365  47.836
H  48.112  34.708  48.127
H  47.224  57.933  37.134
H  48.130  59.124  36.876
H  50.905  64.839  37.255
H  35.181  43.867  51.829
H  35.515  44.922  50.789
H  49.669  65.721  37.269
H  52.438  32.305  41.596
H  51.745  32.279  40.245
H  50.854  29.481  41.184
H  50.866  30.802  41.934
H  54.580  44.629  69.938
H  71.002  48.908  46.832
H  69.943  49.820  47.424
H  53.642  44.635  71.132
H  67.643  51.216  64.723
H  68.398  51.910  63.604
H  31.739  45.306  52.479
H  30.532  46.052  51.937
H  59.383  44.658  32.355
H  58.768  51.627  46.476
H  58.005  52.873  46.060
H  48.917  69.356  45.436
H  59.728  46.137  32.341
H  49.113  70.025  46.785
H  61.220  43.609  46.797
H  47.423  68.120  47.904
H  47.258  69.840  63.555
H  48.443  68.905  63.389
H  63.019  39.270  47.206
H  46.004  68.516  37.060
H  46.566  68.684  35.659
H  62.418  37.988  47.758
H  50.500  68.836  51.288
H  50.594  67.331  51.108
H  44.579  45.073  60.099
H  45.870  45.529  60.758
H  62.867  65.011  57.046
H  50.165  49.185  68.455
H  49.232  48.036  68.115
H  64.027  65.310  56.112
H  36.266  53.241  52.778
H  36.012  51.750  52.645
H  38.284  61.112  51.001
H  38.913  59.729  50.995
H  52.047  46.726  63.968
H  61.687  57.788  58.237
H  62.559  57.075  57.218
H  53.279  45.994  63.465
H  49.150  43.684  70.146
H  48.323  42.433  70.389
H  64.190  30.668  48.926
H  62.979  29.984  48.315
H  58.859  57.336  53.461
H  62.636  43.262  46.369
H  57.622  56.467  53.319
H  47.310  66.944  46.950
H  60.216  44.629  35.385
H  52.543  48.381  68.884
H  54.266  63.087  67.364
H  52.386  50.202  28.227
H  51.352  51.206  27.750
H  55.559  63.730  67.834
H  60.000  53.276  34.595
H  58.797  52.820  33.788
H  63.704  49.210  50.303
H  62.674  50.300  50.542
H  52.110  38.114  33.495
H  54.513  71.252  55.176
H  54.601  71.685  56.629
H  51.824  38.645  32.102
H  57.906  45.383  57.492
H  56.531  45.419  58.134
H  40.670  44.452  43.586
H  39.950  43.125  43.423
H  54.068  39.382  51.365
H  38.363  63.856  53.108
H  39.089  62.875  54.013
H  52.785  39.288  52.171
H  38.681  43.361  67.792
H  39.733  42.916  66.792
H  44.711  49.834  28.372
H  43.977  51.160  28.471
H  42.652  66.317  40.308
H  38.325  37.715  55.745
H  38.641  38.795  56.764
H  42.190  64.915  39.949
H  64.101  37.776  45.975
H  33.804  56.941  43.436
H  61.361  43.808  35.950
H  32.908  56.485  44.574
H  64.010  58.606  51.705
H  53.941  48.306  69.474
H  39.791  29.386  55.588
H  31.509  65.081  53.828
H  31.665  64.840  52.337
H  41.286  29.118  55.607
H  65.405  51.743  44.108
H  66.756  52.061  44.725
H  50.202  62.833  56.831
H  48.699  62.683  56.679
H  49.545  54.838  73.478
H  68.213  38.786  55.407
H  67.697  37.364  55.546
H  49.149  56.297  73.340
H  40.118  42.118  46.167
H  39.359  41.117  45.314
H  40.891  32.337  50.943
H  40.585  33.582  50.129
H  44.977  44.942  70.337
H  40.915  57.153  50.653
H  41.788  55.962  51.008
H  43.873  45.968  70.147
H  39.730  51.241  47.448
H  38.303  50.766  47.234
H  54.873  65.777  67.080
H  53.470  65.461  67.566
H  59.793  60.469  61.008
H  34.326  45.522  57.953
H  33.709  46.379  56.862
H  59.702  61.160  59.659
H  62.516  58.807  51.888
H  64.625  37.246  47.298
H  45.319  56.459  30.363
H  41.736  69.344  45.250
H  63.744  38.485  51.415
H  41.141  59.495  52.015
H  64.720  59.943  43.761
H  63.470  60.799  43.875
H  65.465  36.113  58.164
H  66.269  37.394  58.298
H  37.006  35.912  43.883
H  39.252  60.098  69.175
H  39.947  60.273  67.835
H  38.499  35.639  43.867
H  34.626  61.583  51.677
H  34.132  63.002  51.461
H  33.621  49.273  51.759
H  34.603  48.172  51.400
H  33.664  41.336  35.402
H  55.044  62.435  60.180
H  53.566  62.661  59.912
H  33.630  39.818  35.400
H  60.677  31.938  39.341
H  61.545  31.099  40.262
H  40.454  37.835  66.465
H  41.954  37.971  66.264
H  44.772  35.313  56.761
H  32.987  36.841  40.596
H  33.963  35.771  40.139
H  44.780  36.242  57.962
H  37.572  67.081  61.293
H  38.868  67.793  60.947
H  44.645  54.937  65.272
H  65.152  37.917  51.399
H  45.792  54.688  64.309
H  40.171  59.052  53.096
H  41.526  42.815  51.271
H  47.205  55.058  30.088
H  46.708  54.248  28.903
H  35.714  41.202  46.662
H  42.167  34.048  36.108
H  41.277  32.818  36.090
H  42.378  62.679  55.791
H  41.377  63.144  54.748
H  61.253  50.722  55.065
H  46.364  35.989  36.102
H  47.354  35.772  37.233
H  60.543  50.417  53.758
H  46.623  69.334  59.924
H  46.284  70.628  59.204
H  49.349  30.831  58.939
H  48.409  31.053  60.112
H  52.551  42.179  55.249
H  67.064  41.434  44.131
H  67.430  39.974  44.332
H  52.809  43.413  56.096
H  63.337  44.344  58.200
H  64.764  44.709  58.571
H  62.760  70.471  51.725
H  63.181  69.109  52.249
H  42.529  50.431  39.883
H  63.747  52.957  44.916
H  62.440  52.297  44.513
H  42.049  50.578  38.450
H  50.307  66.267  53.453
H  51.112  67.404  54.059
H  42.079  41.402  51.219
H  41.047  70.322  44.315
H  40.335  53.485  41.322
H  43.897  68.236  53.786
H  46.308  30.991  40.108
H  46.066  32.327  39.427
H  36.673  40.731  57.194
H  36.339  39.886  55.977
H  50.136  30.425  35.823
H  56.005  40.653  68.673
H  55.284  39.362  68.329
H  51.155  31.469  35.401
H  47.783  69.876  56.389
H  48.141  70.319  54.981
H  67.803  38.175  45.544
H  66.916  38.690  46.664
H  32.410  34.658  56.198
H  57.071  46.980  67.777
H  57.272  45.904  66.724
H  33.469  35.527  55.542
H  65.494  50.776  51.325
H  66.113  50.373  52.653
H  40.190  69.965  42.174
H  39.407  69.283  43.281
H  51.041  56.579  37.104
H  39.229  60.198  45.168
H  40.646  60.737  45.240
H  50.947  56.050  38.525
H  39.080  32.438  56.695
H  39.473  33.859  57.060
H  62.681  50.323  46.142
H  63.062  51.703  46.650
H  45.025  54.970  30.373
H  36.069  53.811  68.466
H  44.971  69.249  53.428
H  61.890  61.559  63.456
H  35.558  55.240  68.425
H  39.680  52.237  41.890
H  58.362  65.321  39.889
H  57.908  64.266  40.883
H  41.570  57.864  41.863
H  42.589  56.752  42.043
H  53.053  42.532  66.837
H  54.083  57.690  40.524
H  53.374  59.016  40.740
H  54.501  42.202  67.156
H  35.368  54.712  34.871
H  34.457  55.632  35.665
H  64.046  39.766  36.460
H  64.958  38.702  37.045
H  38.317  43.480  46.307
H  60.552  40.501  49.563
H  59.971  39.282  48.869
H  37.190  43.500  45.290
H  63.916  43.265  55.103
H  64.858  44.293  55.706
H  35.157  55.125  54.132
H  35.596  54.859  55.562
H  58.750  29.932  49.656
H  49.933  42.962  64.186
H  49.467  44.385  63.931
H  60.124  30.569  49.547
H  59.776  55.413  70.040
H  60.992  54.605  69.624
H  45.305  50.305  62.466
H  45.114  48.838  62.123
H  61.807  60.179  64.086
H  36.442  49.044  54.471
H  36.924  49.822  53.259
H  47.066  45.248  56.418
H  51.198  40.718  52.700
H  67.390  54.234  56.487
H  64.086  56.634  50.660
H  64.754  55.272  50.723
H  68.133  54.199  55.163
H  45.307  72.531  56.912
H  44.962  71.132  57.391
H  70.141  58.021  50.810
H  68.752  57.408  50.848
H  54.387  71.536  46.797
H  67.544  55.009  60.922
H  67.465  54.430  62.324
H  53.973  70.528  45.739
H  60.605  40.098  54.109
H  61.440  40.982  53.200
H  41.007  35.323  34.755
H  39.761  35.665  33.958
H  54.398  46.192  27.801
H  32.222  51.499  54.209
H  33.552  52.232  54.204
H  54.730  46.906  29.099
H  31.630  59.240  48.663
H  30.385  59.202  47.795
H  44.128  62.009  30.860
H  42.630  62.224  30.727
H  45.232  31.149  37.769
H  44.987  35.758  53.691
H  45.641  34.389  53.645
H  44.558  32.382  37.196
H  50.571  41.744  51.773
H  33.294  65.434  48.076
H  47.223  62.949  67.352
H  36.672  41.291  54.302
H  51.107  69.886  58.605
H  49.605  69.893  58.831
H  29.847  52.276  58.557
H  38.473  64.273  39.441
H  37.443  63.944  38.374
H  30.993  51.337  58.893
H  27.901  49.024  54.430
H  26.985  47.864  54.078
H  33.106  48.364  66.175
H  32.323  47.122  65.784
H  61.521  65.350  54.026
H  42.265  52.106  69.310
H  37.281  36.944  61.376
H  62.255  64.315  54.859
H  59.837  50.739  44.488
H  60.978  49.797  44.831
H  51.743  56.415  34.012
H  53.195  56.835  34.167
H  37.919  47.745  45.506
H  67.449  53.409  65.954
H  66.122  52.696  65.766
H  38.576  48.223  44.223
H  60.606  45.652  54.557
H  60.038  46.935  53.977
H  52.150  59.065  33.855
H  52.629  60.361  33.225
H  36.052  42.247  55.306
H  61.654  66.818  50.963
H  60.674  65.774  50.454
H  48.345  63.762  66.731
H  65.071  42.960  35.083
H  34.519  64.568  48.316
H  35.375  61.530  63.464
H  51.007  72.239  58.441
H  52.402  72.359  57.853
H  47.576  51.893  68.080
H  56.106  57.002  61.661
H  57.038  55.809  61.537
H  73.386  46.069  45.290
H  72.657  45.106  46.210
H  64.953  47.231  34.670
H  54.218  37.991  63.105
H  52.820  38.201  63.659
H  63.542  47.733  34.920
H  69.543  57.496  53.606
H  68.343  56.564  53.602
H  33.837  35.033  43.558
H  33.419  34.091  42.442
H  69.179  47.111  45.115
H  56.471  37.109  48.566
H  55.383  37.903  47.864
H  67.978  46.248  44.771
H  44.744  43.319  28.996
H  43.358  43.284  29.617
H  46.098  66.286  48.772
H  45.470  65.092  49.470
H  46.517  45.840  68.305
H  52.902  55.076  39.801
H  54.303  55.073  40.386
H  45.524  46.018  67.170
H  62.237  41.038  60.211
H  63.600  41.655  60.469
H  48.062  53.329  67.995
H  35.317  60.132  62.874
H  40.278  36.288  64.244
H  46.757  56.310  69.737
H  59.372  51.659  31.959
H  51.553  58.181  71.833
H  50.566  59.335  71.796
H  59.844  50.784  30.811
H  55.464  60.714  41.412
H  56.402  60.749  40.219
H  53.670  63.792  62.640
H  53.003  64.903  63.433
H  31.390  37.701  57.003
H  33.529  40.008  45.020
H  33.833  41.495  45.057
H  32.214  38.734  57.751
H  41.737  44.698  30.083
H  40.765  43.625  30.542
H  43.115  59.471  43.342
H  43.268  59.763  41.859
H  68.387  39.781  51.315
H  47.328  36.757  58.535
H  48.630  37.315  57.987
H  67.182  39.004  51.815
H  70.582  46.003  53.135
H  71.268  47.357  53.189
H  43.249  43.462  69.201
H  41.796  43.176  68.865
H  42.709  29.268  43.022
H  42.824  66.347  47.429
H  43.398  66.080  46.049
H  41.346  29.937  43.017
H  47.227  55.242  68.765
H  40.886  36.228  62.853
H  65.012  41.641  35.834
H  34.323  68.277  49.871
H  43.290  57.438  52.900
H  45.385  39.951  70.396
H  37.776  54.227  35.136
H  57.185  67.237  50.005
H  57.870  67.779  51.247
H  31.511  62.014  44.977
H  33.028  62.035  45.055
H  56.745  44.217  61.852
H  38.562  61.951  62.904
H  39.580  61.053  63.584
H  56.799  45.705  61.554
H  55.847  37.313  58.589
H  56.922  38.380  58.697
H  55.288  51.811  62.784
H  54.960  52.379  61.414
H  41.823  34.325  51.990
H  47.342  66.638  39.940
H  47.822  68.078  39.967
H  43.315  34.051  52.038
H  60.297  42.541  41.039
H  58.961  42.912  41.658
H  37.844  33.293  59.484
H  37.517  34.746  59.193
H  45.159  70.600  61.480
H  43.568  31.162  51.688
H  43.774  29.702  51.325
H  44.148  69.470  61.559
H  66.680  62.583  41.555
H  68.140  62.907  41.819
H  55.027  52.257  27.032
H  44.273  40.952  70.655
H  53.664  52.860  26.742
H  38.662  54.029  33.918
H  58.274  57.572  57.881
H  35.516  40.840  39.902
H  35.238  39.356  39.740
H  45.989  44.198  56.625
H  57.687  60.011  57.703
H  58.751  60.922  57.117
H  57.811  43.435  30.597
H  56.691  43.248  29.589
H  50.408  59.136  62.275
H  67.467  35.006  46.369
H  66.281  35.867  46.768
H  51.066  57.778  62.450
H  55.896  26.692  47.336
H  56.960  27.776  47.350
H  66.595  58.843  51.266
H  67.571  59.998  51.406
H  37.009  46.055  37.509
H  41.262  57.343  67.798
H  41.248  55.879  67.391
H  35.909  47.076  37.741
H  41.948  60.697  70.146
H  43.386  60.730  69.657
H  50.131  60.897  32.891
H  48.637  60.676  32.739
H  68.914  48.552  40.442
H  33.562  35.926  49.858
H  33.552  34.522  49.279
H  69.619  49.868  40.163
H  58.725  70.398  40.373
H  59.865  70.332  41.374
H  59.514  58.448  57.922
H  49.646  35.307  54.502
H  57.185  56.647  33.912
H  57.538  56.879  35.371
H  62.222  38.948  53.030
H  53.639  58.927  30.020
H  54.332  57.928  29.110
H  39.916  50.046  67.982
H  46.899  35.384  33.304
H  46.964  36.899  33.227
H  38.633  50.137  67.174
H  72.744  52.045  52.292
H  73.303  53.003  53.330
H  38.547  33.955  63.645
H  37.373  34.856  63.987
H  65.714  39.839  58.442
H  45.430  37.905  54.170
H  45.829  39.123  54.984
H  64.531  40.791  58.420
H  59.080  68.230  49.336
H  58.028  69.326  49.328
H  51.633  37.842  67.947
H  52.706  38.812  67.485
H  65.381  54.167  61.583
H  37.698  54.425  43.824
H  38.459  55.265  44.836
H  63.951  53.915  61.137
H  54.518  40.773  54.843
H  53.157  40.099  54.865
H  42.201  56.622  69.685
H  43.167  56.202  68.591
H  35.499  69.238  49.890
H  42.471  58.261  53.880
H  62.227  37.462  52.715
H  46.416  46.072  58.368
H  48.053  48.522  35.690
H  48.833  47.227  35.835
H  49.968  36.751  54.842
H  38.734  41.804  48.533
H  37.341  42.410  48.569
H  64.502  61.760  34.666
H  64.185  61.058  35.974
H  30.947  55.310  42.075
H  31.524  53.694  64.614
H  33.014  53.853  64.370
H  31.399  56.585  42.765
H  63.781  52.317  42.205
H  62.273  52.266  42.034
H  51.479  31.089  58.444
H  52.751  30.889  57.639
H  32.308  43.554  51.063
H  37.227  41.331  46.654
H  60.910  58.691  68.769
H  31.933  43.426  49.597
H  51.726  48.979  26.254
H  50.431  49.646  25.826
H  56.155  47.543  65.721
H  55.523  48.895  65.441
H  43.602  71.512  49.546
H  36.171  43.903  65.084
H  37.637  43.693  65.420
H  42.116  71.697  49.293
H  47.981  32.895  38.438
H  49.432  32.612  38.093
H  42.544  63.342  49.469
H  43.762  63.152  50.356
H  47.902  45.760  58.388
H  62.307  59.274  68.646
H  35.261  49.768  56.208
H  38.781  57.013  51.165
H  64.661  59.382  41.532
H  58.399  55.739  49.963
H  43.693  59.062  63.834
H  47.648  38.044  46.072
H  47.795  37.206  47.330
H  51.256  53.494  39.291
H  49.917  53.141  39.915
H  47.703  33.359  33.129
H  46.211  49.236  72.823
H  47.668  48.974  73.164
H  49.222  33.395  33.123
H  55.382  54.445  69.184
H  53.896  54.467  69.494
H  58.261  31.297  57.390
H  59.171  32.513  57.416
H  41.745  60.225  34.094
H  58.606  29.803  42.417
H  59.982  30.291  42.834
H  41.111  61.130  35.136
H  28.963  57.429  44.254
H  28.881  57.092  42.776
H  43.575  62.176  59.679
H  42.307  63.010  59.642
H  70.176  45.846  41.855
H  56.522  49.208  50.707
H  57.999  49.291  51.048
H  68.715  45.905  42.265
H  62.149  57.689  48.200
H  62.875  56.411  48.580
H  42.810  65.512  55.299
H  57.982  57.197  50.039
H  42.557  66.901  55.860
H  44.537  60.105  64.546
H  56.493  57.272  30.511
H  54.674  53.682  72.623
H  54.102  52.730  73.660
H  51.849  50.744  69.608
H  47.741  42.635  38.595
H  46.840  41.453  38.282
H  59.830  62.922  53.177
H  60.710  63.672  52.192
H  56.369  54.383  38.828
H  39.500  52.445  61.851
H  40.207  53.662  62.419
H  56.277  55.750  39.482
H  58.717  35.954  45.782
H  58.711  36.602  47.156
H  31.872  56.821  36.943
H  31.904  58.118  36.153
H  70.509  48.976  51.557
H  39.654  45.707  66.687
H  38.786  45.708  65.441
H  70.018  47.549  51.387
H  49.360  67.288  60.830
H  48.393  68.457  60.892
H  62.872  49.901  38.167
H  62.881  49.113  36.870
H  45.809  58.029  55.906
H  57.837  51.645  50.280
H  57.967  51.248  48.820
H  44.762  57.191  55.195
H  40.762  51.737  40.050
H  39.544  50.835  40.137
H  57.561  56.566  31.328
H  51.217  51.713  68.624
H  47.778  52.282  26.021
H  55.084  38.181  45.124
H  32.589  59.674  46.720
H  34.073  59.932  46.528
H  40.507  48.522  59.800
H  41.459  49.428  59.038
H  46.426  49.307  29.647
H  62.745  33.829  39.309
H  62.503  33.622  40.794
H  47.735  50.063  29.800
H  43.013  36.363  62.341
H  42.283  37.603  61.856
H  52.685  67.077  33.753
H  53.906  66.679  32.942
H  41.618  33.988  63.703
H  34.654  41.173  59.192
H  34.432  41.672  57.774
H  40.503  32.964  63.837
H  34.232  50.430  68.337
H  33.120  50.416  67.302
H  49.823  37.169  35.802
H  48.427  37.469  35.283
H  56.069  59.578  71.368
H  61.137  44.938  48.992
H  60.260  46.164  49.174
H  55.400  58.501  70.532
H  62.880  70.167  48.273
H  63.431  68.940  47.568
H  44.084  68.277  47.023
H  42.796  68.952  47.462
H  60.262  31.108  46.627
H  49.277  38.935  59.329
H  55.955  36.950  44.943
H  66.238  55.730  54.140
H  50.522  39.795  59.206
H  49.273  52.020  26.043
H  33.602  38.969  50.416
H  32.553  38.122  51.115
H  49.862  35.067  68.022
H  49.736  36.544  67.692
H  35.257  57.814  59.751
H  67.848  62.873  51.566
H  66.460  63.419  51.277
H  34.886  59.283  59.644
H  57.195  32.343  38.347
H  56.730  33.308  39.424
H  32.555  40.603  59.527
H  31.315  39.727  59.498
H  58.808  48.201  70.242
H  52.445  62.570  36.096
H  53.411  61.542  36.659
H  58.984  47.851  71.710
H  39.618  40.778  61.546
H  41.085  40.502  61.827
H  51.117  33.811  34.868
H  51.588  33.289  33.521
H  56.209  55.536  49.883
H  55.368  56.683  27.591
H  56.828  56.405  27.903
H  55.745  55.628  48.440
H  45.406  60.471  61.592
H  45.583  58.963  61.594
H  53.267  39.914  62.175
H  54.551  40.726  62.173
H  65.655  54.332  54.248
H  62.814  54.408  41.211
H  31.156  57.838  59.502
H  43.128  46.456  64.810
H  58.516  35.954  42.896
H  58.091  37.380  42.593
H  35.225  37.839  38.116
H  30.994  56.447  56.037
H  31.812  55.992  57.233
H  35.434  36.363  37.829
H  39.978  43.788  58.878
H  41.260  44.553  59.156
H  40.832  36.149  43.203
H  41.393  37.013  44.319
H  69.158  59.516  59.424
H  59.158  57.616  34.077
H  60.492  58.275  34.385
H  68.852  58.870  58.084
H  50.199  41.435  30.371
H  48.919  42.012  30.950
H  41.651  66.380  61.266
H  40.518  65.809  60.431
H  31.030  59.455  43.532
H  63.240  56.597  54.716
H  62.602  57.462  53.643
H  32.054  58.384  43.863
H  36.421  59.656  55.952
H  36.363  58.561  57.003
H  49.189  36.304  69.902
H  48.096  37.317  70.198
H  36.470  31.337  57.302
H  32.554  58.930  62.954
H  33.268  58.975  64.294
H  64.534  67.796  49.456
H  37.532  30.404  56.747
H  64.842  68.630  50.688
H  55.639  29.820  45.860
H  53.895  38.309  65.721
H  42.325  53.945  39.298
H  41.214  54.087  38.273
H  58.730  57.325  71.208
H  38.597  53.568  50.752
H  40.109  53.515  50.620
H  59.673  58.318  70.552
H  36.333  66.449  49.968
H  36.515  65.080  49.337
H  56.418  69.970  44.700
H  57.617  70.894  44.577
H  65.299  42.379  43.207
H  59.504  42.622  51.060
H  58.108  43.211  50.968
H  64.863  40.927  43.130
H  49.217  52.051  66.620
H  50.123  53.170  66.137
H  56.826  41.255  61.593
H  57.489  41.682  62.891
H  47.917  72.325  41.659
H  40.905  47.080  58.184
H  42.179  47.369  58.959
H  46.404  72.426  41.739
H  43.154  58.352  37.347
H  42.882  59.209  36.123
H  41.887  56.693  63.692
H  41.722  55.214  63.391
H  36.447  62.468  40.829
H  57.121  29.491  45.870
H  36.796  61.874  42.183
H  29.935  57.617  60.378
H  47.002  48.067  33.650
H  37.812  48.154  57.144
H  66.444  48.398  41.920
H  43.976  43.380  65.893
H  43.936  44.874  66.164
H  66.610  47.758  43.287
H  36.405  49.384  64.450
H  35.975  47.929  64.384
H  44.743  45.339  63.741
H  45.372  46.307  62.755
H  36.017  54.577  58.747
H  34.082  64.720  53.160
H  33.661  66.177  53.234
H  35.644  53.328  57.967
H  60.928  44.051  51.870
H  60.652  45.482  52.299
H  51.825  54.076  67.328
H  52.554  55.267  67.925
H  42.275  41.652  57.728
H  62.192  49.497  48.122
H  61.100  49.119  47.136
H  41.700  40.332  58.211
H  55.290  50.636  31.549
H  56.628  50.749  32.259
H  69.459  60.021  54.905
H  70.964  59.838  54.819
H  41.917  56.981  44.138
H  46.553  61.319  42.239
H  47.403  62.576  42.285
H  43.075  57.533  44.950
H  42.995  47.621  63.846
H  60.219  36.009  39.568
H  46.851  48.876  32.373
H  59.832  34.541  39.577
H  40.171  53.874  59.697
H  38.844  48.027  58.250
H  67.071  43.625  35.830
H  44.967  32.429  49.622
H  45.740  31.674  50.689
H  68.422  42.995  36.118
H  42.335  58.400  32.727
H  43.361  58.597  33.830
H  40.530  37.541  37.352
H  39.412  38.459  37.815
H  41.399  52.871  33.205
H  42.943  34.477  55.179
H  41.653  35.260  55.350
H  41.136  52.828  34.700
H  45.596  36.712  65.613
H  44.600  37.767  66.059
H  57.449  32.024  60.881
H  56.170  32.092  61.697
H  48.895  64.836  58.877
H  56.295  59.031  36.728
H  56.672  60.006  35.627
H  49.501  63.455  59.046
H  52.761  35.319  45.162
H  51.639  34.296  45.188
H  62.498  54.033  63.971
H  64.006  54.151  64.111
H  33.532  42.286  52.385
H  46.058  69.582  45.953
H  44.765  69.860  45.206
H  33.069  40.840  52.388
H  41.334  52.899  59.637
H  63.342  54.447  42.634
H  58.882  30.495  46.795
H  67.319  41.750  56.608
H  55.422  69.585  50.790
H  56.760  69.943  51.413
H  36.723  66.198  39.660
H  30.970  35.797  46.260
H  32.305  36.486  46.039
H  35.845  64.959  39.641
H  63.508  46.890  30.175
H  62.255  47.735  30.020
H  51.543  41.922  36.653
H  50.927  43.297  36.842
H  52.318  34.012  49.223
H  58.715  31.437  44.815
H  59.344  32.315  43.747
H  52.167  33.739  50.710
H  58.487  46.084  69.225
H  58.091  45.407  70.526
H  45.483  31.710  55.301
H  44.934  33.012  55.857
H  66.428  56.560  43.741
H  30.725  36.331  50.208
H  31.237  35.575  48.994
H  64.956  56.213  43.603
H  62.986  44.046  34.272
H  63.319  45.285  35.085
H  55.585  57.926  42.098
H  56.257  57.854  43.458
H  36.176  60.112  34.605
H  54.374  51.218  68.151
H  55.157  52.518  68.090
H  60.293  66.822  63.358
H  35.220  59.523  33.582
H  60.580  65.368  63.028
H  58.923  39.728  32.145
H  30.996  50.084  45.696
H  46.144  61.233  44.403
H  44.814  60.783  43.823
H  36.481  57.021  48.983
H  42.970  49.300  62.424
H  43.009  50.817  62.386
H  35.721  55.729  49.224
H  63.101  64.842  46.608
H  64.287  65.184  47.493
H  32.507  63.230  43.136
H  33.987  63.177  42.798
H  33.033  44.439  46.048
H  44.412  64.770  39.477
H  44.107  63.284  39.541
H  34.030  43.317  46.280
H  35.653  50.031  36.100
H  36.266  50.373  37.447
H  59.539  55.828  63.181
H  60.931  56.430  63.105
H  32.340  47.515  46.852
H  49.371  62.361  53.482
H  48.336  61.318  53.097
H  31.924  46.538  47.938
H  27.613  51.035  56.019
H  28.338  51.017  57.354
H  46.607  67.752  64.026
H  45.624  68.732  64.643
H  59.118  62.688  65.771
H  57.878  38.650  32.372
H  60.586  62.895  65.445
H  31.241  48.638  45.301
H  69.813  45.507  46.509
H  66.568  52.243  54.532
H  39.113  57.900  69.775
H  32.468  41.608  37.546
H  33.826  41.547  38.222
H  40.464  58.133  70.428
H  39.664  65.152  36.730
H  40.264  64.368  37.884
H  54.541  67.287  43.678
H  55.825  66.515  43.927
H  37.196  63.803  35.952
H  64.114  44.314  44.189
H  62.909  43.392  44.123
H  37.649  65.250  35.857
H  33.483  58.578  34.547
H  34.631  57.753  35.101
H  52.378  54.837  62.890
H  52.713  53.422  62.453
H  66.885  64.569  40.631
H  40.956  51.947  67.550
H  41.082  52.682  66.227
H  66.175  64.028  39.402
H  44.939  37.694  68.959
H  45.821  37.809  70.190
H  45.986  28.822  43.137
H  45.542  27.481  42.578
H  48.272  59.787  49.864
H  46.334  49.837  36.108
H  45.132  49.118  36.696
H  49.276  59.177  50.826
H  66.057  59.037  41.044
H  39.719  45.344  60.554
H  70.999  46.310  47.012
H  39.043  46.470  59.791
H  69.167  38.195  47.221
H  67.984  51.959  55.002
H  45.633  44.492  33.912
H  45.141  66.504  62.615
H  44.118  65.460  62.204
H  44.388  43.643  34.101
H  58.160  53.730  37.387
H  58.380  54.847  36.382
H  44.815  39.234  41.720
H  45.716  40.183  40.950
H  49.955  67.207  39.604
H  56.275  49.478  62.011
H  55.229  50.114  61.112
H  49.856  67.544  41.082
H  35.858  56.943  65.319
H  35.181  55.600  65.532
H  51.220  28.650  44.899
H  51.206  28.310  46.379
H  42.184  45.338  71.408
H  58.016  36.117  62.891
H  58.395  36.940  64.110
H  42.124  43.969  72.061
H  60.766  36.434  35.703
H  59.887  35.736  36.726
H  52.177  69.635  38.521
H  51.258  68.441  38.332
H  56.136  41.532  71.804
H  35.501  44.614  60.931
H  36.850  43.917  60.929
H  57.428  42.265  71.489
H  68.900  36.760  46.801
H  51.262  36.078  41.409
H  43.073  38.750  64.400
H  42.404  37.403  64.188
H  47.238  66.221  62.006
H  46.780  64.787  62.204
H  41.968  67.067  42.260
H  62.680  34.953  55.288
H  62.414  36.345  54.741
H  54.635  66.809  61.685
H  54.084  68.185  62.015
H  55.658  43.299  64.684
H  52.604  64.141  46.942
H  53.738  63.226  46.513
H  56.241  44.545  65.327
H  56.215  40.746  34.519
H  56.618  39.283  34.457
H  50.683  43.982  60.999
H  50.627  45.069  62.057
H  47.737  70.697  43.982
H  38.594  51.548  34.017
H  39.901  51.002  34.565
H  47.162  71.858  44.774
H  46.321  51.899  61.295
H  47.438  51.046  61.870
H  30.396  40.489  40.211
H  30.903  41.371  39.084
H  37.322  45.253  31.071
H  38.953  47.751  66.252
H  37.643  47.557  66.996
H  35.864  45.679  31.034
H  65.002  61.817  48.263
H  65.271  63.281  47.960
H  42.260  65.757  42.971
H  55.134  64.404  39.406
H  51.656  46.899  30.607
H  54.745  37.860  54.651
H  67.044  40.258  56.558
H  41.292  38.059  58.794
H  40.001  38.804  58.507
H  55.333  40.576  45.959
H  54.343  39.647  46.639
H  38.787  52.164  53.343
H  57.884  66.675  62.794
H  56.465  66.147  62.912
H  46.198  45.498  72.448
H  68.098  51.805  50.530
H  67.370  50.909  49.543
H  46.743  46.886  72.736
H  39.530  31.813  43.830
H  40.187  32.435  42.610
H  33.305  62.452  37.722
H  34.053  61.731  38.829
H  58.454  37.860  39.031
H  48.337  48.312  59.782
H  47.507  49.443  60.364
H  57.361  36.973  39.601
H  50.891  59.590  37.078
H  50.420  59.777  38.510
H  32.229  49.112  43.305
H  32.159  50.626  43.388
H  61.270  66.547  43.230
H  63.645  57.788  66.061
H  63.106  57.199  64.769
H  60.339  65.872  42.238
H  55.852  38.866  54.390
H  51.209  45.613  31.281
H  53.928  63.970  40.221
H  56.308  60.865  61.061
H  56.420  35.218  47.443
H  35.532  34.516  44.862
H  35.626  33.329  45.806
H  69.492  48.463  35.765
H  68.674  47.346  36.389
H  51.782  39.488  70.922
H  45.139  40.301  30.795
H  45.318  41.766  31.154
H  53.173  39.220  70.374
H  56.766  53.291  48.372
H  58.264  53.445  48.174
H  54.282  54.735  34.838
H  54.291  54.979  33.339
H  38.292  57.772  53.288
H  54.507  33.658  65.936
H  55.229  34.994  65.928
H  37.563  56.516  53.731
H  34.472  64.820  45.617
H  34.625  63.455  46.265
H  65.022  49.535  66.563
H  65.052  51.043  66.748
H  39.259  36.788  50.723
H  63.042  44.787  47.906
H  64.226  44.754  48.856
H  38.850  38.211  50.386
H  41.935  42.651  60.042
H  42.552  41.263  60.053
H  53.837  59.116  60.970
H  53.975  57.780  61.679
H  51.349  35.916  42.916
H  65.526  51.141  61.539
H  43.184  49.120  55.915
H  42.993  50.619  55.762
H  65.268  49.687  61.894
H  57.790  34.609  47.200
H  57.582  61.690  61.104
H  65.725  56.493  41.374
H  67.102  57.094  41.597
H  42.901  39.226  56.069
H  41.859  38.157  55.788
H  54.304  50.499  39.553
H  55.620  59.675  28.586
H  56.003  59.361  30.022
H  53.470  49.418  38.887
H  43.545  56.576  58.137
H  43.548  57.969  58.742
H  68.968  56.725  44.426
H  68.196  56.652  45.732
H  37.424  56.356  50.979
H  56.881  46.119  36.793
H  31.044  51.908  41.550
H  57.815  45.379  35.851
H  47.602  38.284  52.239
H  46.921  39.641  52.221
H  57.839  45.119  41.895
H  56.590  44.907  41.057
H  47.615  71.417  60.772
H  62.603  40.798  32.835
H  63.896  41.546  33.108
H  49.037  70.884  60.778
H  52.176  52.239  41.320
H  52.191  50.721  41.287
H  51.935  69.762  36.185
H  50.444  69.662  35.915
H  29.855  50.963  41.542
H  40.256  52.515  53.500
