8002
Supercell generated
Cl  42.019  54.910  58.390
Cl  68.946  60.901  65.315
Cl  61.785  35.085  61.569
Cl  33.005  57.747  60.268
Cl  35.823  33.131  52.039
Cl  66.049  54.238  70.543
Cl  53.310  42.618  62.164
Cl  65.093  61.643  60.360
Na  51.570  37.923  65.464
Na  66.382  55.396  67.429
Na  42.883  65.159  53.531
Na  29.980  44.982  48.674
Na  33.036  48.148  45.506
Na  37.309  56.382  46.035
O  49.458  43.786  30.501
O  71.616  62.613  43.841
O  54.431  29.089  60.949
O  56.334  46.544  57.859
O  45.639  42.765  30.178
O  28.565  64.132  52.523
O  49.918  64.743  37.236
O  58.740  70.341  39.940
O  63.119  51.841  34.906
O  62.468  31.766  35.642
O  39.185  50.686  51.406
O  65.955  57.257  45.468
O  53.146  54.087  43.207
O  52.329  63.769  53.349
O  35.673  62.534  37.667
O  35.225  39.818  67.532
O  32.429  50.226  59.838
O  38.352  53.325  57.156
O  63.442  51.704  52.380
O  35.619  60.157  52.720
O  40.556  56.415  60.573
O  46.002  43.199  55.081
O  36.677  48.815  47.654
O  38.542  63.749  33.736
O  42.511  67.565  48.435
O  34.416  30.061  44.162
O  46.434  61.694  60.071
O  37.827  56.318  40.531
O  62.949  54.548  48.288
O  47.804  31.943  66.124
O  66.309  61.856  44.438
O  42.333  66.277  30.617
O  41.942  42.851  47.576
O  53.866  35.312  61.483
O  40.071  72.017  47.712
O  51.448  33.739  30.052
O  40.558  45.484  31.346
O  70.490  65.442  42.650
O  69.880  40.904  55.409
O  33.246  34.185  47.874
O  47.590  52.022  39.941
O  56.514  36.540  51.479
O  67.221  57.343  52.784
O  40.871  52.001  60.676
O  57.282  61.676  45.674
O  31.140  43.194  36.931
O  42.325  56.075  55.595
O  28.981  53.160  54.765
O  30.845  61.588  54.243
O  41.843  52.755  28.918
O  55.831  29.943  49.654
O  56.700  69.745  37.719
O  49.132  59.660  68.315
O  54.744  40.525  42.258
O  60.872  39.563  64.963
O  45.672  51.771  30.154
O  49.160  73.926  59.553
O  36.667  51.418  55.977
O  46.103  52.177  68.198
O  58.887  49.496  40.552
O  59.072  34.270  55.461
O  73.319  50.642  55.410
O  62.255  41.402  52.500
O  45.828  27.270  47.356
O  48.543  54.542  37.301
O  60.685  54.921  46.918
O  64.187  40.369  40.810
O  49.299  39.179  35.492
O  72.936  37.937  53.406
O  68.798  62.721  38.806
O  63.986  39.400  56.450
O  56.112  54.685  44.563
O  57.218  34.705  53.734
O  57.664  62.494  67.971
O  48.566  50.642  37.898
O  58.418  68.910  46.200
O  48.599  28.448  51.482
O  44.932  54.060  70.219
O  69.527  44.497  36.200
O  55.217  63.171  57.754
O  43.721  35.772  54.859
O  42.593  50.151  28.363
O  45.746  40.454  65.521
O  33.122  54.084  29.804
O  34.702  61.778  60.639
O  36.938  53.854  32.109
O  46.094  32.970  62.505
O  58.553  67.416  33.804
O  50.058  36.680  64.457
O  48.226  59.349  38.628
O  36.242  32.121  56.316
O  56.493  39.481  49.975
O  56.845  40.006  59.116
O  56.219  43.178  50.383
O  46.815  52.756  27.176
O  64.536  50.361  43.498
O  44.315  60.868  27.168
O  38.346  62.504  49.251
O  65.446  57.921  61.178
O  30.011  37.040  47.604
O  51.485  49.719  37.022
O  47.321  39.376  32.447
O  45.479  37.071  45.835
O  72.047  55.981  53.948
O  42.098  34.600  39.753
O  62.212  60.869  55.893
O  34.438  42.047  65.189
O  29.366  57.834  49.771
O  50.837  70.535  47.325
O  33.000  38.978  47.173
O  67.893  43.393  49.534
O  64.497  41.699  35.729
O  42.184  73.362  55.022
O  42.081  47.396  37.223
O  60.625  38.561  45.813
O  35.008  46.700  30.961
O  55.369  41.223  31.332
O  72.575  38.325  44.905
O  35.019  46.921  47.852
O  58.817  59.074  44.670
O  47.355  29.588  65.462
O  63.071  39.971  34.152
O  61.437  51.583  49.324
O  28.670  62.265  51.102
O  63.593  61.050  36.916
O  46.105  53.472  72.985
O  35.948  62.955  68.159
O  51.732  39.982  74.002
O  57.276  29.775  46.485
O  55.575  60.106  49.080
O  72.663  54.517  61.894
O  61.467  59.486  62.265
O  41.498  45.554  42.856
O  47.233  39.255  61.236
O  62.284  46.261  61.836
O  42.080  75.203  49.446
O  48.130  64.895  61.250
O  62.844  55.129  37.524
O  61.898  63.262  31.376
O  49.010  32.184  42.150
O  60.683  51.416  39.420
O  69.292  44.854  58.746
O  71.104  53.118  53.639
O  60.220  60.995  37.361
O  73.941  52.730  40.984
O  48.773  62.599  67.639
O  37.905  59.937  55.592
O  61.684  59.602  44.628
O  44.540  43.935  58.336
O  29.853  36.420  41.567
O  42.088  67.319  50.580
O  51.996  41.256  71.573
O  69.743  62.191  44.916
O  32.580  36.734  53.741
O  44.286  75.195  56.632
O  29.871  63.914  49.603
O  39.522  49.577  55.598
O  56.016  65.752  58.426
O  65.572  50.785  32.067
O  72.608  45.051  43.961
O  41.670  28.824  37.310
O  43.393  32.617  67.757
O  57.433  50.035  42.950
O  56.696  38.719  53.014
O  49.475  62.843  50.641
O  50.956  63.223  29.005
O  69.535  61.354  56.415
O  66.050  34.290  45.343
O  70.183  58.090  48.221
O  59.913  51.611  42.693
O  71.412  60.065  45.797
O  35.047  44.531  48.975
O  37.710  44.343  44.770
O  51.471  58.724  29.973
O  55.442  71.694  36.069
O  59.731  42.811  59.269
O  59.194  33.449  40.636
O  59.785  41.756  53.586
O  44.805  49.782  59.557
O  42.356  25.874  46.054
O  27.257  59.180  55.837
O  26.809  61.838  50.008
O  49.053  68.793  51.359
O  42.531  38.127  46.041
O  47.082  25.027  43.331
O  46.081  45.808  28.571
O  65.296  51.333  29.033
O  56.772  53.781  50.011
O  38.510  48.558  50.308
O  56.327  49.689  59.618
O  47.252  34.634  66.632
O  37.864  45.526  53.352
O  43.420  31.206  34.199
O  63.763  31.320  50.558
O  51.361  67.188  58.480
O  36.171  37.363  55.639
O  42.394  62.720  66.723
O  45.729  29.830  42.564
O  56.209  46.301  65.389
O  70.550  53.316  34.893
O  28.120  65.282  50.199
O  38.079  51.378  36.514
O  31.693  61.357  35.430
O  59.251  50.029  33.822
O  50.592  45.631  33.398
O  58.047  33.381  51.284
O  72.317  52.435  50.388
O  41.312  67.614  36.907
O  39.556  45.127  46.391
O  61.784  44.005  39.888
O  51.928  28.024  35.989
O  38.259  32.748  34.670
O  46.531  41.858  59.280
O  34.847  64.230  51.817
O  57.748  47.863  48.315
O  49.875  49.110  72.553
O  57.494  43.105  36.982
O  44.415  61.065  35.740
O  52.443  50.335  75.353
O  48.109  75.725  46.303
O  53.560  38.022  58.352
O  54.415  36.440  52.129
O  45.020  54.175  60.834
O  62.088  47.996  39.543
O  46.152  38.200  69.384
O  48.172  40.399  50.230
O  43.027  71.234  56.211
O  38.510  55.318  66.784
O  47.619  59.561  42.266
O  40.950  42.191  33.843
O  24.171  48.471  46.839
O  44.126  34.523  33.432
O  62.289  53.450  66.923
O  38.309  41.429  62.534
O  51.788  65.481  39.914
O  50.180  60.456  59.616
O  35.755  55.434  29.969
O  57.118  60.635  61.636
O  34.114  36.934  63.430
O  42.268  40.588  31.770
O  62.098  65.686  43.057
O  58.178  46.822  42.220
O  54.563  67.766  55.921
O  57.504  55.072  51.880
O  27.861  53.405  50.002
O  65.360  46.036  49.699
O  44.691  74.545  49.469
O  59.080  63.185  30.206
O  67.244  43.192  44.863
O  58.256  64.478  64.252
O  33.856  36.417  41.322
O  42.011  44.653  37.853
O  59.386  30.225  56.506
O  54.134  67.366  52.807
O  37.418  54.991  70.978
O  35.052  58.267  69.432
O  67.073  53.047  62.498
O  51.255  76.022  49.451
O  60.080  50.036  31.744
O  70.893  60.748  41.001
O  62.475  38.114  31.680
O  72.816  39.196  55.729
O  58.787  49.708  68.820
O  70.446  50.724  34.658
O  60.326  44.755  46.447
O  56.612  38.456  39.721
O  49.826  40.026  55.122
O  59.279  69.012  65.262
O  61.192  58.612  71.860
O  56.659  36.920  71.842
O  46.241  68.526  45.268
O  69.561  50.564  63.581
O  35.415  55.532  65.281
O  59.832  58.001  40.284
O  50.629  36.350  32.386
O  65.739  63.939  60.500
O  59.943  52.349  66.793
O  48.859  74.161  43.652
O  42.636  63.617  39.900
O  29.507  55.732  42.715
O  51.758  30.634  46.884
O  30.693  51.282  53.179
O  40.351  51.638  46.702
O  37.885  28.496  50.553
O  39.297  49.181  45.982
O  36.046  57.863  42.347
O  61.289  52.396  46.890
O  54.434  43.204  31.097
O  46.285  72.717  47.370
O  67.992  45.343  66.210
O  47.746  39.734  41.885
O  49.552  38.228  39.447
O  59.923  26.460  45.358
O  46.788  43.595  74.862
O  60.486  60.257  70.573
O  60.789  57.621  27.876
O  39.069  54.177  34.228
O  56.507  63.747  48.598
O  48.323  59.818  58.623
O  56.044  50.682  67.929
O  37.215  54.949  35.890
O  65.018  60.554  57.983
O  35.559  56.982  63.516
O  47.578  60.609  47.342
O  62.122  38.189  38.468
O  53.528  69.401  45.460
O  69.143  49.466  33.100
O  70.712  60.973  50.652
O  59.363  39.053  49.470
O  61.926  48.461  32.363
O  48.631  65.407  55.811
O  32.615  45.823  33.273
O  51.814  40.091  66.660
O  54.321  71.707  64.429
O  39.668  33.469  43.890
O  49.666  56.452  73.789
O  33.228  55.224  54.260
O  44.198  49.762  75.120
O  46.675  45.249  31.972
O  53.267  45.982  64.311
O  51.375  33.335  55.596
O  31.890  39.006  61.890
O  36.187  62.850  41.800
O  32.696  43.615  64.297
O  55.808  38.258  36.956
O  29.076  48.907  59.175
O  59.945  28.468  59.565
O  47.271  56.843  32.430
O  62.685  59.891  67.569
O  30.399  46.390  56.660
O  46.699  29.231  54.441
O  57.314  32.339  34.763
O  35.852  61.278  48.682
O  37.492  53.184  73.185
O  33.344  53.976  46.735
O  27.531  43.682  62.936
O  60.959  65.952  62.225
O  63.729  50.430  54.737
O  71.676  52.385  43.033
O  61.649  65.960  53.029
O  35.181  57.506  59.994
O  46.859  67.296  37.251
O  49.298  40.350  30.896
O  63.705  43.922  55.326
O  24.549  50.942  50.922
O  62.812  39.065  50.149
O  49.712  58.244  31.208
O  51.877  70.609  40.052
O  59.405  63.024  54.196
O  46.434  56.335  39.858
O  43.101  47.566  59.511
O  35.510  41.760  29.772
O  55.192  38.702  34.286
O  66.185  49.612  57.535
O  42.501  55.379  34.146
O  65.208  30.927  46.752
O  63.321  34.386  45.857
O  46.653  41.085  70.227
O  32.985  40.858  54.522
O  61.725  66.664  36.842
O  60.415  55.395  50.706
O  52.341  59.998  52.944
O  71.281  46.323  51.690
O  35.154  61.991  33.935
O  48.969  42.936  58.817
O  54.035  47.765  69.981
O  64.840  37.586  43.934
O  37.383  61.608  36.636
O  64.679  65.283  65.186
O  38.434  39.437  41.995
O  68.455  43.782  68.244
O  54.449  64.871  55.792
O  40.314  27.422  58.845
O  32.334  63.222  44.910
O  65.513  53.334  38.137
O  28.948  49.642  38.327
O  42.342  58.210  29.272
O  65.165  51.440  61.217
O  51.666  62.282  36.556
O  31.348  40.633  48.294
O  56.006  33.781  40.621
O  38.121  32.509  59.104
O  45.544  58.264  39.289
O  64.350  67.843  50.281
O  32.816  69.149  49.901
O  40.312  53.292  71.941
O  31.334  46.268  36.291
O  48.550  62.553  57.928
O  29.133  58.373  57.194
O  29.070  62.903  58.380
O  63.119  61.570  59.391
O  48.636  26.626  44.777
O  29.180  56.640  36.879
O  44.759  46.503  24.437
O  46.154  65.096  59.358
O  43.001  35.133  59.736
O  29.400  44.574  45.927
O  67.188  40.375  59.112
O  32.519  42.116  51.857
O  58.942  47.674  58.795
O  41.434  69.044  44.174
O  69.648  66.700  52.428
O  37.233  56.487  34.123
O  75.748  46.910  46.623
O  42.569  44.656  39.981
O  36.335  50.539  44.533
O  70.303  58.391  44.279
O  46.083  41.400  34.449
O  42.999  35.736  42.676
O  27.092  57.341  41.230
O  71.155  60.330  59.788
O  51.765  69.979  57.448
O  60.597  32.740  59.994
O  59.808  38.104  71.347
O  46.639  37.404  59.875
O  29.349  60.767  60.489
O  63.617  67.997  55.566
O  62.939  44.699  36.711
O  49.631  39.914  59.790
O  60.251  46.771  71.483
O  40.060  68.841  38.238
O  39.981  60.078  72.582
O  54.839  33.040  60.655
O  42.981  30.789  54.792
O  57.976  32.125  43.173
O  33.140  54.634  44.514
O  61.632  63.002  70.156
O  30.830  39.597  42.020
O  35.263  49.128  31.016
O  64.004  35.522  37.895
O  29.411  50.614  50.405
O  64.497  37.427  33.336
O  51.171  49.434  34.102
O  45.547  24.693  53.462
O  63.613  32.077  43.904
O  36.051  44.867  71.386
O  60.084  58.128  52.651
O  73.599  43.670  41.521
O  32.878  49.478  47.748
O  63.973  35.293  61.344
O  63.489  36.972  46.724
O  38.418  28.866  59.770
O  49.991  37.056  53.856
O  59.212  35.827  49.110
O  42.804  74.065  52.829
O  57.740  40.818  51.237
O  64.097  68.341  60.915
O  53.379  40.670  33.388
O  37.554  38.404  51.246
O  55.832  56.527  67.741
O  52.012  71.571  63.809
O  38.369  47.195  65.523
O  50.485  36.078  45.815
O  59.793  67.450  55.239
O  46.675  55.964  74.403
O  38.786  44.057  63.676
O  43.044  38.555  68.173
O  37.774  40.665  58.066
O  35.121  36.079  45.999
O  36.779  42.828  35.684
O  62.597  39.953  43.593
O  41.635  36.782  31.468
O  66.666  60.628  54.860
O  49.815  65.256  51.839
O  69.532  45.854  45.646
O  36.482  61.082  44.538
O  42.975  44.934  56.713
O  69.886  35.904  49.985
O  45.170  43.326  73.226
O  62.363  39.034  61.011
O  60.050  57.244  68.555
O  27.382  45.330  50.782
O  44.433  54.593  67.472
O  64.368  46.703  30.188
O  28.698  55.382  54.011
O  55.263  63.506  40.595
O  45.574  41.156  40.879
O  40.419  45.834  64.338
O  44.207  46.632  26.568
O  43.008  65.376  66.959
O  62.145  66.889  47.041
O  29.938  58.119  59.982
O  42.861  38.898  58.896
O  46.863  72.296  41.475
O  47.210  54.049  60.393
O  58.312  56.982  66.580
O  54.304  49.444  62.044
O  64.667  58.495  64.269
O  44.846  45.929  73.057
O  49.408  65.422  45.549
O  37.735  52.125  64.495
O  49.721  61.424  52.803
O  26.942  41.102  49.234
O  52.893  45.015  58.767
O  62.066  62.362  43.165
O  43.161  55.287  72.543
O  39.429  46.695  43.084
O  48.431  44.077  68.741
O  56.520  27.277  61.838
O  45.655  35.482  57.074
O  45.871  55.215  62.934
O  29.520  41.726  56.355
O  28.324  45.547  44.273
O  37.521  40.296  28.997
O  39.984  30.847  61.198
O  69.276  59.092  61.121
O  55.717  67.891  50.961
O  41.675  50.609  62.179
O  38.572  58.594  38.643
O  70.318  56.054  49.055
O  46.149  47.513  72.260
O  54.657  32.205  44.830
O  60.614  34.373  67.416
O  38.766  50.308  60.858
O  70.038  41.806  63.349
O  38.821  49.304  65.958
O  32.515  46.614  65.409
O  38.160  38.960  39.056
O  34.008  44.953  45.222
O  59.728  61.516  32.399
O  57.277  59.618  47.765
O  56.121  26.305  53.668
O  60.972  45.147  28.501
O  42.839  51.756  65.431
O  44.093  51.515  70.596
O  34.057  44.795  42.364
O  41.482  68.980  65.447
O  48.926  46.105  24.796
O  62.632  46.951  68.489
O  74.792  48.527  50.135
O  40.964  38.001  35.549
O  48.037  40.059  53.772
O  71.667  51.109  52.019
O  52.900  36.720  36.143
O  30.665  48.527  61.047
O  61.426  37.604  29.447
O  40.277  56.687  44.789
O  46.618  44.254  34.830
O  46.554  65.771  39.391
O  32.100  57.198  53.087
O  32.231  62.247  62.126
O  53.180  50.904  67.579
O  54.144  32.109  63.063
O  42.883  41.906  73.901
O  41.353  29.186  62.738
O  50.130  67.575  45.651
O  41.700  33.894  50.632
O  54.622  26.206  59.221
O  34.465  69.022  52.737
O  50.010  29.230  56.447
O  51.521  44.153  60.631
O  52.619  27.674  62.004
O  59.471  35.173  30.911
O  53.412  34.303  39.032
O  56.270  45.171  54.468
O  43.448  53.811  62.594
O  44.912  64.849  44.340
O  42.009  55.762  62.836
O  47.465  66.348  32.030
O  48.287  37.007  37.482
O  37.598  30.429  39.550
O  54.990  60.285  44.181
O  47.990  64.678  47.615
O  55.396  38.716  61.194
O  46.546  67.044  53.180
O  33.579  59.371  53.802
O  45.872  74.138  52.737
O  70.466  51.092  39.496
O  52.587  59.569  41.415
O  74.624  47.034  57.070
O  64.380  64.975  51.714
O  58.894  63.538  41.858
O  42.945  47.117  30.527
O  43.173  29.000  41.741
O  60.059  66.733  59.739
O  46.978  39.617  27.954
O  56.107  68.377  58.939
O  43.676  52.016  33.301
O  58.671  40.430  42.228
O  50.788  76.176  44.877
O  52.738  53.807  34.282
O  61.698  66.676  33.133
O  74.210  48.540  42.371
O  59.742  50.865  47.387
O  49.815  63.243  40.613
O  57.233  28.795  41.665
O  61.093  54.583  68.383
O  37.394  48.834  36.151
O  32.026  35.425  56.593
O  44.878  37.873  64.859
O  46.689  57.138  45.790
O  52.330  25.714  48.905
O  43.023  46.382  69.662
O  52.720  46.084  34.961
O  59.344  57.738  47.366
O  62.665  62.276  45.729
O  67.868  41.655  53.576
O  29.557  63.325  55.168
O  64.683  32.631  36.429
O  48.679  49.787  68.050
O  47.726  41.145  57.162
O  64.761  51.468  69.417
O  36.103  60.892  65.838
O  30.203  46.189  39.078
O  45.985  54.437  33.788
O  54.538  42.358  27.882
O  54.863  32.848  33.890
O  66.007  58.633  47.798
O  38.518  59.386  43.386
O  65.068  36.149  49.351
O  69.070  59.223  38.174
O  34.938  38.607  40.778
O  39.156  44.445  33.676
O  54.358  31.363  38.820
O  46.717  36.318  41.088
O  32.559  52.431  41.088
O  39.226  43.870  54.781
O  65.687  46.501  65.943
O  53.586  40.458  59.260
O  49.523  60.187  27.489
O  56.248  57.798  70.120
O  47.890  23.408  49.145
O  39.131  68.068  40.933
O  34.966  44.733  32.688
O  47.390  31.416  48.252
O  35.647  52.401  61.529
O  38.978  63.085  62.352
O  45.339  67.771  33.857
O  43.486  59.273  49.403
O  63.625  46.077  42.351
O  60.566  36.322  40.816
O  41.847  53.636  67.307
O  59.675  61.501  41.542
O  37.578  52.219  28.223
O  58.350  59.499  72.704
O  40.940  35.973  33.960
O  38.255  54.669  63.136
O  34.485  48.506  63.802
O  42.258  49.408  34.255
O  33.490  53.320  59.424
O  60.968  31.322  49.532
O  26.621  55.597  48.088
O  62.816  31.632  47.603
O  61.202  52.473  27.129
O  69.357  61.973  61.651
O  52.289  72.879  39.884
O  53.902  42.288  65.142
O  58.814  60.750  66.066
O  43.022  49.092  41.834
O  36.473  36.494  38.166
O  64.683  59.563  45.333
O  56.378  70.052  44.900
O  66.145  33.021  42.246
O  70.551  57.611  53.698
O  32.700  31.758  41.820
O  56.516  35.391  48.600
O  43.688  41.812  27.493
O  45.777  66.944  48.510
O  54.198  56.833  38.947
O  65.359  39.843  60.951
O  33.604  51.006  56.569
O  39.526  57.334  47.305
O  64.828  33.967  50.826
O  41.047  41.584  67.620
O  48.569  48.184  25.423
O  61.418  31.086  52.442
O  66.970  39.809  52.562
O  36.408  65.034  65.313
O  45.935  73.621  55.130
O  34.358  42.155  34.714
O  27.560  48.730  53.004
O  67.672  63.012  64.087
O  65.824  53.199  49.449
O  60.676  54.030  43.310
O  40.692  56.426  32.968
O  44.776  34.268  41.086
O  42.299  67.704  38.894
O  38.538  55.386  54.473
O  46.950  42.831  38.847
O  41.882  42.032  40.540
O  40.427  55.540  39.723
O  31.541  48.183  34.450
O  55.216  43.853  63.244
O  49.781  65.115  30.957
O  54.083  38.626  50.376
O  49.403  51.829  27.269
O  49.003  31.966  58.088
O  27.701  54.861  40.938
O  32.547  49.131  42.593
O  49.074  45.203  74.689
O  47.040  52.290  75.000
O  39.248  33.593  53.295
O  30.564  38.411  63.543
O  57.808  55.478  43.345
O  61.525  46.534  66.601
O  68.867  38.508  50.482
O  48.963  31.318  44.450
O  38.736  68.186  54.563
O  28.907  50.464  34.736
O  63.469  36.227  35.143
O  64.573  47.330  46.372
O  50.273  75.395  54.031
O  56.955  37.360  68.036
O  50.660  52.809  72.776
O  41.590  61.293  44.335
O  53.897  67.503  34.538
O  51.987  45.199  24.415
O  64.234  32.220  62.067
O  58.625  65.106  49.447
O  68.586  33.076  57.407
O  43.387  41.666  35.746
O  40.242  53.545  41.893
O  32.826  39.603  41.055
O  42.525  62.890  34.594
O  41.378  52.673  48.755
O  66.422  47.038  69.190
O  40.121  47.408  36.204
O  56.481  59.732  54.174
O  66.622  38.227  49.035
O  59.271  34.289  62.301
O  47.479  62.761  70.895
O  36.171  70.405  55.735
O  68.800  49.365  61.209
O  32.606  43.531  56.012
O  71.533  48.599  36.758
O  26.206  55.776  57.322
O  65.107  41.081  58.499
O  39.630  62.924  36.638
O  43.872  69.217  41.923
O  71.016  63.393  56.562
O  43.481  42.636  64.623
O  31.077  46.088  52.777
O  54.324  34.991  35.991
O  32.788  65.500  59.223
O  33.496  53.197  32.477
O  33.074  39.150  52.605
O  65.064  62.781  64.331
O  71.428  55.289  38.899
O  50.542  73.246  53.619
O  69.246  42.117  47.206
O  36.306  57.495  71.647
O  59.044  46.667  26.560
O  72.361  39.614  42.227
O  58.185  56.254  74.621
O  32.305  61.078  40.340
O  34.708  32.641  42.429
O  38.091  55.313  58.377
O  28.896  40.715  44.168
O  48.097  54.353  41.236
O  48.127  37.669  66.864
O  29.598  60.053  39.555
O  56.948  36.584  64.930
O  43.529  36.047  52.214
O  42.361  71.577  40.032
O  63.330  46.414  51.181
O  50.639  38.627  42.678
O  70.326  39.400  61.113
O  45.475  65.704  66.401
O  54.013  48.535  74.264
O  33.682  52.031  38.024
O  65.058  52.292  64.612
O  46.527  72.141  50.984
O  40.816  45.358  71.288
O  50.268  46.736  72.045
O  35.249  35.580  48.790
O  58.386  45.162  31.394
O  43.675  44.704  52.672
O  66.926  52.920  47.565
O  57.339  48.062  70.182
O  58.983  54.179  65.511
O  60.725  44.498  63.491
O  34.410  51.787  43.554
O  33.901  29.959  55.946
O  35.654  53.346  40.479
O  50.215  29.495  36.181
O  57.868  65.645  61.248
O  52.006  36.438  67.580
O  39.779  58.554  34.952
O  70.863  34.212  47.957
O  40.049  66.168  58.559
O  67.258  37.023  39.948
O  57.964  60.876  64.037
O  43.303  62.237  69.340
O  39.915  64.913  50.994
O  44.580  73.499  42.678
O  42.341  30.105  46.876
O  46.332  42.322  26.431
O  35.056  61.461  40.207
O  45.027  40.985  52.262
O  61.442  53.863  36.300
O  46.924  25.558  48.935
O  44.635  39.770  63.249
O  28.120  56.743  38.807
O  68.344  47.673  31.609
O  63.083  72.811  46.223
O  58.543  31.417  50.427
O  34.622  49.669  45.484
O  48.262  26.047  56.988
O  55.044  58.193  29.999
O  35.825  29.375  40.726
O  34.320  69.506  46.714
O  69.827  38.829  38.944
O  57.092  42.154  43.689
O  61.488  29.881  45.817
O  32.959  64.442  54.925
O  39.340  55.247  47.979
O  48.340  43.187  56.288
O  56.836  31.628  59.001
O  74.726  56.575  43.740
O  54.125  27.051  45.627
O  52.742  28.515  50.231
O  60.314  57.914  42.429
O  42.777  65.293  46.402
O  67.492  49.462  55.059
O  54.701  40.336  52.935
O  75.886  52.182  50.581
O  30.236  66.975  53.024
O  41.770  60.367  50.747
O  54.647  69.643  34.180
O  53.616  52.633  62.221
O  34.834  47.558  40.214
O  46.816  52.170  33.125
O  42.950  27.892  48.058
O  49.317  75.126  48.169
O  61.129  32.372  46.192
O  58.033  73.894  53.170
O  68.468  59.484  46.241
O  57.096  40.449  47.893
O  64.815  57.681  32.784
O  67.506  68.874  43.743
O  47.832  47.794  28.355
O  26.921  45.838  48.499
O  42.662  51.488  31.222
O  48.897  40.675  26.021
O  45.937  47.833  69.649
O  54.126  70.586  37.985
O  47.463  30.626  52.703
O  29.302  34.502  53.674
O  73.050  53.382  55.179
O  49.053  46.824  30.728
O  51.764  36.328  72.854
O  46.544  62.250  56.099
O  61.972  59.271  46.817
O  37.263  49.988  62.690
O  40.720  46.370  49.382
O  43.844  54.253  38.895
O  58.743  53.434  41.183
O  25.537  40.594  51.734
O  31.917  48.603  30.901
O  61.850  37.534  52.928
O  29.133  38.895  40.806
O  59.198  46.641  62.237
O  65.297  40.825  50.193
O  64.012  50.424  63.023
O  34.469  44.976  55.880
O  63.203  35.389  43.832
O  64.988  39.975  45.311
O  31.167  55.997  39.382
O  30.991  41.096  39.125
O  48.251  62.891  37.567
O  51.184  51.161  30.738
O  41.292  63.996  32.289
O  35.264  32.064  49.130
O  47.500  26.457  53.111
O  45.650  31.243  32.233
O  37.839  37.328  30.664
O  32.510  59.103  37.890
O  68.762  60.158  48.671
O  54.381  28.033  64.513
O  37.689  36.184  47.536
O  56.514  57.973  44.979
O  69.159  46.181  38.243
O  71.297  43.441  45.588
O  39.971  64.138  39.441
O  39.139  31.019  36.116
O  40.334  48.574  30.079
O  59.734  61.118  68.052
O  66.226  36.939  60.692
O  35.293  52.110  36.160
O  64.333  64.302  45.581
O  50.995  71.852  42.969
O  35.897  38.921  43.467
O  37.021  47.400  34.502
O  59.738  52.681  71.089
O  46.949  64.845  52.355
O  48.683  46.487  63.027
O  55.562  33.350  58.174
O  50.180  30.915  50.517
O  35.322  49.666  38.621
O  58.297  46.987  37.544
O  51.859  34.890  60.138
O  56.582  45.871  30.328
O  57.308  32.957  61.778
O  67.823  62.550  50.793
O  62.757  56.315  28.248
O  42.280  67.820  32.717
O  46.764  76.429  51.807
O  62.252  63.998  61.536
O  57.281  43.545  46.679
O  58.563  46.544  46.682
O  65.829  35.213  53.953
O  54.040  44.329  69.282
O  44.562  68.772  37.572
O  51.963  48.974  29.259
O  56.299  75.170  47.877
O  46.214  57.861  42.548
O  48.029  49.848  29.117
O  45.854  35.645  37.358
O  70.406  49.600  42.466
O  69.581  60.669  42.776
O  33.535  46.154  60.744
O  48.566  33.960  61.275
O  72.622  56.981  58.790
O  54.442  72.785  46.524
O  55.311  48.960  64.915
O  32.751  36.852  46.659
O  59.519  47.675  29.784
O  40.028  38.980  32.982
O  53.736  71.514  53.471
O  41.642  36.326  70.299
O  67.199  42.621  61.836
O  61.371  64.293  45.213
O  37.336  65.016  50.695
O  62.721  51.741  71.735
O  39.953  48.894  58.102
O  41.613  53.119  35.796
O  68.696  64.907  55.602
O  49.825  26.830  47.399
O  60.802  41.009  58.602
O  44.651  46.351  62.056
O  50.269  75.349  51.829
O  36.885  51.125  50.584
O  56.352  35.405  62.124
O  52.362  32.145  61.111
O  57.658  56.066  58.307
O  66.972  53.565  52.108
O  63.974  44.097  40.091
O  60.293  60.407  64.471
O  37.505  59.640  64.058
O  44.826  70.893  43.445
O  57.107  54.516  73.796
O  55.667  37.754  29.164
O  46.428  54.661  30.506
O  65.715  67.107  52.805
O  64.489  28.550  44.966
O  42.981  54.912  42.063
O  70.558  40.588  52.459
O  56.493  46.255  62.621
O  72.798  42.128  57.587
O  45.642  37.947  50.053
O  38.126  36.586  60.853
O  36.199  66.460  46.246
O  50.603  65.678  48.806
O  47.304  47.813  65.657
O  76.020  51.132  55.764
O  52.087  58.846  60.419
O  60.532  42.169  43.635
O  39.354  63.999  46.888
O  61.136  50.487  62.744
O  73.430  46.456  60.069
O  63.402  60.988  48.415
O  54.907  61.732  71.273
O  54.368  29.317  45.871
O  54.695  28.416  52.149
O  51.872  61.679  40.479
O  62.343  71.044  50.454
O  66.448  44.225  31.042
O  39.664  50.729  27.002
O  64.566  32.655  48.504
O  59.141  39.685  68.787
O  54.364  32.744  47.456
O  38.734  40.995  68.142
O  36.101  47.876  51.457
O  57.642  59.175  57.414
O  69.415  47.995  53.239
O  44.056  69.884  51.549
O  51.226  63.006  47.764
O  47.904  27.028  60.517
O  51.439  56.642  62.703
O  53.492  73.969  51.100
O  36.278  51.400  59.672
O  52.753  52.367  72.013
O  68.197  42.932  63.771
O  33.213  42.741  48.273
O  45.310  66.551  42.931
O  39.304  63.325  68.197
O  60.188  70.646  43.425
O  42.079  32.416  60.499
O  66.117  49.460  44.742
O  58.324  53.957  27.385
O  40.358  60.979  69.213
O  70.453  53.448  51.557
O  37.729  30.003  45.759
O  57.558  39.300  55.609
O  62.926  33.200  42.142
O  72.192  44.212  54.012
O  60.674  58.474  31.003
O  66.297  66.078  55.099
O  56.189  65.220  34.827
O  47.707  50.863  25.244
O  48.034  62.656  29.647
O  46.830  29.119  48.139
O  59.880  37.434  55.555
O  36.763  65.353  44.427
O  34.001  55.802  31.693
O  27.154  51.362  52.244
O  59.158  61.648  28.209
O  65.699  42.829  53.848
O  66.810  45.680  45.139
O  44.362  27.130  53.738
O  63.985  29.932  58.149
O  61.002  33.447  56.136
O  60.969  49.772  35.179
O  62.956  46.899  48.780
O  34.420  51.865  47.674
O  40.551  66.801  33.869
O  47.475  24.212  52.265
O  54.422  51.824  32.406
O  74.016  41.804  43.371
O  33.312  43.927  37.427
O  35.968  37.692  61.748
O  57.094  54.347  33.648
O  63.553  48.511  44.173
O  54.763  54.048  35.216
O  68.367  49.256  45.502
O  38.415  27.616  47.026
O  31.250  41.152  63.616
O  46.932  43.066  62.040
O  39.944  70.049  41.622
O  48.495  72.454  49.259
O  47.783  37.547  30.236
O  66.231  48.719  50.453
O  57.679  42.266  32.969
O  46.469  59.914  66.907
O  24.002  45.133  51.588
O  48.197  33.222  35.651
O  31.645  34.457  42.034
O  42.358  29.773  39.172
O  58.449  56.179  39.086
O  40.757  70.876  49.899
O  51.468  32.460  48.621
O  32.329  45.074  62.674
O  30.534  58.394  47.731
O  33.741  36.923  44.460
O  28.763  62.738  40.431
O  35.957  66.465  54.875
O  36.120  68.349  43.653
O  44.564  56.805  32.662
O  62.421  69.923  38.018
O  47.488  45.523  65.632
O  42.102  40.052  63.897
O  68.381  33.206  42.678
O  65.441  40.998  42.962
O  61.054  63.584  56.156
O  43.417  37.775  35.889
O  70.215  56.490  57.735
O  59.272  27.934  51.829
O  49.354  71.960  46.425
O  42.401  32.302  31.524
O  42.295  58.963  45.665
O  50.177  69.678  42.123
O  45.589  49.232  32.256
O  44.602  33.410  60.561
O  60.247  50.834  52.535
O  55.103  67.328  60.594
O  62.622  48.786  61.917
O  35.766  42.864  47.699
O  42.736  41.382  54.489
O  35.342  54.060  43.914
O  58.000  50.092  72.786
O  43.398  28.212  57.239
O  59.326  57.001  61.058
O  71.045  51.914  57.351
O  58.408  52.891  69.142
O  59.004  63.615  44.055
O  42.491  33.274  57.649
O  43.026  62.473  31.340
O  38.824  38.914  53.043
O  37.712  68.578  35.303
O  62.045  57.754  50.294
O  43.376  33.012  51.751
O  38.241  51.786  69.642
O  55.317  52.458  41.292
O  36.281  50.330  29.235
O  54.555  32.289  36.096
O  41.481  39.341  49.545
O  40.970  51.465  52.731
O  67.483  51.439  64.682
O  30.719  60.679  50.648
O  39.328  47.356  32.704
O  54.045  44.377  65.863
O  62.020  57.383  58.196
O  57.507  48.917  25.117
O  59.654  39.842  52.033
O  41.158  62.043  62.383
O  61.855  64.567  39.614
O  62.186  56.763  30.746
O  54.347  49.516  38.585
O  33.324  37.451  65.680
O  65.990  56.303  37.707
O  46.273  37.962  33.781
O  34.345  46.559  70.238
O  40.660  35.168  46.272
O  68.802  56.499  42.031
O  55.077  57.641  60.844
O  47.201  59.145  29.363
O  42.471  70.953  45.644
O  61.421  67.725  39.358
O  66.258  47.089  57.784
O  43.393  55.507  60.035
O  46.873  54.379  65.767
O  44.452  28.013  40.248
O  60.604  55.131  26.721
O  64.372  44.880  46.476
O  61.113  63.126  48.118
O  61.816  30.766  55.010
O  50.854  42.132  52.123
O  43.058  27.033  44.062
O  34.003  41.265  56.433
O  50.099  39.481  68.561
O  65.487  53.359  54.834
O  34.551  70.644  50.662
O  58.735  62.539  37.903
O  35.983  49.513  65.269
O  33.000  61.391  51.443
O  43.152  47.078  66.867
O  26.216  48.530  61.451
O  58.530  35.739  59.974
O  49.158  54.651  62.706
O  31.874  36.053  58.762
O  49.297  71.490  64.307
O  59.204  45.216  52.860
O  63.706  57.585  52.882
O  59.852  53.728  37.815
O  47.390  51.731  60.248
O  64.470  50.152  65.548
O  60.048  61.747  45.440
O  39.321  49.948  33.074
O  42.058  64.015  61.963
O  55.703  50.711  36.920
O  43.549  58.835  37.608
O  42.422  25.033  52.978
O  42.856  57.721  42.416
O  51.163  68.425  38.660
O  31.746  41.953  60.761
O  38.319  63.628  58.567
O  50.475  47.785  32.105
O  40.094  51.532  35.649
O  55.146  41.149  67.276
O  65.937  38.598  41.345
O  65.237  55.832  30.802
O  41.342  43.131  63.764
O  60.852  48.361  64.276
O  66.659  61.035  36.026
O  55.798  46.146  71.890
O  49.376  57.998  27.736
O  44.076  57.931  44.389
O  62.760  34.745  48.545
O  40.492  34.611  35.812
O  44.880  29.020  45.809
O  63.124  37.890  59.016
O  41.322  65.664  37.980
O  58.861  43.714  62.097
O  69.423  50.565  58.244
O  45.546  54.366  37.506
O  63.145  63.526  36.520
O  50.875  32.465  66.163
O  42.081  66.478  43.683
O  36.183  37.288  34.436
O  62.831  50.895  59.812
O  68.077  36.157  54.151
O  60.672  56.992  44.737
O  44.751  72.300  39.541
O  52.457  60.055  68.074
O  60.529  73.879  46.338
O  50.646  33.768  37.494
O  39.347  42.264  53.104
O  34.979  45.628  35.394
O  39.650  66.266  44.066
O  39.773  54.413  29.183
O  34.419  58.611  57.515
O  62.165  70.881  54.145
O  61.548  48.033  44.942
O  44.263  71.381  36.527
O  55.514  49.742  26.152
O  55.095  48.964  29.132
O  43.284  48.446  38.872
O  41.450  34.277  30.465
O  61.017  39.966  37.788
O  45.624  70.879  56.243
O  34.072  67.783  40.510
O  40.785  48.159  68.321
O  36.061  51.813  68.578
O  43.261  47.938  32.619
O  35.271  55.689  53.009
O  43.478  59.962  41.265
O  64.272  62.880  50.860
O  62.460  43.958  48.599
O  71.970  53.603  58.619
O  27.876  52.023  37.260
O  43.517  32.531  45.558
O  59.074  58.620  62.530
O  39.786  43.705  36.636
O  42.884  32.630  39.168
O  41.498  69.287  34.874
O  50.430  30.007  40.175
O  43.851  36.833  69.296
O  30.993  50.879  58.298
O  37.570  72.379  50.019
O  57.952  27.816  38.808
O  37.480  45.493  31.181
O  52.582  39.757  53.657
O  64.629  43.775  68.336
O  65.593  44.259  37.364
O  62.483  48.213  53.781
O  44.179  43.753  26.470
O  69.690  50.927  46.102
O  40.512  37.167  28.692
O  30.733  44.629  43.185
O  71.597  42.186  36.713
O  34.074  49.191  52.611
O  64.134  70.956  41.430
O  68.548  52.648  36.252
O  64.906  48.674  71.998
O  56.627  65.071  45.752
O  50.535  39.122  27.498
O  60.331  45.289  44.312
O  47.341  29.553  62.754
O  64.573  42.723  66.094
O  35.133  60.254  62.699
O  36.108  45.439  68.230
O  56.384  30.473  64.730
O  43.718  70.445  48.968
O  59.665  52.207  25.284
O  49.627  67.117  62.867
O  56.093  39.295  66.273
O  47.739  38.194  63.934
O  49.017  50.496  32.170
O  32.564  52.897  61.944
O  39.975  42.895  58.658
O  39.454  63.529  43.629
O  35.922  56.501  39.447
O  59.233  50.411  61.643
O  54.125  48.382  33.323
O  53.841  52.027  36.585
O  34.967  65.129  34.611
O  38.571  72.407  58.397
O  40.726  47.902  26.062
O  34.796  56.485  46.694
O  35.477  32.665  58.764
O  39.419  57.990  56.619
O  44.670  32.076  41.284
O  56.983  50.979  69.965
O  42.413  35.157  48.435
O  48.851  59.657  71.091
O  40.900  37.633  63.500
O  57.073  54.680  66.583
O  52.182  36.714  61.450
O  61.333  27.333  47.476
O  61.948  44.030  43.513
O  61.433  41.987  55.357
O  41.293  69.377  60.210
O  40.243  48.882  71.957
O  38.276  68.122  45.052
O  69.514  53.151  60.474
O  64.433  54.805  33.994
O  48.477  64.628  33.834
O  61.979  60.336  41.521
O  37.573  43.407  56.969
O  73.537  44.198  56.482
O  70.952  56.102  41.711
O  28.757  64.590  46.540
O  48.101  38.153  70.425
O  65.857  48.351  42.860
O  47.817  64.905  43.141
O  30.806  50.542  55.762
O  40.941  50.645  67.218
O  51.739  40.400  57.028
O  35.202  29.630  48.096
O  63.791  66.836  41.136
O  40.630  30.128  41.928
O  45.102  67.807  39.786
O  60.250  41.147  72.164
O  46.757  49.877  69.452
O  63.641  32.772  59.430
O  63.444  63.813  40.976
O  44.210  62.949  59.077
O  47.973  51.341  65.103
O  44.999  64.564  68.725
O  52.169  24.867  55.965
O  57.379  35.769  55.653
O  37.911  65.238  41.087
O  70.433  54.283  62.967
O  36.209  35.282  57.830
O  64.977  66.992  56.976
O  47.600  55.402  67.801
O  44.470  61.025  32.823
O  41.029  38.530  66.648
O  42.104  47.009  63.153
O  49.048  49.578  75.297
O  67.725  46.485  36.266
O  59.671  60.230  54.230
O  60.520  44.130  37.004
O  39.212  39.848  60.754
O  41.119  40.187  38.500
O  31.049  46.340  46.742
O  60.398  46.617  40.486
O  54.306  64.102  63.639
O  40.020  57.631  71.783
O  34.344  47.545  36.572
O  38.931  53.950  44.512
O  51.643  54.311  40.560
O  60.040  55.321  41.620
O  62.283  52.230  64.533
O  65.292  44.709  71.223
O  41.101  53.079  55.246
O  47.644  42.331  32.466
O  56.165  70.231  53.224
O  43.451  37.014  57.715
O  47.765  33.928  56.450
O  47.100  65.535  70.566
O  56.830  68.558  54.488
O  28.057  52.356  46.336
O  70.815  43.787  39.187
O  46.918  45.245  69.993
O  58.519  65.943  35.962
O  53.200  61.328  47.897
O  56.028  47.274  35.264
O  73.299  52.304  62.814
O  47.578  54.931  26.104
O  36.577  54.083  51.653
O  31.523  51.941  48.985
O  34.060  59.177  43.818
O  65.857  59.383  38.670
O  37.123  41.221  38.366
O  29.371  60.416  62.906
O  66.425  44.568  40.438
O  57.063  47.367  32.520
O  66.305  64.998  63.355
O  51.777  74.000  42.618
O  64.948  60.368  52.926
O  58.405  66.561  41.016
O  51.029  58.532  36.040
O  69.510  45.717  49.720
O  62.345  50.966  40.793
O  67.190  54.314  42.336
O  39.324  50.020  42.848
O  35.503  40.732  40.844
O  58.131  44.727  25.133
O  50.571  69.600  49.986
O  59.662  65.478  39.571
O  54.577  62.338  68.079
O  38.628  60.463  58.490
O  69.853  45.531  40.517
O  26.766  41.202  46.990
O  39.775  57.474  53.390
O  50.238  70.721  55.763
O  38.892  70.178  62.057
O  26.353  54.272  54.166
O  42.165  64.133  43.176
O  62.291  28.196  40.911
O  36.697  28.041  52.754
O  50.687  44.050  66.375
O  63.764  49.154  57.606
O  68.513  64.842  45.121
O  44.537  33.165  53.788
O  50.645  26.793  58.964
O  61.886  47.348  26.934
O  56.416  64.721  42.621
O  51.788  41.198  31.183
O  36.159  46.808  54.221
O  57.823  24.564  50.510
O  69.071  64.880  49.037
O  49.858  44.680  37.375
O  45.236  66.628  69.463
O  56.780  28.738  58.583
O  53.827  31.000  51.523
O  59.873  53.543  29.654
O  61.131  28.581  49.630
O  68.843  39.313  47.459
O  59.964  58.530  57.048
O  50.432  35.489  56.916
O  45.472  62.584  61.981
O  65.874  68.122  59.631
O  55.365  66.560  67.039
O  40.834  44.901  53.429
O  53.490  70.724  42.737
O  37.939  48.016  55.953
O  63.639  60.869  40.160
O  49.491  32.487  38.895
O  42.740  57.221  74.389
O  64.454  48.854  33.816
O  47.543  67.894  41.164
O  40.614  40.950  59.463
O  35.279  49.487  41.790
O  49.675  28.889  45.256
O  56.655  71.079  58.921
O  32.844  41.050  32.636
O  26.872  61.179  52.365
O  57.331  34.644  32.952
O  56.130  56.332  72.729
O  61.968  42.504  46.069
O  51.306  30.453  44.069
O  41.758  67.760  58.117
O  26.104  52.874  56.141
O  32.008  63.549  50.918
O  39.956  63.514  29.707
O  71.640  40.905  39.239
O  37.529  70.341  38.260
O  56.784  65.296  37.669
O  57.315  69.667  33.563
O  43.736  35.010  35.660
O  42.467  61.330  59.613
O  63.889  52.136  48.621
O  70.141  40.527  49.685
O  54.526  55.452  40.628
O  62.297  46.857  58.517
O  67.518  35.478  56.174
O  67.354  45.117  33.719
O  48.762  49.358  35.185
O  34.926  52.211  65.613
O  26.833  58.928  45.368
O  66.250  61.742  49.472
O  49.505  66.865  39.555
O  46.325  24.139  45.950
O  47.974  69.738  66.661
O  55.490  42.676  25.256
O  35.521  54.713  33.967
O  59.094  25.162  52.214
O  72.082  47.086  49.421
O  35.355  35.790  53.633
O  61.805  60.739  29.558
O  40.101  37.882  70.762
O  61.608  48.783  56.603
O  37.724  63.607  35.775
O  42.583  63.686  56.557
O  54.112  54.197  38.316
O  66.604  53.586  30.855
O  38.829  40.626  50.562
O  51.305  43.929  69.271
O  61.838  56.257  39.948
O  39.332  41.301  35.874
O  70.368  42.118  41.980
O  34.883  57.422  36.353
O  53.174  31.206  54.151
O  60.908  48.141  47.634
O  52.288  45.675  27.191
O  49.707  29.192  47.940
O  65.058  44.409  43.021
O  30.116  36.954  55.691
O  33.396  57.658  40.559
O  33.719  59.411  65.199
O  53.065  26.952  57.674
O  40.806  34.865  58.417
O  45.894  68.581  51.297
O  70.387  37.275  52.870
O  32.140  41.364  44.538
O  38.850  69.114  48.459
O  40.879  60.609  35.795
O  45.429  46.553  75.097
O  57.842  73.402  50.128
O  44.657  60.381  54.234
O  37.050  34.689  44.023
O  66.990  47.267  48.096
O  60.145  49.723  26.248
O  50.858  69.028  61.233
O  68.108  44.338  42.751
O  45.122  45.947  66.798
O  66.572  32.295  54.189
O  34.037  30.421  53.005
O  73.583  55.617  41.087
O  70.558  46.551  42.771
O  33.222  31.225  58.510
O  52.711  30.028  35.532
O  28.650  48.668  64.528
O  60.047  33.688  52.891
O  58.915  47.012  65.672
O  34.328  67.289  56.875
O  42.257  47.671  72.505
O  63.621  56.325  65.565
O  72.519  60.992  49.084
O  40.070  69.829  56.956
O  36.077  69.622  40.807
O  54.246  27.759  43.188
O  41.190  60.070  56.271
O  27.771  61.604  47.290
O  37.343  51.706  39.419
O  63.277  41.505  68.114
O  61.879  43.709  58.157
O  51.923  36.894  55.346
O  53.571  24.400  45.475
O  55.370  59.212  40.856
O  38.540  61.739  66.760
O  59.908  33.947  48.203
O  37.678  53.635  38.335
O  34.411  50.753  60.759
O  51.886  56.688  25.050
O  40.193  73.523  51.447
O  46.060  60.102  34.619
O  39.938  38.530  44.092
O  35.544  54.309  63.456
O  41.950  34.486  54.627
O  56.144  42.890  41.279
O  54.095  36.149  70.133
O  65.134  58.597  42.684
O  62.196  61.295  51.922
O  40.361  61.534  31.806
O  34.809  37.791  51.955
O  58.096  67.307  66.310
O  73.544  40.850  46.727
O  37.704  48.412  53.740
O  42.769  59.339  64.279
O  55.563  46.734  68.445
O  59.043  37.249  46.737
O  26.054  43.079  50.152
O  67.764  50.591  59.702
O  69.932  62.121  48.542
O  54.929  42.299  34.235
O  57.107  36.928  33.755
O  43.235  50.438  67.571
O  53.115  71.715  49.557
O  29.550  59.311  43.655
O  74.120  51.930  44.432
O  47.123  48.881  63.736
O  49.638  41.962  33.434
O  65.541  67.895  37.884
O  66.404  45.743  61.387
O  36.979  42.851  59.961
O  43.495  53.900  57.069
O  69.897  60.051  53.657
O  54.695  67.703  44.095
O  38.194  66.768  48.518
O  31.291  42.531  41.780
O  51.668  68.374  44.296
O  43.263  71.927  51.948
O  51.554  37.865  29.361
O  33.014  45.155  31.216
O  40.245  59.575  66.230
O  36.297  42.217  49.738
O  34.128  43.711  69.091
O  68.330  45.941  56.315
O  46.982  62.903  32.125
O  44.573  60.401  46.923
O  70.385  51.408  61.717
O  56.429  40.434  45.667
O  58.247  70.908  60.567
O  48.310  53.168  31.771
O  45.384  51.496  65.733
O  59.325  72.194  51.233
O  37.225  67.598  52.322
O  51.784  59.360  55.701
O  45.468  63.479  64.457
O  63.486  36.462  65.049
O  47.368  75.046  56.817
O  64.873  33.792  39.221
O  34.839  59.111  31.372
O  36.785  43.483  62.962
O  67.062  65.025  43.353
O  32.856  49.902  63.315
O  71.121  39.052  46.854
O  63.976  47.914  60.101
O  47.725  41.518  67.121
O  58.688  57.255  54.584
O  39.736  46.202  68.973
O  40.119  45.607  26.931
O  35.296  32.116  46.191
O  44.796  44.947  39.037
O  47.331  57.367  60.165
O  42.668  73.550  44.717
O  43.589  38.307  30.716
O  62.014  54.704  32.257
O  37.249  63.144  45.580
O  45.571  47.608  56.680
O  68.622  40.324  33.509
O  66.978  34.276  48.187
O  29.837  54.682  51.800
O  48.833  69.227  59.414
O  52.496  40.062  61.218
O  39.236  51.335  72.400
O  44.455  63.608  49.325
O  53.878  69.692  40.055
O  45.101  56.919  60.475
O  37.447  62.656  39.453
O  67.743  47.212  42.927
O  43.172  63.815  37.056
O  37.110  37.468  66.029
O  45.496  56.729  24.724
O  59.182  64.257  46.751
O  40.698  65.053  48.328
O  61.135  38.202  57.194
O  55.273  61.181  64.072
O  59.674  44.777  41.531
O  54.764  37.801  72.529
O  34.747  63.198  46.700
O  33.375  47.169  54.105
O  44.179  39.665  37.594
O  50.065  54.006  35.701
O  39.609  70.599  45.592
O  65.451  42.815  51.119
O  67.817  39.820  64.361
O  41.679  31.035  65.457
O  34.377  34.635  40.133
O  50.527  26.660  40.565
O  37.075  47.002  42.645
O  44.546  41.966  56.757
O  43.034  43.693  72.626
O  44.890  43.323  36.739
O  39.323  73.297  53.996
O  62.302  70.358  45.950
O  44.262  35.596  44.472
O  33.437  42.861  45.513
O  67.816  37.087  36.317
O  39.309  34.419  60.561
O  67.691  32.107  50.199
O  45.128  56.706  70.289
O  43.832  51.644  61.324
O  66.205  47.468  63.284
O  68.160  42.238  58.454
O  33.131  56.466  48.231
O  43.277  64.821  60.258
O  53.520  60.898  29.620
O  28.302  46.012  40.714
O  37.953  47.284  45.367
O  57.892  59.931  30.948
O  40.327  70.457  54.214
O  35.298  47.096  44.116
O  58.066  51.562  58.557
O  58.382  67.843  38.216
O  60.063  36.653  68.878
O  24.884  54.062  45.819
O  56.334  69.173  67.453
O  69.105  47.828  65.164
O  43.062  38.844  53.602
O  37.573  38.433  68.534
O  60.331  64.937  67.061
O  50.833  46.564  62.604
O  47.419  65.028  49.783
O  38.544  34.740  50.436
O  58.282  56.811  27.583
O  49.927  25.659  53.181
O  50.415  59.728  42.097
O  51.369  54.294  25.387
O  53.555  64.258  37.389
O  37.547  48.607  32.378
O  46.797  70.188  54.066
O  44.359  49.557  62.512
O  50.966  23.478  50.555
O  31.467  51.810  35.538
O  41.878  54.392  47.425
O  28.268  39.495  61.003
O  51.225  24.696  42.517
O  30.513  42.852  66.008
O  54.903  42.375  37.932
O  51.611  51.838  24.640
O  54.861  36.253  64.322
O  28.275  53.142  61.381
O  35.241  48.668  34.809
O  41.244  29.729  48.969
O  40.247  41.509  55.213
O  58.058  52.185  35.644
O  72.886  42.648  49.908
O  31.600  54.356  41.560
O  64.926  45.009  58.864
O  48.788  59.084  45.717
O  35.938  33.868  37.646
O  52.266  66.505  36.388
O  60.862  61.976  58.730
O  47.390  36.837  54.977
O  50.663  40.841  37.059
O  50.169  60.069  33.442
O  61.083  49.467  67.200
O  31.161  44.277  32.460
O  63.360  54.402  52.584
O  66.462  40.737  36.879
O  43.668  56.797  52.993
O  33.349  64.427  42.784
O  63.366  43.817  53.148
O  46.372  32.078  39.088
O  42.242  27.705  53.568
O  31.647  44.071  53.850
O  54.342  63.983  48.915
O  35.852  44.410  29.320
O  39.681  50.716  30.846
O  50.290  27.674  49.446
O  37.317  28.622  57.314
O  66.179  37.873  66.730
O  75.276  45.540  49.115
O  62.269  48.903  70.675
O  47.400  56.577  64.122
O  53.470  29.691  55.721
O  58.736  41.334  61.215
O  44.886  65.011  55.832
O  35.027  57.596  48.613
O  27.906  57.117  47.129
O  59.810  53.675  73.987
O  59.707  47.392  69.062
O  71.239  56.426  60.959
O  40.578  57.122  42.592
O  32.728  39.557  38.102
O  72.438  42.324  52.615
O  44.548  65.552  51.260
O  58.241  50.195  27.658
O  53.951  33.080  55.291
O  62.151  50.070  29.291
O  40.207  61.833  47.560
O  60.373  49.338  58.948
O  36.411  70.128  58.306
O  59.700  46.386  49.739
O  33.081  46.998  42.476
O  61.976  67.936  53.938
O  59.912  45.476  60.487
O  54.731  33.957  51.065
O  51.503  52.755  70.211
O  56.146  54.369  24.397
O  50.379  39.056  32.555
O  58.480  65.426  53.459
O  48.653  61.331  41.353
O  34.213  59.387  33.756
O  55.912  70.446  56.091
O  30.391  51.975  64.047
O  64.978  36.177  40.347
O  44.836  59.422  59.895
O  32.632  52.313  53.230
O  69.451  34.225  52.054
O  64.382  61.583  42.577
O  57.475  64.831  55.368
O  32.337  62.884  47.233
O  40.183  34.903  48.403
O  58.238  67.728  58.997
O  55.538  56.107  27.962
O  57.837  59.053  69.212
O  57.477  62.000  71.199
O  27.125  60.938  43.461
O  43.694  60.903  38.469
O  33.994  65.775  45.948
O  39.186  32.829  40.845
O  43.318  44.823  32.535
O  66.795  68.211  46.161
O  56.627  32.586  53.763
O  56.331  65.272  69.481
O  58.430  51.702  30.022
O  45.878  61.444  44.140
O  54.676  42.844  53.864
O  63.375  39.308  63.132
O  58.998  40.444  31.952
O  65.361  30.608  52.800
O  74.968  41.153  50.614
O  61.144  51.778  56.244
O  63.573  56.406  62.895
O  45.011  35.024  49.693
O  58.230  61.358  55.451
O  45.629  60.666  70.052
O  35.308  49.094  57.767
O  56.576  63.919  66.104
O  45.179  46.781  33.174
O  58.765  48.758  44.161
O  56.392  66.897  63.490
O  27.593  42.701  43.310
O  46.231  61.219  39.304
O  57.157  62.139  34.356
O  48.026  55.257  33.757
O  49.321  58.830  54.067
O  45.136  24.458  50.236
O  46.413  61.705  51.288
O  39.194  45.088  50.755
O  38.361  47.498  40.071
O  60.126  44.629  57.195
O  65.663  48.639  52.895
O  51.942  65.299  56.984
O  62.493  37.666  42.423
O  51.844  56.457  65.482
O  56.297  42.766  60.982
O  51.065  57.460  40.339
O  33.591  50.784  28.965
O  39.582  60.613  39.453
O  38.257  56.114  61.413
O  36.412  70.110  52.705
O  54.644  33.483  30.635
O  30.443  60.318  56.672
O  32.350  61.131  58.722
O  56.293  51.382  47.752
O  65.702  38.177  55.065
O  43.436  70.230  60.511
O  54.478  62.284  54.646
O  37.459  57.134  53.688
O  53.641  30.209  32.468
O  43.259  37.260  49.391
O  42.605  69.520  62.845
O  53.712  29.248  58.359
O  47.172  72.155  59.209
O  39.778  36.104  64.632
O  56.466  43.592  27.886
O  38.175  46.142  38.349
O  35.602  44.799  38.268
O  35.812  48.261  61.147
O  26.237  55.258  44.049
O  50.121  51.782  63.048
O  69.422  54.464  65.874
O  69.163  64.133  58.493
O  53.436  41.373  50.312
O  59.674  63.816  59.629
O  63.713  58.279  39.650
O  55.254  33.926  64.766
O  51.170  56.135  75.753
O  59.255  25.835  48.212
O  51.145  35.929  69.549
O  52.657  41.949  67.892
O  38.790  55.567  31.455
O  51.821  58.893  44.165
O  32.883  64.311  36.698
O  49.619  35.393  67.210
O  29.722  44.222  61.372
O  33.361  50.563  50.267
O  27.678  58.863  52.932
O  51.108  49.388  69.629
O  66.053  67.264  49.013
O  48.425  68.589  64.709
O  45.304  32.581  36.471
O  60.747  42.184  28.691
O  49.211  56.229  29.034
O  62.797  37.047  54.890
O  70.227  49.999  55.016
O  32.799  54.971  51.359
O  49.466  41.287  73.927
O  68.648  36.143  42.909
O  46.217  33.546  70.028
O  36.890  54.481  47.078
O  66.575  60.009  64.373
O  38.159  40.449  70.903
O  60.149  26.222  54.760
O  32.137  39.219  57.075
O  40.353  71.823  38.411
O  59.412  35.871  57.067
O  48.775  33.974  51.574
O  31.894  48.113  58.165
O  28.930  37.998  58.486
O  57.096  43.909  67.142
O  67.813  55.819  61.340
O  62.980  41.089  60.212
O  64.298  65.008  49.222
O  41.552  39.691  72.706
O  44.472  58.647  66.626
O  53.140  62.221  65.894
O  30.149  42.754  50.516
O  28.179  42.687  60.218
O  57.157  29.963  55.372
O  37.438  28.083  43.203
O  39.776  31.368  53.425
O  43.536  62.487  46.319
O  68.934  33.199  54.923
O  55.228  59.267  52.416
O  38.462  30.606  49.080
O  34.209  47.135  56.211
O  50.288  37.839  61.665
O  66.353  59.900  60.846
O  53.623  55.211  26.422
O  69.506  54.510  55.314
O  66.312  55.338  58.396
O  69.113  48.374  49.305
O  42.077  33.071  43.487
O  52.381  42.100  25.626
O  48.790  36.760  43.783
O  49.805  31.825  62.579
O  33.551  40.752  49.521
O  70.056  36.823  41.131
O  64.276  72.049  54.718
O  63.117  47.124  35.434
O  53.363  39.025  64.237
O  49.639  73.107  62.448
O  31.876  56.294  37.141
O  49.034  29.881  33.624
O  48.460  34.721  30.265
O  49.007  41.485  69.498
O  46.431  72.246  36.693
O  34.463  41.979  42.731
O  54.010  47.599  24.385
O  38.908  58.737  61.026
O  49.453  57.452  24.378
O  55.704  59.015  73.731
O  28.516  46.756  61.830
O  65.229  52.759  58.944
O  53.538  54.956  72.810
O  36.823  68.215  38.032
O  60.369  31.221  62.502
O  56.174  44.628  42.667
O  38.571  45.332  72.656
O  63.669  67.416  45.295
O  26.800  53.662  58.391
O  39.457  50.934  63.514
O  36.848  47.174  28.139
O  41.102  56.146  30.805
O  43.434  45.631  64.938
O  38.939  47.504  62.228
O  36.191  46.292  62.071
O  44.919  40.857  43.903
O  49.754  30.243  53.859
O  59.116  70.291  56.180
O  36.750  38.980  32.759
O  63.649  53.755  61.596
O  31.896  63.953  57.914
O  58.771  41.208  39.176
O  33.111  29.649  46.445
O  27.623  48.259  56.436
O  27.793  52.650  43.239
O  57.311  72.696  46.317
O  66.973  32.887  60.193
O  35.000  44.532  58.607
O  65.502  32.456  57.810
O  63.491  52.606  31.256
O  41.724  50.649  70.821
O  31.776  67.365  51.499
O  48.990  41.205  62.036
O  59.751  63.067  35.371
O  35.438  61.417  56.260
O  56.946  52.585  61.093
O  25.196  55.045  51.510
O  55.955  29.352  62.874
O  40.627  47.451  53.338
O  54.479  62.520  52.047
O  35.904  39.362  36.845
O  48.156  42.492  41.531
O  62.563  61.713  33.974
O  43.550  57.225  26.911
O  63.036  42.193  62.114
O  42.346  43.697  60.526
O  64.659  36.712  57.427
O  54.780  27.949  49.493
O  36.401  67.025  40.907
O  51.825  33.415  42.899
O  50.090  50.731  64.980
O  65.583  51.810  56.939
O  52.748  53.614  67.760
O  55.400  67.458  41.260
O  68.357  56.641  39.267
O  51.212  53.544  63.975
O  35.434  55.580  49.698
O  69.433  53.235  44.301
O  55.683  37.590  45.387
O  40.853  32.347  38.361
O  41.540  64.989  69.001
O  34.737  51.355  32.622
O  63.304  42.078  56.515
O  61.909  35.117  51.231
O  24.483  55.185  49.431
O  63.947  34.896  52.747
O  55.652  58.607  58.642
O  69.920  55.342  37.294
O  29.873  48.566  54.234
O  49.051  71.688  39.503
O  43.256  59.280  69.807
O  59.909  46.382  33.513
O  69.267  53.332  39.910
O  38.550  52.781  59.586
O  27.992  50.892  59.079
O  34.361  39.701  64.487
O  72.606  57.000  47.309
O  38.078  36.001  52.196
O  55.547  27.949  36.860
O  44.330  65.308  29.052
O  55.219  46.367  26.523
O  40.359  72.749  57.059
O  35.812  40.231  52.116
O  65.974  55.728  51.735
O  63.437  44.722  66.158
O  51.753  72.547  46.448
O  48.112  34.683  40.443
O  37.500  36.253  42.541
O  28.829  39.741  47.580
O  42.946  50.683  58.477
O  60.419  60.101  49.456
O  54.235  69.141  64.818
O  55.037  35.792  32.402
O  67.644  66.738  58.589
O  65.185  55.127  45.801
O  45.088  28.055  50.233
O  73.112  54.257  51.330
O  30.419  66.717  48.083
O  30.580  56.283  46.180
O  27.888  43.086  47.189
O  68.394  67.818  55.941
O  60.172  38.268  43.660
O  34.180  67.016  42.767
O  62.004  35.172  59.030
O  67.983  43.177  38.484
O  68.138  65.585  61.489
O  58.870  42.304  45.617
O  34.515  46.313  50.624
O  52.926  39.697  43.225
O  44.965  50.631  24.704
O  37.371  58.264  58.869
O  59.601  64.577  69.105
O  43.918  60.488  52.165
O  75.300  44.923  44.284
O  46.363  47.688  49.017
O  55.193  73.727  56.488
O  43.209  71.969  47.464
O  54.540  60.525  56.566
O  56.751  52.241  64.539
O  51.192  38.063  35.378
O  69.614  38.995  63.385
O  62.891  54.701  42.461
O  61.944  61.931  64.455
O  61.731  67.857  65.231
O  55.933  36.445  59.973
O  57.836  73.345  56.226
O  41.020  49.055  48.431
O  57.480  52.224  72.941
O  69.338  39.643  58.421
O  38.322  63.630  64.943
O  61.126  66.635  49.004
O  31.899  49.057  37.395
O  46.571  29.206  38.331
O  63.825  53.664  28.430
O  58.762  38.182  30.328
O  29.976  62.243  44.726
O  39.931  37.476  59.634
O  36.353  42.249  54.873
O  61.154  72.956  49.266
O  68.993  48.470  39.684
O  44.147  48.903  64.601
O  55.645  71.890  51.367
O  65.555  48.492  28.368
O  51.155  54.395  28.370
O  68.645  64.118  40.783
O  52.375  46.892  68.496
O  49.396  34.911  34.896
O  38.873  53.850  50.611
O  49.050  43.693  64.450
O  42.954  28.500  50.758
O  35.644  50.066  71.308
O  56.675  26.848  49.301
O  47.829  69.703  37.884
O  31.100  48.111  51.867
O  30.177  34.895  45.943
O  36.563  33.677  60.867
O  40.437  54.948  36.557
O  61.403  55.532  72.207
O  58.251  58.194  36.975
O  60.617  41.402  40.364
O  65.807  71.116  47.239
O  30.873  32.418  45.724
O  53.912  37.532  67.461
O  31.494  56.523  55.187
O  61.845  42.986  50.476
O  48.199  50.246  61.699
O  36.333  39.503  56.151
O  58.819  68.863  51.032
O  49.397  60.902  31.322
O  48.594  63.059  53.827
O  42.811  59.069  61.514
O  33.138  62.041  37.507
O  43.053  46.786  74.734
O  41.274  61.973  71.854
O  56.834  29.615  44.311
O  57.937  45.087  68.823
O  46.480  70.425  48.864
O  48.504  47.371  60.324
O  70.909  46.954  59.770
O  61.047  57.096  64.644
O  35.900  67.762  59.570
O  64.163  69.069  57.452
O  70.402  53.952  46.754
O  59.835  47.160  56.847
O  49.667  61.287  37.053
O  67.766  59.658  51.230
O  57.000  51.394  39.129
O  57.298  29.066  52.252
O  48.219  38.380  57.468
O  57.589  46.643  60.718
O  40.605  57.976  69.627
O  54.731  59.513  34.167
O  69.108  36.877  46.098
O  37.318  31.500  43.201
O  57.739  70.229  63.841
O  38.275  52.336  54.205
O  64.449  55.527  55.845
O  45.418  70.151  64.943
O  44.887  38.947  71.990
O  56.214  40.122  70.381
O  52.254  59.616  25.768
O  58.414  68.147  63.433
O  47.587  59.054  73.648
O  51.974  38.494  46.853
O  57.996  42.347  72.067
O  59.945  59.528  59.009
O  29.829  60.806  36.959
O  25.698  50.123  57.614
O  69.466  51.765  49.153
O  59.676  72.749  40.685
O  47.579  71.878  56.097
O  62.869  28.370  52.271
O  64.176  39.396  48.012
O  66.231  65.851  39.920
O  31.932  33.907  50.477
O  53.094  43.851  32.773
O  68.032  52.823  33.949
O  56.785  25.186  46.640
O  34.709  66.432  50.235
O  32.506  50.049  69.488
O  54.548  52.606  69.773
O  29.974  55.988  56.839
O  42.217  64.338  50.194
O  55.981  51.629  27.183
O  50.925  31.672  32.018
O  44.104  55.809  65.532
O  47.949  30.659  36.345
O  58.200  35.063  41.997
O  56.309  56.954  25.016
O  66.449  39.691  56.644
O  66.986  34.369  52.282
O  57.013  58.357  42.057
O  29.660  47.338  66.531
O  43.394  70.156  54.268
O  65.719  69.972  49.521
O  45.322  59.842  63.257
O  36.497  42.868  66.481
O  68.269  63.105  35.617
O  63.716  43.674  31.859
O  54.862  40.537  63.609
O  57.049  27.627  46.067
O  59.981  67.820  42.154
O  74.917  44.318  54.272
O  57.672  47.974  67.339
O  36.228  68.086  62.137
O  47.921  46.404  34.387
O  48.919  41.692  27.971
O  75.544  53.799  53.051
O  44.405  67.923  63.883
O  53.905  68.066  36.665
O  62.683  30.481  38.495
O  48.184  32.333  32.008
O  57.453  31.043  38.253
O  45.804  33.960  31.848
O  59.907  58.869  33.287
O  40.396  36.158  67.984
O  38.398  38.776  64.143
O  42.643  72.329  42.735
O  53.944  58.726  27.837
O  68.919  52.553  56.131
O  40.643  36.735  43.032
O  58.117  44.399  48.635
O  64.265  37.733  52.641
O  53.837  63.358  33.949
O  32.353  36.045  39.558
O  44.927  57.601  29.857
O  39.392  43.543  61.626
O  72.991  46.805  46.483
O  30.165  37.959  60.769
O  33.081  40.892  68.523
O  62.485  53.250  69.482
O  68.536  55.152  53.447
O  65.146  63.242  33.910
O  49.323  51.991  67.524
O  42.296  35.503  62.413
O  60.360  30.400  43.970
O  39.561  41.482  47.208
O  36.518  39.538  47.969
O  61.482  37.697  48.182
O  58.479  32.370  65.156
O  58.966  42.900  50.062
O  53.178  69.382  32.270
O  58.601  63.491  32.413
O  58.299  57.401  32.769
O  34.816  48.634  49.814
O  67.021  42.914  55.612
O  52.296  42.193  35.421
O  57.163  72.143  43.806
O  33.981  40.583  59.033
O  60.402  53.112  61.655
O  41.193  36.794  51.468
O  67.997  44.608  53.726
O  54.593  52.140  25.040
O  33.235  55.566  56.853
O  52.097  33.704  64.385
O  32.121  51.876  45.486
O  36.989  57.526  68.698
O  33.901  32.756  39.065
O  50.855  49.429  24.257
O  41.534  56.436  65.464
O  40.504  58.480  40.289
O  28.955  34.824  49.726
O  53.778  61.030  73.028
O  31.290  60.775  46.561
O  63.101  59.959  70.212
O  41.906  59.196  34.458
O  46.622  34.403  51.854
O  54.450  59.489  38.798
O  57.030  50.648  33.689
O  51.952  30.211  59.615
O  45.038  31.409  55.979
O  41.085  46.224  58.083
O  59.377  66.817  44.954
O  55.117  73.437  48.540
O  64.895  53.108  41.297
O  33.589  56.491  34.232
O  64.328  31.486  39.585
O  58.211  40.854  63.829
O  58.407  45.240  72.156
O  30.462  54.353  66.324
O  40.541  48.497  60.652
O  69.282  64.098  51.354
O  33.754  50.072  35.655
O  71.114  44.337  47.825
O  48.340  43.247  72.840
O  71.669  51.968  36.223
O  58.285  38.703  64.296
O  37.308  40.967  45.254
O  46.491  31.804  45.836
O  24.943  52.479  53.523
O  55.903  60.387  26.963
O  64.579  28.964  47.836
O  70.063  37.226  56.796
O  31.333  65.608  45.965
O  40.948  37.046  56.053
O  35.678  53.539  48.854
O  42.035  58.305  58.822
O  63.713  47.445  66.197
O  49.766  64.386  57.947
O  59.787  41.061  35.256
O  62.186  41.560  36.822
O  63.783  41.817  47.125
O  67.054  52.650  43.963
O  69.238  56.123  45.907
O  55.195  33.302  66.896
O  62.292  42.351  64.191
O  34.388  54.001  37.152
O  51.297  31.823  35.156
O  66.810  50.155  68.430
O  40.238  31.565  51.250
O  33.440  56.407  43.064
O  31.965  45.019  58.697
O  53.625  49.605  35.747
O  43.622  41.660  61.504
O  54.588  65.592  38.814
O  51.630  41.912  55.408
O  54.296  67.026  68.924
O  36.484  60.868  50.827
O  36.214  56.262  55.682
O  42.808  55.210  45.380
O  52.279  27.950  48.149
O  57.399  32.791  47.134
O  37.829  50.784  47.226
O  65.612  43.218  48.450
O  59.182  49.706  37.355
O  36.361  45.664  65.608
O  63.932  58.976  59.145
O  55.073  53.188  28.904
O  39.807  57.717  51.021
O  68.036  59.027  40.948
O  40.149  39.621  30.643
O  50.010  40.019  64.108
O  63.217  56.620  44.502
O  49.098  34.370  63.797
O  35.635  52.445  29.822
O  47.346  71.297  45.221
O  27.920  42.767  52.133
O  46.719  62.801  34.325
O  67.523  67.339  50.648
O  52.257  51.470  40.264
O  57.637  54.551  47.508
O  70.148  52.170  66.043
O  46.518  64.254  36.993
O  40.026  45.151  39.008
O  47.585  58.592  35.247
O  51.998  72.090  35.154
O  37.653  46.695  48.352
O  67.425  40.706  44.769
O  55.337  47.342  38.157
O  44.501  40.101  28.901
O  52.897  65.288  67.060
O  29.819  53.932  47.360
O  42.768  49.705  56.501
O  52.144  28.683  39.117
O  34.830  43.747  51.353
O  60.695  69.721  58.635
O  58.878  38.512  37.981
O  52.380  31.798  41.235
O  73.514  49.648  45.991
O  30.174  65.317  54.469
O  48.979  33.132  47.631
O  64.573  40.577  31.287
O  49.883  50.686  40.473
O  29.066  51.868  40.757
O  54.257  45.984  29.955
O  33.688  38.810  35.265
O  53.311  47.422  72.501
O  54.263  55.561  32.713
O  53.894  33.764  42.237
O  47.496  37.700  52.948
O  54.879  51.748  65.584
O  66.203  56.969  64.836
O  38.842  59.599  67.933
O  61.545  43.454  34.683
O  39.991  36.954  53.984
O  58.241  44.798  39.535
O  29.463  47.894  40.785
O  49.729  40.797  40.205
O  60.488  43.564  68.516
O  61.725  55.874  61.823
O  47.081  74.729  40.759
O  36.834  40.356  64.340
O  58.895  52.553  45.381
O  53.402  70.722  60.048
O  44.964  35.129  29.207
O  29.660  50.117  42.227
O  65.462  62.481  39.214
O  66.537  62.497  47.032
O  63.008  61.012  62.660
O  75.069  46.148  42.429
O  66.153  37.176  47.086
O  49.027  35.409  49.821
O  66.188  66.072  46.688
O  59.699  38.648  60.033
O  63.310  34.207  55.467
O  63.877  51.482  46.166
O  60.294  37.448  50.652
O  38.520  37.029  56.283
O  46.382  66.720  62.524
O  53.253  67.935  41.222
O  53.628  69.821  62.042
O  43.381  51.280  26.630
O  76.123  50.890  52.917
O  44.358  62.857  54.161
O  60.028  42.587  66.109
O  40.200  72.232  44.008
O  44.731  65.152  32.758
O  46.223  43.277  66.692
O  37.949  43.094  69.206
O  53.103  65.070  46.038
O  53.730  48.119  57.698
O  31.539  36.212  62.095
O  38.900  31.504  56.699
O  58.506  50.928  64.345
O  68.095  50.964  52.469
O  69.088  33.442  45.563
O  49.539  51.277  34.410
O  64.157  58.018  67.646
O  51.560  27.878  52.941
O  54.772  47.039  59.685
O  66.647  45.914  52.559
O  58.358  43.728  29.440
O  38.460  72.157  41.276
O  43.726  65.979  38.009
O  35.717  49.856  54.742
O  50.837  69.501  34.390
O  55.102  36.153  55.066
O  58.134  61.197  58.650
O  70.074  58.646  56.087
O  39.284  61.386  44.119
O  71.364  49.619  59.690
O  34.164  36.916  38.661
O  51.816  46.132  30.276
O  50.823  52.052  32.724
O  30.948  64.160  41.498
O  60.914  37.408  66.990
O  62.136  48.005  42.551
O  35.581  52.595  53.548
O  60.792  41.699  48.767
O  47.513  69.498  47.149
O  56.039  36.012  39.391
O  29.854  58.567  52.622
O  29.089  39.894  38.448
O  55.994  42.289  57.964
O  26.190  48.310  49.479
O  59.979  53.048  33.008
O  42.642  35.879  65.532
O  44.169  38.974  48.142
O  43.929  43.785  62.118
O  40.628  55.951  57.029
O  63.977  49.506  50.551
O  46.295  60.063  31.146
O  39.672  56.220  73.812
O  63.297  56.747  41.548
O  33.384  57.136  65.369
O  49.711  51.401  70.360
O  36.510  48.116  67.884
O  31.592  58.463  43.510
O  55.284  58.681  63.308
O  50.371  55.518  31.411
O  49.246  62.414  46.109
O  64.560  59.744  50.663
O  51.873  49.121  26.992
O  37.832  65.235  54.459
O  51.363  70.353  51.904
O  46.706  52.261  63.557
O  41.978  48.619  64.899
O  57.071  39.285  32.193
O  37.425  33.374  47.416
O  70.539  48.425  46.663
O  52.915  46.809  39.337
O  37.589  58.785  36.671
O  56.519  58.665  66.870
O  51.016  43.375  63.440
O  53.181  36.118  45.006
O  46.556  71.779  63.997
O  57.798  43.872  55.373
O  39.453  43.335  41.741
O  31.789  54.317  48.831
O  38.155  57.903  31.384
O  43.822  65.879  35.812
O  37.839  51.481  32.082
O  58.051  44.714  58.273
O  46.218  69.841  35.316
O  64.794  40.574  65.469
O  73.959  43.981  47.438
O  30.449  49.120  45.015
O  52.801  48.779  31.611
O  44.669  62.042  42.182
O  45.569  38.617  54.900
O  65.855  39.019  35.646
O  33.440  32.247  45.018
O  40.940  41.182  50.837
O  61.364  51.380  44.352
O  40.594  32.865  55.884
O  51.051  47.836  65.343
O  52.227  54.829  70.345
O  51.068  71.024  37.259
O  27.771  59.814  49.860
O  46.724  48.832  74.819
O  53.507  57.539  32.106
O  32.185  38.880  44.302
O  44.516  36.397  66.567
O  51.850  69.034  54.401
O  41.461  72.019  59.413
O  47.658  44.821  26.370
O  46.350  55.762  28.336
O  67.968  52.563  68.006
O  50.163  53.335  38.172
O  34.556  42.371  61.514
O  40.999  53.572  65.275
O  58.448  30.239  62.072
O  54.132  54.331  64.505
O  63.684  52.826  43.361
O  52.988  66.252  64.836
O  61.422  46.388  54.505
O  60.574  46.573  51.751
O  47.050  35.455  46.503
O  48.180  48.681  70.655
O  30.266  48.791  48.105
O  66.851  31.341  44.701
O  56.015  53.923  71.419
O  57.534  59.989  34.668
O  61.075  63.590  51.660
O  44.967  39.953  58.775
O  39.071  57.013  64.456
O  61.284  70.032  41.498
O  67.197  59.309  42.962
O  37.589  54.886  68.735
O  36.238  65.593  37.502
O  50.228  45.421  26.447
O  54.151  55.694  62.778
O  27.464  58.539  43.158
O  59.377  35.332  65.306
O  49.199  35.760  59.938
O  40.696  40.311  28.344
O  24.985  48.252  54.524
O  63.029  49.797  47.698
O  50.086  75.195  41.193
O  47.579  40.126  38.083
O  42.399  59.071  31.721
O  59.339  28.640  43.051
O  37.650  47.704  71.238
O  31.644  47.402  68.530
O  40.864  61.310  41.567
O  36.150  58.566  51.066
O  61.155  34.474  35.135
O  66.399  36.948  52.557
O  67.086  37.993  44.562
O  60.106  30.498  58.567
O  38.805  37.196  36.767
O  40.194  54.011  68.909
O  42.360  52.205  72.248
O  51.989  56.349  28.944
O  40.452  43.099  28.201
O  71.012  35.796  46.311
O  52.143  60.276  32.492
O  64.692  71.871  52.268
O  54.528  63.896  61.313
O  63.165  52.418  58.260
O  71.202  57.909  51.026
O  67.153  50.663  48.896
O  64.296  49.661  35.916
O  40.100  54.251  60.572
O  68.956  56.493  64.403
O  30.420  58.749  34.905
O  38.927  65.356  35.188
O  47.276  33.412  53.883
O  41.966  64.856  64.565
O  44.379  41.001  67.346
O  49.937  28.900  61.526
O  52.234  48.341  60.589
O  63.739  42.649  43.064
O  62.438  39.917  54.153
O  48.688  70.381  62.208
O  61.608  33.410  38.953
O  45.901  34.609  34.765
O  35.062  47.206  66.489
O  39.925  33.826  33.357
O  42.341  63.145  28.071
O  56.371  69.452  42.609
O  38.755  43.848  66.975
O  32.134  53.607  56.610
O  46.491  58.613  52.177
O  45.632  72.781  61.412
O  43.077  43.139  68.281
O  57.808  42.140  56.730
O  32.794  67.339  48.646
O  40.488  41.302  65.228
O  45.682  45.647  64.150
O  45.060  73.681  58.419
O  59.066  57.615  49.545
O  56.405  62.209  38.830
O  33.920  63.932  60.510
O  40.300  30.749  34.265
O  56.442  32.378  49.077
O  59.695  34.558  45.333
O  61.824  68.878  50.249
O  51.872  33.509  45.243
O  57.349  58.551  29.323
O  62.373  57.734  69.135
O  65.851  42.939  59.484
O  39.308  45.595  60.654
O  32.836  66.742  54.655
O  48.974  64.449  68.814
O  40.982  63.574  59.847
O  51.151  60.072  73.473
O  31.789  58.599  33.189
O  51.125  38.756  51.939
O  40.483  51.813  38.934
O  63.195  57.776  36.316
O  52.301  53.194  29.818
O  34.069  62.638  64.276
O  70.320  39.179  43.343
O  63.137  49.700  26.778
O  65.202  57.333  49.517
O  31.562  41.037  36.824
O  39.912  63.682  55.825
O  45.573  73.741  45.129
O  59.064  52.391  50.345
O  47.410  41.593  64.507
O  64.958  54.484  64.846
O  62.489  68.583  63.272
O  32.325  33.576  53.564
O  56.005  72.061  62.381
O  51.301  44.107  56.135
O  44.509  38.173  39.781
O  40.293  40.909  43.918
O  67.465  47.291  59.626
O  42.998  67.309  45.550
O  45.166  49.978  35.139
O  52.029  49.616  66.188
O  42.329  59.231  53.505
O  28.042  58.460  61.044
O  34.019  38.483  32.347
O  34.149  56.802  67.404
O  47.138  63.911  40.673
O  52.420  37.700  70.532
O  49.286  50.822  51.315
O  44.759  28.758  63.138
O  51.782  73.945  59.387
O  63.956  58.154  55.117
O  31.681  36.306  51.152
O  64.453  57.150  47.310
O  46.476  48.193  30.532
O  32.642  59.951  56.264
O  46.341  35.679  63.401
O  55.287  39.275  55.740
O  30.855  59.952  64.708
O  56.926  49.329  62.566
O  37.725  61.468  70.138
O  34.381  48.923  67.980
O  46.078  27.079  42.080
O  55.911  35.419  43.677
O  37.901  52.032  44.796
O  73.419  47.087  53.252
O  42.408  67.548  56.024
O  40.779  46.052  67.014
O  71.681  60.538  55.801
O  40.299  30.403  44.726
O  34.035  62.561  53.120
O  42.064  56.831  71.407
O  37.869  56.183  43.311
O  67.324  61.106  41.068
O  38.035  33.557  64.038
O  42.196  39.496  70.608
O  37.860  48.439  58.785
O  40.111  42.572  45.367
O  47.517  54.844  71.410
O  50.190  53.992  53.244
O  59.108  55.226  35.761
O  51.646  26.748  44.878
O  48.851  49.071  45.410
O  45.643  30.867  50.016
O  67.669  35.205  59.239
O  58.093  49.704  50.115
O  53.930  51.905  51.539
O  44.830  36.230  72.070
O  64.055  62.075  55.207
O  59.108  70.880  48.631
O  53.301  46.819  47.257
O  49.172  45.680  46.848
O  31.123  47.177  49.479
O  50.686  49.697  48.558
O  41.590  42.988  69.899
O  50.638  71.469  59.848
O  49.895  33.766  71.185
O  56.793  57.058  63.225
O  48.062  49.495  54.971
O  51.909  51.365  55.163
O  53.577  35.767  57.845
O  39.953  67.990  62.517
O  66.292  42.333  34.621
O  56.161  50.423  30.387
O  54.980  53.587  75.743
N  54.450  50.646  53.996
N  50.123  52.271  56.216
N  47.582  49.311  51.473
N  48.411  51.553  54.037
N  50.479  46.045  45.037
N  47.151  45.013  48.815
N  51.761  52.453  51.079
N  47.749  49.355  48.296
N  52.353  53.934  53.978
N  47.255  47.449  45.656
N  51.782  48.251  46.320
N  52.840  50.036  49.228
C  52.791  51.562  51.129
C  48.149  44.729  49.876
C  46.197  52.397  51.069
C  47.076  49.542  47.028
C  56.517  52.946  55.359
C  52.145  50.677  45.935
C  51.302  56.212  48.639
C  52.571  50.405  44.506
C  48.124  52.651  57.501
C  48.588  50.626  55.037
C  48.427  51.155  57.474
C  48.154  46.940  51.113
C  47.799  48.687  45.956
C  52.735  45.346  44.690
C  46.467  52.748  44.960
C  51.898  49.739  48.263
C  51.894  53.827  51.502
C  51.406  53.938  52.972
C  49.365  53.325  56.879
C  47.511  51.339  52.935
C  55.642  51.408  57.001
C  47.032  52.668  52.302
C  48.160  48.371  50.547
C  51.361  54.801  49.194
C  49.413  50.996  56.292
C  45.260  44.810  45.927
C  48.957  45.954  50.290
C  54.453  52.135  57.049
C  55.330  53.677  55.408
C  51.331  52.398  55.595
C  47.172  45.301  44.376
C  51.055  54.819  50.684
C  46.223  53.463  53.307
C  44.896  50.866  45.352
C  56.677  51.811  56.155
C  52.893  51.882  46.466
C  47.997  46.502  44.861
C  48.205  50.485  51.840
C  47.085  51.016  46.603
C  47.358  48.430  49.217
C  53.356  49.113  51.453
C  46.353  51.272  45.295
C  46.498  42.464  46.792
C  52.523  50.115  50.631
C  52.916  48.985  52.897
C  54.285  53.274  56.250
C  44.622  43.983  46.852
C  47.138  43.291  45.869
C  50.756  46.292  43.628
C  49.254  46.025  45.639
C  52.312  46.996  46.517
C  45.238  42.808  47.286
C  52.412  49.441  46.828
C  54.053  49.220  53.886
C  53.052  54.098  56.375
C  52.271  46.074  43.432
C  51.714  45.782  45.770
C  51.942  53.806  55.355
C  50.386  53.922  48.435
C  46.527  44.474  45.431
H  60.721  37.504  43.877
H  72.473  52.269  35.782
H  34.792  55.402  50.397
H  48.287  33.920  41.007
H  70.991  36.821  40.889
H  36.266  55.694  50.173
H  44.699  28.406  49.422
H  66.466  50.592  48.221
H  69.718  36.005  40.747
H  45.151  27.106  50.064
H  55.606  47.830  37.369
H  50.349  53.648  64.396
H  38.368  59.315  36.459
H  33.497  40.673  50.481
H  34.417  40.383  49.308
H  56.427  43.827  67.833
H  66.242  54.729  59.142
H  56.658  44.432  66.460
H  37.518  58.173  35.928
H  66.020  54.895  46.226
H  49.478  50.548  41.338
H  70.379  54.621  55.710
H  51.237  54.258  63.326
H  33.495  67.014  43.447
H  68.899  54.751  56.025
H  38.597  51.711  45.383
H  60.480  38.529  42.783
H  37.821  53.949  68.739
H  48.792  35.319  40.701
H  68.029  68.661  56.239
H  40.804  36.484  53.758
H  67.897  67.162  56.445
H  64.340  71.167  54.332
H  41.243  32.730  37.566
H  44.175  60.064  51.336
H  43.427  61.269  51.880
H  67.923  50.252  48.483
H  63.252  45.221  66.963
H  60.260  41.169  34.422
H  59.900  41.913  35.696
H  63.130  45.305  65.452
H  30.680  56.702  45.316
H  66.745  59.998  61.722
H  42.158  64.635  69.652
H  67.042  60.219  60.249
H  31.167  55.518  46.134
H  67.956  54.911  61.045
H  39.930  32.630  38.322
H  63.648  72.506  54.144
H  43.916  64.928  33.225
H  56.217  36.786  45.374
H  69.208  54.109  43.959
H  67.146  55.731  62.033
H  37.024  36.831  41.931
H  71.990  51.585  37.049
H  69.550  52.701  43.505
H  51.739  71.862  45.768
H  27.185  43.542  47.668
H  51.505  73.349  45.971
H  44.600  66.073  32.499
H  73.109  54.660  50.452
H  53.422  55.172  25.479
H  28.675  43.253  47.722
H  73.472  54.949  51.898
H  56.018  38.076  46.151
H  38.396  55.322  69.036
H  53.057  55.922  26.748
H  55.330  46.422  37.866
H  67.705  57.226  38.861
H  62.585  34.647  58.466
H  69.163  56.811  38.764
H  29.723  38.344  58.057
H  42.176  33.808  44.103
H  33.757  46.138  50.053
H  48.808  37.683  44.066
H  39.407  36.257  54.308
H  46.789  35.034  62.839
H  66.881  55.651  51.414
H  42.047  50.787  58.813
H  66.038  55.478  52.665
H  29.920  57.641  52.358
H  35.238  46.469  50.004
H  28.868  37.093  58.156
H  53.596  50.123  34.933
H  59.694  41.885  45.897
H  34.145  63.796  59.581
H  30.458  58.635  53.372
H  59.040  64.206  69.797
H  41.918  32.312  44.062
H  52.369  39.268  43.886
H  45.283  51.057  23.898
H  62.820  57.586  41.545
H  36.916  57.754  58.188
H  53.139  41.520  25.768
H  64.222  57.010  41.462
H  52.308  42.589  26.455
H  53.155  38.982  42.618
H  69.887  48.810  49.682
H  33.090  33.004  53.423
H  61.295  60.385  49.164
H  60.496  60.073  50.418
H  32.744  48.523  58.368
H  55.042  69.462  65.240
H  43.264  51.590  58.387
H  60.401  64.842  69.575
H  54.337  68.182  64.828
H  38.160  57.741  59.059
H  48.363  36.793  42.918
H  36.451  40.398  52.820
H  55.796  35.978  31.835
H  34.566  64.583  60.810
H  67.911  44.044  38.902
H  37.990  35.659  41.959
H  67.961  67.372  59.244
H  68.544  42.676  39.089
H  50.060  51.635  40.451
H  37.232  52.378  45.400
H  50.287  31.781  61.744
H  59.397  48.822  37.032
H  64.774  54.273  45.620
H  65.267  40.599  66.310
H  55.831  66.610  41.424
H  56.075  67.973  40.800
H  61.184  35.231  58.524
H  45.118  49.692  24.543
H  58.305  49.601  37.744
H  66.359  56.207  58.813
H  34.664  66.196  42.927
H  54.440  45.799  26.560
H  55.529  46.392  27.437
H  35.154  40.927  52.232
H  54.319  35.629  31.777
H  59.162  43.115  45.181
H  38.150  60.180  68.273
H  28.136  39.542  48.223
H  53.599  48.691  35.438
H  31.991  33.735  52.672
H  68.851  65.437  60.855
H  28.856  40.706  47.564
H  68.401  48.605  49.914
H  49.521  30.914  62.728
H  67.317  66.002  59.121
H  39.899  73.551  56.780
H  67.775  66.440  61.228
H  64.113  39.905  65.609
H  38.376  59.031  67.306
H  40.193  72.127  56.340
H  32.133  47.332  57.650
H  58.099  48.392  44.757
H  50.624  38.536  62.242
H  52.651  65.681  57.517
H  35.132  47.783  60.656
H  52.304  65.298  56.089
H  36.425  48.556  60.461
H  58.468  67.045  44.726
H  26.409  54.755  43.244
H  65.162  47.814  52.882
H  26.168  56.170  43.739
H  59.815  67.673  45.035
H  49.770  51.746  62.149
H  51.011  51.418  62.961
H  65.080  49.268  52.451
H  61.554  69.407  40.813
H  69.770  54.678  66.748
H  60.731  45.099  56.608
H  68.599  53.995  66.062
H  53.016  61.620  73.078
H  59.674  44.009  56.609
H  68.406  63.963  59.068
H  69.486  64.994  58.786
H  61.383  70.893  41.074
H  54.272  61.225  73.834
H  38.522  48.202  40.711
H  52.632  41.445  49.782
H  53.158  40.862  51.082
H  38.427  46.691  40.596
H  60.364  63.817  60.303
H  58.908  63.447  60.085
H  39.523  44.295  51.197
H  37.422  47.078  70.540
H  35.938  45.275  39.038
H  35.830  43.879  38.450
H  57.924  62.824  32.243
H  60.026  25.575  47.691
H  59.622  26.415  48.891
H  43.439  37.196  50.337
H  47.266  50.173  61.937
H  42.402  68.745  63.384
H  51.761  56.982  28.251
H  34.236  51.340  28.511
H  42.785  70.210  63.495
H  33.868  49.885  28.747
H  54.113  30.123  58.283
H  54.416  28.649  58.082
H  35.154  49.275  49.176
H  47.844  72.026  59.891
H  47.104  73.115  59.134
H  63.138  53.605  70.098
H  52.953  56.311  28.911
H  56.016  42.327  60.169
H  56.644  43.613  60.677
H  38.836  36.313  64.590
H  39.834  35.218  64.253
H  52.222  56.949  64.742
H  52.566  56.413  66.121
H  56.216  44.306  27.287
H  57.148  43.112  27.399
H  58.273  64.273  31.951
H  37.556  47.187  72.049
H  37.796  45.398  37.864
H  62.555  38.417  41.819
H  38.718  46.592  37.690
H  62.428  36.904  41.835
H  34.075  48.221  49.353
H  63.189  58.889  39.115
H  38.350  44.808  50.380
H  63.823  57.509  39.078
H  57.391  62.499  35.221
H  62.891  56.709  63.507
H  56.573  62.810  33.980
H  64.267  56.068  63.475
H  58.691  44.697  47.918
H  45.949  61.600  40.145
H  44.248  34.444  49.576
H  44.820  35.492  50.515
H  59.063  61.507  55.915
H  46.387  60.290  39.514
H  57.607  61.937  55.907
H  47.837  31.435  32.070
H  66.674  47.804  59.834
H  27.204  43.016  42.485
H  57.363  45.000  48.588
H  45.076  61.317  70.503
H  48.194  32.639  32.924
H  28.532  42.614  43.102
H  35.381  48.449  58.482
H  68.056  47.471  60.368
H  34.620  49.698  58.072
H  56.633  66.089  63.960
H  55.637  63.714  66.012
H  56.649  64.819  65.764
H  56.421  67.577  64.174
H  63.659  62.669  54.557
H  46.119  46.993  33.240
H  45.031  46.691  32.224
H  64.068  61.220  54.758
H  59.426  49.130  44.757
H  45.451  60.823  69.117
H  44.045  36.876  48.982
H  61.746  51.725  55.490
H  34.065  48.054  68.257
H  61.725  53.052  70.043
H  54.446  33.944  64.237
H  55.811  33.282  64.312
H  44.117  28.169  63.552
H  45.823  61.583  52.042
H  47.217  62.066  51.682
H  38.032  55.868  60.507
H  37.399  56.230  61.839
H  45.046  28.271  62.355
H  74.803  43.455  53.855
H  51.900  56.114  75.121
H  50.608  55.401  75.478
H  75.482  44.798  53.654
H  44.240  24.365  50.583
H  60.287  51.540  55.870
H  45.561  25.061  50.859
H  40.351  60.408  38.906
H  51.857  57.097  40.756
H  49.693  59.713  54.185
H  50.403  56.768  40.464
H  66.825  34.698  51.389
H  50.032  58.337  53.638
H  64.657  29.997  52.549
H  65.680  30.950  51.956
H  66.355  33.645  52.377
H  74.522  40.567  51.239
H  33.579  49.376  67.689
H  74.739  42.037  50.926
H  48.602  54.528  33.493
H  48.639  55.918  34.104
H  38.878  60.766  38.811
H  51.871  35.613  70.101
H  50.534  36.330  70.181
H  48.638  49.635  62.304
H  57.959  29.360  52.891
H  43.137  60.046  69.231
H  43.407  58.552  69.192
H  56.964  29.889  51.873
H  69.356  32.370  55.181
H  60.676  46.119  34.036
H  69.355  33.857  55.492
H  42.915  65.009  64.471
H  68.706  53.217  40.687
H  68.666  53.191  39.169
H  46.052  71.277  49.017
H  42.729  62.707  45.837
H  44.236  62.624  45.669
H  37.838  52.846  60.235
H  49.289  72.407  40.101
H  38.245  52.096  58.978
H  27.318  51.225  59.684
H  28.164  51.640  58.493
H  34.945  39.697  65.256
H  40.512  31.279  54.043
H  39.005  31.460  53.998
H  33.493  39.496  64.857
H  53.042  42.887  32.776
H  73.075  56.318  47.806
H  72.858  57.821  47.751
H  47.380  41.260  63.602
H  36.936  28.502  43.913
H  53.987  44.033  33.089
H  37.923  35.293  52.834
H  39.040  36.048  52.135
H  45.787  69.890  48.458
H  38.031  28.782  42.899
H  41.897  63.897  64.656
H  54.661  60.034  52.265
H  59.261  39.001  60.818
H  34.159  50.590  32.730
H  35.211  51.406  33.462
H  59.033  38.737  59.340
H  63.303  41.728  57.415
H  49.527  38.247  61.232
H  64.190  41.874  56.191
H  62.184  35.751  50.557
H  61.571  34.371  50.721
H  60.154  37.403  66.396
H  23.798  54.931  48.800
H  55.196  72.558  62.208
H  62.807  47.842  34.869
H  63.413  46.451  34.808
H  48.825  70.961  40.097
H  24.392  56.144  49.495
H  61.672  37.413  66.393
H  63.411  34.131  52.501
H  63.493  35.255  53.519
H  34.806  47.867  56.011
H  34.331  46.992  57.158
H  56.460  58.312  59.080
H  55.699  59.570  58.700
H  65.832  45.725  53.040
H  69.296  54.704  37.662
H  69.827  55.230  36.340
H  66.507  45.500  51.699
H  29.472  47.753  53.900
H  29.623  49.230  53.579
H  55.546  59.039  51.534
H  55.686  71.195  62.666
H  40.884  65.453  69.537
H  54.664  28.340  36.870
H  67.117  52.615  33.724
H  67.179  32.017  44.095
H  32.835  60.876  59.517
H  41.551  40.606  72.397
H  32.039  60.291  58.365
H  42.484  39.511  72.885
H  66.507  30.655  44.115
H  40.244  48.886  48.979
H  56.592  51.143  46.866
H  63.419  64.668  49.014
H  55.624  50.716  47.955
H  40.844  48.555  47.624
H  64.864  37.810  54.756
H  65.881  37.687  55.878
H  64.558  65.478  48.419
H  30.815  61.173  56.421
H  62.595  41.759  59.634
H  63.319  40.425  59.599
H  43.276  71.176  60.401
H  36.460  49.552  71.330
H  41.764  72.672  58.770
H  55.097  62.303  55.386
H  53.683  61.884  55.021
H  51.800  42.135  67.488
H  35.874  50.839  70.777
H  53.290  42.330  67.271
H  36.668  57.671  53.551
H  37.736  56.903  52.793
H  40.757  71.550  58.948
H  53.223  29.661  33.144
H  53.830  31.036  32.928
H  44.399  70.163  60.542
H  55.849  28.087  35.954
H  30.014  60.494  57.519
H  57.769  52.410  72.039
H  44.245  66.138  29.536
H  47.841  40.883  64.999
H  56.646  29.593  54.641
H  56.488  30.378  55.931
H  44.547  64.664  29.738
H  68.000  53.752  34.209
H  31.888  55.429  36.714
H  31.956  56.914  36.406
H  27.429  42.936  59.662
H  29.998  67.515  47.742
H  28.754  42.194  59.619
H  29.763  66.026  47.926
H  68.516  49.135  39.172
H  50.395  72.980  63.035
H  43.517  58.633  66.770
H  48.901  73.254  63.053
H  61.752  58.440  69.349
H  29.497  42.315  49.956
H  38.332  29.850  48.493
H  30.707  43.231  49.888
H  63.019  57.772  69.852
H  38.441  31.365  48.483
H  37.053  69.620  53.235
H  53.407  63.018  65.420
H  36.890  70.303  51.888
H  53.374  61.505  65.289
H  56.590  51.869  72.828
H  54.070  33.472  31.412
H  55.432  33.006  30.926
H  44.839  58.555  67.514
H  68.388  48.258  40.405
H  59.260  46.649  34.176
H  56.490  56.660  64.051
H  53.081  54.296  67.164
H  48.533  53.992  31.319
H  48.987  42.255  28.753
H  58.860  71.650  60.489
H  57.704  71.138  61.331
H  57.301  40.721  45.368
H  56.096  39.907  44.930
H  39.761  67.705  61.615
H  71.311  51.397  61.442
H  70.325  52.184  62.288
H  40.394  67.226  62.910
H  44.888  60.773  47.756
H  44.870  59.483  46.955
H  47.006  63.546  31.405
H  47.882  62.555  32.152
H  64.312  59.003  54.828
H  68.541  46.690  56.886
H  68.102  45.237  56.936
H  47.669  52.750  31.182
H  64.737  57.662  55.400
H  48.847  40.801  28.336
H  45.025  51.888  64.927
H  66.372  45.549  60.442
H  47.644  75.156  57.736
H  47.981  75.607  56.325
H  40.700  35.831  43.365
H  63.799  37.248  65.513
H  64.012  36.448  64.240
H  39.808  36.750  42.548
H  44.750  62.895  64.731
H  46.249  63.093  64.873
H  50.972  58.961  56.038
H  51.960  60.079  56.321
H  59.979  58.553  34.196
H  37.129  67.421  53.266
H  38.178  67.547  52.175
H  60.788  59.213  33.094
H  59.722  72.696  51.956
H  58.789  71.529  51.683
H  45.710  50.635  65.443
H  67.348  45.749  61.589
H  34.409  43.267  69.900
H  35.585  41.951  50.333
H  55.485  67.329  43.685
H  54.191  68.050  43.348
H  69.578  60.907  53.347
H  69.278  59.420  53.269
H  37.608  47.578  58.428
H  42.747  53.290  57.090
H  43.494  54.233  56.163
H  37.533  49.065  58.127
H  36.124  42.567  59.615
H  37.118  43.713  59.548
H  34.233  59.826  31.601
H  35.700  59.544  31.330
H  45.168  30.229  50.563
H  67.631  42.415  57.666
H  69.058  42.150  58.112
H  45.948  31.529  50.649
H  33.504  55.576  48.270
H  46.152  47.682  29.780
H  33.406  44.282  69.381
H  37.282  66.841  48.826
H  46.791  47.520  31.148
H  37.014  42.465  50.334
H  32.569  59.091  55.831
H  40.994  59.996  66.669
H  40.357  58.638  66.432
H  33.272  60.432  55.714
H  32.483  45.663  30.590
H  33.080  44.283  30.805
H  50.949  37.251  29.795
H  52.175  38.108  30.060
H  31.172  59.284  65.328
H  42.495  71.368  52.120
H  42.996  72.456  51.186
H  31.094  60.787  65.128
H  51.706  67.639  43.672
H  51.967  69.131  43.777
H  31.578  43.237  41.188
H  30.330  42.618  41.791
H  38.277  65.840  48.266
H  32.245  56.328  47.873
H  38.937  43.430  60.781
H  63.981  33.564  38.931
H  67.901  51.257  60.387
H  66.946  50.153  59.969
H  41.276  47.140  58.320
H  25.410  42.928  50.855
H  25.509  43.263  49.377
H  40.514  45.916  58.798
H  59.675  36.593  46.416
H  59.365  37.465  47.621
H  55.511  45.831  68.108
H  54.826  47.183  68.012
H  41.742  59.773  33.701
H  42.540  59.785  65.104
H  42.975  58.437  64.555
H  42.817  58.904  34.330
H  38.460  47.918  53.399
H  37.866  49.315  53.441
H  73.467  41.696  47.187
H  69.897  61.745  47.654
H  74.422  40.886  46.326
H  70.307  62.999  48.405
H  55.371  42.894  34.853
H  49.572  42.406  34.289
H  49.861  42.674  32.822
H  58.638  43.566  50.678
H  73.619  51.136  44.205
H  73.649  52.637  43.973
H  29.552  60.238  43.923
H  29.604  59.351  42.692
H  50.145  51.646  67.892
H  53.216  70.766  49.408
H  52.159  71.841  49.591
H  48.714  51.981  68.274
H  42.856  49.795  68.183
H  43.636  51.098  68.151
H  57.680  37.641  34.062
H  57.104  36.303  34.491
H  59.051  40.802  64.302
H  55.026  41.430  34.644
H  57.563  41.005  64.528
H  65.388  33.785  38.404
H  41.300  56.617  66.383
H  58.249  67.583  67.222
H  58.644  35.608  42.659
H  39.215  38.641  44.722
H  40.712  38.850  44.572
H  58.140  34.196  42.417
H  45.713  59.562  33.898
H  46.778  60.599  34.209
H  40.902  72.960  51.783
H  40.634  74.360  51.259
H  29.969  55.023  56.823
H  51.178  56.472  25.669
H  51.470  56.592  24.184
H  30.094  56.202  57.772
H  46.906  48.007  63.387
H  46.273  49.339  63.749
H  64.694  67.773  38.332
H  66.186  67.862  38.601
H  40.326  43.543  61.384
H  36.034  53.729  64.051
H  58.954  66.970  66.026
H  36.119  54.384  62.684
H  42.432  33.824  55.139
H  41.203  57.207  64.987
H  34.734  38.490  51.294
H  35.080  38.259  52.755
H  41.019  61.099  31.250
H  39.562  61.010  31.670
H  57.996  27.477  46.184
H  62.738  61.809  52.534
H  62.532  61.545  51.053
H  56.696  27.571  46.964
H  65.047  59.018  41.820
H  64.350  58.894  43.164
H  54.039  35.648  69.309
H  54.363  35.490  70.785
H  66.461  69.361  49.605
H  55.755  43.220  40.459
H  56.635  42.107  41.001
H  66.072  70.808  49.850
H  41.349  34.880  55.271
H  43.977  65.476  60.150
H  42.824  64.827  59.406
H  53.495  55.623  62.074
H  34.681  46.400  66.858
H  57.261  62.907  70.950
H  58.388  61.890  70.900
H  57.609  59.951  68.942
H  58.454  58.758  68.530
H  45.693  46.421  64.726
H  55.514  56.224  28.920
H  55.335  55.171  27.841
H  46.455  45.770  63.585
H  57.790  67.113  59.591
H  58.537  68.435  59.582
H  46.465  61.779  44.828
H  45.600  60.582  44.475
H  32.219  66.471  53.965
H  40.323  35.389  49.226
H  39.717  34.106  48.684
H  33.055  67.654  54.423
H  26.537  60.507  42.829
H  57.690  65.567  55.955
H  27.765  61.397  42.902
H  42.774  61.123  38.659
H  57.125  65.287  68.931
H  55.938  64.411  69.292
H  61.831  33.582  38.029
H  55.844  32.197  53.355
H  56.890  31.933  54.424
H  61.351  32.480  38.958
H  67.240  67.624  45.537
H  66.274  68.795  45.595
H  44.247  44.663  32.743
H  42.899  44.900  33.401
H  43.729  43.851  68.273
H  38.221  32.840  40.856
H  39.417  32.242  41.575
H  42.729  43.136  67.381
H  34.515  65.388  45.233
H  34.357  65.365  46.743
H  44.087  61.750  38.224
H  34.581  47.329  65.661
H  58.081  52.302  29.351
H  58.018  64.106  55.702
H  65.075  62.247  42.471
H  49.346  61.081  40.730
H  59.192  65.689  54.056
H  58.254  66.243  52.997
H  55.381  50.232  30.923
H  49.955  39.836  32.934
H  50.890  38.693  33.289
H  56.864  50.536  31.039
H  55.537  54.870  24.953
H  56.416  53.632  24.960
H  36.750  44.057  29.311
H  35.595  44.407  28.389
H  71.784  61.459  55.531
H  54.421  63.159  49.413
H  53.542  64.389  49.271
H  72.418  60.089  55.370
H  31.047  43.324  53.731
H  32.521  43.690  53.699
H  48.079  61.910  40.837
H  64.334  61.453  43.532
H  63.796  49.529  47.176
H  35.116  59.221  34.053
H  61.200  47.305  51.818
H  68.967  33.414  52.253
H  69.620  34.610  52.923
H  61.132  45.787  51.814
H  32.884  51.432  53.533
H  32.515  52.203  52.278
H  45.302  58.791  59.333
H  44.462  60.054  59.267
H  52.497  55.609  70.845
H  65.037  36.634  39.499
H  65.687  35.524  40.306
H  52.416  55.066  69.429
H  30.763  51.362  63.400
H  31.132  52.552  64.268
H  56.724  70.199  56.551
H  55.971  71.407  56.022
H  62.395  50.098  47.036
H  33.728  59.548  34.576
H  59.266  51.400  29.647
H  40.844  54.154  61.179
H  50.767  53.261  69.844
H  44.741  65.820  50.353
H  44.774  64.613  51.274
H  40.309  33.206  56.741
H  72.735  43.059  52.064
H  72.572  41.549  52.055
H  40.986  32.009  56.097
H  32.689  38.974  37.334
H  33.555  40.041  37.981
H  40.820  56.558  41.848
H  39.873  57.679  42.238
H  44.835  35.667  67.113
H  71.535  56.589  61.863
H  70.294  56.619  60.989
H  44.417  37.125  67.192
H  59.667  46.447  68.867
H  59.698  47.807  68.191
H  59.180  53.651  73.256
H  59.000  49.823  28.124
H  60.625  53.989  73.577
H  57.484  49.758  28.067
H  53.967  33.935  55.738
H  32.580  46.944  41.653
H  34.001  46.997  42.184
H  54.985  55.489  62.336
H  59.345  45.576  50.126
H  60.629  46.176  49.580
H  37.196  69.716  57.924
H  36.355  70.978  57.851
H  42.974  59.612  31.166
H  61.215  48.898  58.778
H  59.999  49.466  58.067
H  41.595  58.977  31.195
H  41.018  62.021  47.072
H  40.520  61.596  48.442
H  62.872  50.497  28.812
H  61.588  49.716  28.590
H  39.704  37.079  37.099
H  54.883  32.837  55.228
H  38.794  36.686  35.947
H  58.062  30.201  61.187
H  28.465  56.854  46.387
H  28.530  57.488  47.766
H  36.669  29.337  57.315
H  38.165  29.080  57.264
H  65.543  54.385  64.085
H  50.371  28.417  50.057
H  50.192  26.909  50.027
H  39.672  51.681  30.821
H  39.146  50.461  30.084
H  46.057  73.832  44.299
H  61.803  68.733  54.455
H  62.104  68.269  53.041
H  45.304  72.814  45.138
H  60.460  44.794  60.896
H  59.064  45.037  60.349
H  53.794  33.724  51.082
H  55.048  33.690  51.937
H  39.326  54.208  61.147
H  51.664  52.072  69.548
H  65.532  54.312  65.602
H  65.910  37.796  65.807
H  65.605  38.566  67.080
H  75.619  45.406  48.223
H  57.987  30.976  62.491
H  35.016  58.395  48.072
H  35.870  57.647  49.081
H  44.934  65.732  56.472
H  44.775  64.225  56.381
H  56.805  59.584  35.154
H  59.371  40.954  61.835
H  58.015  41.635  61.781
H  59.702  42.492  50.535
H  58.273  59.949  35.287
H  53.860  30.476  56.126
H  48.017  56.046  64.640
H  46.823  56.972  64.787
H  52.723  33.851  44.942
H  61.431  49.276  70.376
H  62.930  49.380  70.157
H  52.029  32.562  45.347
H  75.242  44.649  49.485
H  52.803  29.411  56.360
H  36.547  43.553  62.029
H  35.997  43.104  63.372
H  44.718  57.280  24.873
H  42.719  57.204  26.419
H  33.368  57.336  42.812
H  62.297  62.592  33.676
H  63.345  61.518  33.444
H  47.635  42.222  42.297
H  47.690  42.094  40.785
H  49.648  55.762  32.001
H  35.141  38.792  37.008
H  35.658  39.853  36.051
H  50.938  54.962  31.960
H  53.773  62.267  51.439
H  55.020  63.129  51.530
H  41.051  47.550  54.200
H  40.647  48.344  52.970
H  46.086  59.332  31.741
H  56.861  29.091  63.082
H  56.058  29.974  62.143
H  43.498  56.447  27.481
H  46.597  60.762  31.740
H  34.254  56.372  43.582
H  62.105  41.954  62.036
H  31.270  64.677  57.788
H  51.239  32.743  43.270
H  51.239  33.950  42.349
H  37.143  45.128  65.790
H  58.544  40.501  39.793
H  58.108  41.887  39.351
H  35.809  45.088  65.064
H  36.626  67.209  39.986
H  35.710  66.353  40.844
H  54.920  28.100  48.550
H  54.295  27.115  49.522
H  36.099  55.619  56.392
H  64.857  35.810  57.709
H  65.262  37.254  57.952
H  36.604  57.026  56.125
H  42.226  44.490  59.989
H  42.691  43.047  59.901
H  63.434  41.430  62.552
H  32.090  63.658  57.015
H  25.982  54.833  52.029
H  57.214  53.211  61.777
H  37.280  57.496  31.417
H  35.532  44.843  57.864
H  34.709  43.654  58.329
H  66.678  32.092  60.654
H  67.143  33.516  60.906
H  57.155  58.812  66.158
H  58.035  72.085  46.134
H  57.587  73.515  45.888
H  55.668  58.639  66.416
H  27.986  51.869  42.706
H  28.243  53.364  42.771
H  28.352  48.598  55.901
H  27.942  47.400  56.739
H  60.826  41.779  47.805
H  33.446  30.434  46.896
H  33.860  29.041  46.455
H  61.317  40.910  48.951
H  65.874  31.663  58.216
H  24.554  55.330  52.172
H  66.036  33.172  58.176
H  63.002  51.824  30.971
H  56.154  52.172  61.458
H  55.956  41.379  57.645
H  36.042  62.013  56.721
H  35.026  60.912  56.972
H  55.744  42.813  57.193
H  59.323  63.468  34.604
H  60.270  62.346  34.993
H  39.498  54.996  31.779
H  49.709  40.568  61.942
H  49.410  42.054  61.849
H  52.033  49.316  31.842
H  31.699  67.208  50.549
H  31.615  68.313  51.587
H  53.358  49.382  31.103
H  41.414  51.396  70.294
H  41.654  49.898  70.218
H  64.001  52.855  30.474
H  38.425  57.791  30.464
H  50.920  39.697  64.091
H  36.659  39.459  31.926
H  36.845  38.059  32.485
H  37.994  47.625  62.078
H  42.554  45.390  64.622
H  43.681  44.894  65.510
H  38.100  46.650  49.207
H  40.582  56.773  30.287
H  41.572  55.632  30.137
H  38.303  46.337  47.735
H  37.681  47.150  28.628
H  36.807  48.077  27.801
H  39.817  51.461  64.238
H  39.192  50.109  63.942
H  37.121  40.186  65.246
H  26.071  54.146  58.799
H  27.530  54.293  58.403
H  36.929  41.312  64.245
H  63.389  67.975  44.559
H  63.735  68.030  46.037
H  39.219  48.341  62.620
H  38.299  44.486  72.280
H  39.416  44.599  39.514
H  36.122  45.823  61.229
H  57.194  51.356  33.055
H  64.965  51.495  56.267
H  66.449  51.577  56.581
H  56.905  49.867  33.135
H  50.049  49.787  65.174
H  50.469  51.114  65.781
H  64.299  53.959  62.280
H  62.803  53.944  62.019
H  29.475  53.876  48.260
H  59.691  70.760  56.797
H  58.613  70.996  55.753
H  29.320  54.660  46.969
H  50.518  29.855  54.304
H  49.067  29.572  53.955
H  45.248  40.689  43.011
H  43.973  41.001  43.775
H  40.220  45.885  39.605
H  36.664  45.672  62.640
H  37.946  45.473  73.378
H  44.975  35.158  30.172
H  57.065  44.749  43.018
H  64.081  47.974  65.479
H  54.150  47.889  25.295
H  53.529  46.767  24.480
H  63.115  48.054  66.648
H  34.098  41.117  42.495
H  33.903  42.604  42.254
H  46.948  71.799  36.011
H  46.803  71.913  37.519
H  25.667  51.906  53.806
H  48.518  42.211  69.904
H  49.932  41.724  69.641
H  25.145  52.662  52.597
H  48.785  34.201  31.010
H  47.867  35.364  30.675
H  48.068  29.880  33.610
H  49.275  29.729  32.701
H  50.032  40.734  64.756
H  38.867  58.447  61.946
H  39.631  59.377  61.019
H  49.271  56.526  24.173
H  48.937  57.616  25.177
H  55.807  43.920  43.212
H  45.241  34.227  29.002
H  59.914  32.025  62.220
H  60.712  31.447  63.376
H  36.311  68.376  37.230
H  37.658  67.858  37.703
H  34.050  38.288  34.538
H  54.064  55.648  72.391
H  59.613  39.962  31.385
H  54.195  54.405  73.254
H  64.907  53.097  59.789
H  65.925  52.140  59.194
H  28.220  46.124  62.497
H  29.371  47.057  62.161
H  62.092  43.183  64.639
H  55.164  59.317  74.472
H  56.609  59.145  74.039
H  62.543  41.758  64.910
H  32.742  38.843  35.074
H  52.420  52.929  67.165
H  58.410  40.887  31.328
H  64.054  38.871  63.661
H  44.430  34.985  45.200
H  64.627  54.199  28.376
H  61.429  70.365  46.363
H  62.891  70.080  46.663
H  40.281  73.283  53.880
H  39.187  73.943  54.701
H  60.692  72.139  49.495
H  44.888  43.277  35.775
H  43.964  43.485  36.962
H  61.566  73.226  50.096
H  42.287  43.908  73.198
H  42.627  43.540  71.764
H  45.450  42.082  57.077
H  44.301  42.845  56.440
H  51.611  38.602  36.060
H  36.784  47.474  41.855
H  37.231  47.706  43.287
H  43.651  36.241  44.850
H  50.735  37.375  35.877
H  63.217  54.102  27.822
H  34.168  42.528  46.048
H  65.418  47.397  62.730
H  40.998  65.745  48.931
H  40.384  64.356  48.917
H  48.529  59.129  73.844
H  43.064  52.083  60.937
H  43.631  51.620  62.268
H  47.282  58.364  74.250
H  44.460  57.131  70.841
H  45.634  57.445  69.931
H  66.859  31.635  50.066
H  67.967  31.840  51.084
H  58.293  70.822  64.363
H  39.923  33.721  60.301
H  38.727  34.508  59.796
H  57.124  69.861  64.487
H  67.274  36.959  37.106
H  68.418  37.799  36.566
H  32.714  42.957  46.145
H  66.459  46.550  63.441
H  49.801  27.064  40.073
H  35.179  34.469  39.622
H  34.186  62.773  46.040
H  35.398  62.520  46.919
H  53.962  38.060  72.059
H  55.263  38.624  72.601
H  35.370  67.049  49.897
H  59.295  44.935  42.404
H  59.963  43.857  41.571
H  34.662  65.751  49.553
H  55.606  61.812  64.722
H  55.773  61.389  63.273
H  60.800  39.017  56.799
H  60.775  38.217  58.090
H  56.461  71.780  43.252
H  66.985  65.951  43.093
H  66.577  64.552  42.665
H  57.806  72.481  43.170
H  46.200  57.194  25.193
H  39.079  53.234  51.324
H  50.121  25.889  40.981
H  33.474  46.890  53.186
H  39.541  54.541  50.704
H  34.603  34.328  41.020
H  54.710  37.044  67.700
H  41.106  30.279  65.631
H  41.114  31.643  64.965
H  54.229  38.431  67.311
H  67.257  39.318  64.966
H  68.461  40.243  64.941
H  64.757  42.941  50.460
H  66.134  43.443  50.856
H  40.286  54.383  37.325
H  40.152  70.300  46.332
H  38.962  71.185  46.004
H  39.808  55.671  36.676
H  49.219  53.643  35.411
H  50.638  53.896  34.932
H  44.089  40.153  38.422
H  44.927  40.090  37.157
H  32.865  47.986  54.044
H  62.821  29.103  51.645
H  59.218  63.330  47.019
H  59.672  64.715  47.445
H  44.519  62.854  48.727
H  40.113  51.080  72.713
H  38.695  51.327  73.199
H  51.786  52.053  32.656
H  53.109  39.503  61.711
H  51.903  40.407  61.898
H  50.554  52.808  32.187
H  48.572  69.115  58.492
H  49.773  69.438  59.363
H  29.760  53.994  51.128
H  29.480  55.467  51.366
H  51.689  69.096  34.594
H  67.456  34.305  49.026
H  67.163  35.136  47.789
H  50.637  69.180  33.502
H  68.420  40.476  34.441
H  67.893  40.752  33.044
H  43.979  64.271  48.810
H  45.599  48.019  55.806
H  75.533  46.860  42.889
H  54.078  70.627  40.188
H  59.610  42.125  66.846
H  54.737  42.090  54.464
H  53.879  43.305  54.156
H  59.324  42.657  65.453
H  31.852  63.302  47.955
H  32.808  62.159  47.662
H  44.009  63.849  37.536
H  42.548  63.472  37.707
H  59.818  37.291  51.477
H  67.397  46.887  42.086
H  68.064  48.098  42.715
H  61.020  38.028  50.912
H  37.720  63.134  40.245
H  37.191  61.787  39.786
H  45.574  56.607  61.256
H  45.417  56.341  59.769
H  74.843  46.536  41.575
H  54.700  69.331  39.698
H  45.122  46.768  56.523
H  48.872  51.888  34.073
H  37.489  62.478  46.236
H  42.201  46.451  75.040
H  58.278  57.797  53.899
H  58.942  56.449  54.118
H  42.898  47.730  74.610
H  47.419  41.129  67.949
H  48.482  42.056  67.386
H  64.644  48.611  60.096
H  64.107  47.477  60.952
H  57.499  42.960  72.624
H  71.547  39.914  46.778
H  70.985  38.946  47.804
H  57.326  41.727  71.755
H  33.428  50.468  63.848
H  32.422  49.337  63.966
H  36.208  37.529  66.370
H  37.516  38.299  66.306
H  62.814  27.586  51.711
H  38.780  46.134  69.089
H  40.037  45.285  69.010
H  41.050  45.413  27.100
H  39.813  44.840  26.432
H  36.925  63.883  46.111
H  49.572  51.472  35.355
H  61.888  54.337  31.373
H  61.173  55.137  32.448
H  44.018  37.695  30.105
H  42.836  38.642  30.215
H  49.127  38.286  57.153
H  43.050  74.114  45.401
H  62.731  39.606  63.787
H  41.742  73.467  44.979
H  47.599  56.785  59.444
H  48.140  57.846  60.386
H  44.161  45.198  38.354
H  45.581  44.692  38.537
H  70.328  54.762  47.274
H  34.800  32.318  46.994
H  36.142  31.789  46.521
H  70.589  54.268  45.862
H  48.319  38.514  58.419
H  38.203  55.657  32.216
H  64.985  56.406  30.068
H  51.096  59.129  44.758
H  52.882  46.158  68.128
H  74.292  55.549  40.435
H  72.795  55.781  40.553
H  51.777  47.139  67.779
H  34.990  30.449  53.160
H  33.760  29.598  53.427
H  66.930  32.301  55.086
H  65.623  32.175  54.322
H  56.942  26.184  48.654
H  45.464  46.676  67.329
H  45.234  45.176  67.367
H  56.412  26.327  50.070
H  68.699  44.099  43.475
H  67.495  44.966  43.153
H  51.032  68.623  62.091
H  51.147  69.942  61.348
H  58.927  58.024  36.307
H  70.510  47.317  43.356
H  70.593  45.801  43.377
H  34.040  30.767  58.742
H  33.141  31.908  59.188
H  64.401  56.190  66.119
H  52.226  34.630  64.624
H  38.512  60.939  66.220
H  37.731  62.206  66.520
H  42.104  46.725  72.618
H  43.198  47.729  72.298
H  41.535  36.067  50.932
H  58.282  47.512  65.143
H  59.915  48.831  25.959
H  59.358  46.448  65.026
H  60.159  32.860  53.373
H  60.928  34.084  52.909
H  28.343  48.117  63.797
H  29.104  49.398  64.089
H  32.981  41.354  67.681
H  53.658  29.852  35.595
H  52.495  30.420  36.388
H  33.792  41.373  68.966
H  40.954  37.466  50.818
H  62.903  55.942  66.084
H  60.445  50.156  25.439
H  40.168  38.424  71.558
H  58.637  73.210  55.704
H  48.265  67.680  41.768
H  46.752  67.625  41.648
H  65.241  48.957  33.267
H  63.995  49.698  33.721
H  32.483  48.924  38.152
H  43.693  57.115  74.498
H  42.637  57.419  73.449
H  31.025  49.152  37.793
H  49.333  31.817  39.571
H  49.654  33.292  39.402
H  63.534  61.236  39.274
H  64.481  60.399  40.115
H  37.054  41.706  54.492
H  37.014  48.110  56.215
H  38.177  47.134  56.265
H  36.209  42.936  54.210
H  40.760  40.042  59.168
H  41.359  41.121  60.053
H  57.200  73.686  55.585
H  34.396  49.861  41.679
H  39.326  38.234  70.308
H  61.625  61.328  28.814
H  61.590  61.275  30.332
H  31.161  55.632  55.021
H  35.965  36.272  53.061
H  34.850  35.241  53.021
H  30.717  57.084  55.069
H  57.392  33.805  32.478
H  57.433  57.903  36.552
H  58.174  34.707  33.418
H  33.575  40.536  32.999
H  55.073  61.038  57.186
H  57.127  71.663  58.315
H  56.024  71.664  59.359
H  54.026  59.939  57.135
H  49.390  29.101  44.358
H  50.610  28.669  45.154
H  35.184  48.897  42.548
H  32.097  40.439  32.667
H  52.336  33.674  63.450
H  72.073  61.616  48.498
H  72.959  60.383  48.478
H  38.446  39.962  49.975
H  38.916  41.406  50.001
H  53.728  48.878  54.911
H  66.973  54.413  30.522
H  67.276  53.265  31.470
H  46.490  45.733  49.144
H  53.456  54.235  39.023
H  54.950  54.344  38.773
H  50.166  45.575  42.994
H  42.351  64.609  56.716
H  41.947  63.194  57.093
H  50.467  47.345  43.355
H  37.003  64.048  35.309
H  37.724  64.024  36.645
H  53.777  45.608  44.989
H  62.271  48.532  55.948
H  61.190  49.563  56.219
H  51.038  50.892  45.952
H  51.284  43.402  70.080
H  50.514  44.478  69.335
H  52.442  51.330  43.891
H  49.412  46.442  49.385
H  60.176  47.609  47.973
H  60.781  49.000  48.055
H  53.804  50.032  48.986
H  53.143  30.457  53.543
H  53.142  31.975  53.569
H  53.991  51.680  46.508
H  34.351  56.968  37.018
H  52.479  45.488  42.506
H  35.165  56.714  35.761
H  69.945  42.983  42.045
H  70.299  41.761  42.874
H  53.645  50.102  44.466
H  38.832  41.385  35.053
H  38.687  40.950  36.500
H  51.955  49.598  44.042
H  62.081  55.402  39.570
H  61.646  56.803  39.175
H  52.726  52.754  45.787
H  58.416  73.949  49.578
H  57.507  74.018  50.793
H  52.675  44.237  44.551
H  62.540  41.752  68.686
H  47.091  46.597  51.226
H  36.400  51.705  39.212
H  37.442  50.973  40.039
H  52.533  52.166  47.484
H  28.195  60.772  47.044
H  27.871  62.154  46.503
H  53.652  51.827  57.739
H  64.038  41.508  68.707
H  40.240  60.189  56.393
H  54.737  26.937  43.309
H  54.934  28.434  43.151
H  38.840  41.253  47.807
H  35.162  69.596  41.113
H  36.593  69.551  41.620
H  40.355  41.336  47.738
H  39.308  70.055  56.407
H  40.773  69.664  56.315
H  41.257  59.225  55.808
H  54.285  70.180  42.803
H  46.373  45.688  43.682
H  62.406  43.891  58.945
H  45.622  60.415  54.260
H  44.390  60.841  55.040
H  51.541  44.983  46.545
H  37.490  35.200  44.713
H  36.951  33.812  44.414
H  48.118  42.997  45.462
H  67.670  46.839  48.631
H  67.131  46.904  47.213
H  62.481  43.902  57.428
H  46.970  41.517  47.098
H  55.655  60.079  40.542
H  44.715  42.134  47.983
H  53.844  23.866  46.231
H  54.291  24.288  44.842
H  43.611  44.238  47.210
H  52.351  37.573  54.810
H  51.489  37.395  56.048
H  44.740  45.706  45.551
H  54.776  59.418  41.589
H  52.587  44.759  27.134
H  53.770  71.474  42.199
H  41.195  45.423  52.701
H  39.745  64.407  30.009
H  31.894  64.374  51.406
H  32.565  63.800  50.171
H  53.253  67.019  41.529
H  26.442  51.999  55.914
H  25.508  52.705  56.881
H  52.640  68.378  41.822
H  41.931  67.322  58.959
H  40.994  68.321  58.302
H  52.125  30.154  43.657
H  50.715  30.606  43.321
H  44.431  62.845  53.198
H  35.050  65.026  35.567
H  35.400  65.973  34.433
H  45.188  63.257  54.448
H  53.083  52.623  36.543
H  54.567  52.598  36.864
H  40.576  63.189  30.372
H  49.309  35.866  49.019
H  70.689  41.061  39.297
H  71.710  39.946  39.156
H  71.013  40.582  49.275
H  71.840  49.369  60.492
H  64.229  52.784  47.992
H  64.410  51.344  48.438
H  70.539  49.122  59.749
H  42.552  62.071  60.226
H  42.073  60.632  60.151
H  42.838  34.957  35.310
H  54.331  47.655  32.723
H  44.104  35.792  35.230
H  57.431  69.934  34.484
H  56.659  68.961  33.609
H  58.546  50.112  63.833
H  56.659  66.227  37.449
H  56.949  65.305  38.620
H  38.132  69.871  38.848
H  37.869  70.146  37.378
H  48.514  34.660  49.490
H  58.914  51.583  63.766
H  69.607  41.147  49.172
H  54.958  48.865  33.394
H  47.831  28.972  62.159
H  43.154  65.586  35.181
H  38.290  39.111  53.823
H  39.731  39.044  53.349
H  44.490  66.303  35.259
H  43.297  63.086  32.035
H  43.816  62.382  30.793
H  43.248  33.111  57.072
H  42.575  32.599  58.334
H  74.772  43.821  46.943
H  58.421  63.325  44.767
H  59.343  64.464  44.367
H  73.262  43.850  46.783
H  59.149  53.508  69.103
H  57.873  53.125  68.374
H  71.054  52.723  56.823
H  71.116  51.211  56.694
H  56.811  35.797  39.930
H  38.553  68.438  35.755
H  37.317  67.697  35.275
H  62.236  58.316  49.533
H  62.759  57.954  50.912
H  46.860  30.139  62.157
H  31.913  36.794  61.423
H  41.945  39.932  48.938
H  41.019  38.728  48.960
H  55.053  31.464  36.137
H  53.753  32.049  35.614
H  37.253  33.850  46.594
H  36.926  49.660  29.495
H  31.027  35.572  61.585
H  36.032  50.072  28.338
H  55.990  53.129  41.459
H  54.678  52.591  42.004
H  38.955  52.278  70.067
H  38.343  50.890  69.985
H  54.027  36.162  44.543
H  44.054  33.696  51.690
H  42.795  33.328  52.454
H  52.589  36.642  44.451
H  36.920  33.866  48.076
H  54.149  55.737  41.470
H  55.450  55.725  40.687
H  61.450  48.670  42.684
H  53.143  31.630  51.265
H  54.609  31.550  51.653
H  66.186  65.142  40.573
H  57.497  28.111  58.428
H  56.568  29.068  57.701
H  66.264  66.654  40.455
H  44.421  67.055  69.758
H  45.382  66.997  68.582
H  50.193  45.584  37.345
H  48.901  44.787  37.316
H  71.389  46.287  59.263
H  69.317  65.792  49.237
H  68.942  64.882  48.080
H  69.983  46.775  59.566
H  57.252  24.315  49.772
H  58.642  24.842  50.082
H  27.201  61.907  52.907
H  60.614  53.088  30.073
H  60.106  54.477  29.726
H  30.344  60.181  37.484
H  60.250  28.496  49.243
H  65.212  55.518  55.254
H  56.300  66.433  67.242
H  55.352  66.666  66.080
H  64.770  55.086  56.641
H  66.161  68.910  59.153
H  65.228  67.718  59.038
H  44.696  62.835  62.499
H  46.152  62.429  62.648
H  25.957  61.072  52.655
H  53.061  60.052  25.469
H  50.865  35.073  57.672
H  52.500  58.684  25.813
H  59.927  59.415  56.665
H  60.322  57.986  56.335
H  68.273  39.773  48.088
H  68.696  39.785  46.630
H  29.387  61.352  37.621
H  61.373  27.673  49.851
H  50.042  36.290  57.287
H  56.234  30.363  44.202
H  56.532  57.208  72.788
H  56.288  56.070  71.813
H  65.411  61.667  49.000
H  66.082  61.294  50.311
H  71.643  44.800  48.486
H  26.660  58.728  46.297
H  27.086  59.860  45.378
H  35.098  51.431  66.155
H  34.925  51.868  64.711
H  52.045  27.045  52.975
H  70.845  43.526  48.273
H  49.195  48.773  35.819
H  52.039  28.448  53.556
H  67.920  45.608  33.110
H  67.482  44.197  33.458
H  66.791  35.256  56.769
H  68.243  35.701  56.771
H  62.837  48.486  42.093
H  62.172  46.075  59.068
H  62.175  46.527  57.618
H  48.821  48.875  34.351
H  41.220  45.307  54.215
H  49.521  67.742  39.960
H  45.533  24.318  46.473
H  57.500  29.754  43.626
H  72.497  46.331  49.855
H  72.275  47.825  50.012
H  62.287  43.289  45.607
H  61.865  41.850  45.366
H  63.336  68.709  57.795
H  58.319  24.778  52.643
H  59.293  25.937  52.753
H  49.618  66.266  40.304
H  64.156  69.986  57.752
H  35.913  53.835  34.060
H  54.964  43.386  25.643
H  55.448  41.972  25.915
H  56.840  52.255  39.536
H  48.686  69.699  67.311
H  47.181  69.865  67.197
H  57.656  51.582  38.446
H  47.018  24.032  46.614
H  34.845  54.736  34.656
H  52.757  46.021  27.961
H  46.605  50.784  53.329
H  48.937  29.304  47.369
H  68.892  45.213  50.264
H  51.664  58.951  36.635
H  50.399  58.110  36.637
H  58.872  65.957  41.606
H  57.951  67.164  41.618
H  65.666  60.736  52.398
H  65.027  59.415  52.788
H  51.011  74.040  43.203
H  52.528  73.972  43.224
H  54.519  63.192  63.397
H  55.068  64.606  63.328
H  60.767  46.738  41.370
H  59.604  47.167  40.492
H  31.627  46.607  46.016
H  30.389  47.043  46.780
H  48.090  64.123  42.646
H  48.081  65.640  42.573
H  69.424  45.317  48.845
H  62.041  50.472  41.564
H  63.147  51.405  41.104
H  66.280  54.238  42.650
H  26.991  41.411  46.075
H  61.474  47.274  26.064
H  61.247  47.857  27.448
H  69.749  45.067  41.357
H  69.597  46.439  40.722
H  55.481  62.339  67.740
H  54.164  63.090  67.636
H  59.697  64.595  39.183
H  48.694  37.818  71.110
H  59.528  66.057  38.810
H  50.050  70.171  49.407
H  57.610  45.168  25.815
H  58.972  44.545  25.570
H  36.464  40.657  40.811
H  35.342  41.678  40.736
H  38.820  49.218  43.037
H  38.651  50.712  42.822
H  67.093  54.537  41.402
H  51.074  69.050  49.373
H  25.996  41.756  47.169
H  47.785  38.991  70.786
H  27.822  64.403  46.386
H  55.236  54.601  54.815
H  40.436  69.606  60.589
H  41.668  68.758  60.849
H  49.964  54.621  50.859
H  60.715  41.509  55.791
H  61.318  42.896  55.659
H  50.906  48.382  45.863
H  62.692  44.613  43.712
H  61.932  44.001  42.548
H  53.648  51.217  54.314
H  61.942  26.761  46.993
H  60.888  27.833  46.781
H  51.278  55.837  51.105
H  52.506  37.413  62.031
H  51.872  36.033  62.060
H  57.630  51.259  56.147
H  57.470  55.047  67.383
H  40.557  48.298  71.255
H  39.471  49.312  71.569
H  52.985  54.119  51.425
H  38.415  67.608  45.857
H  70.990  57.063  41.629
H  70.562  55.815  40.876
H  73.434  43.423  55.917
H  73.528  44.937  55.861
H  38.099  42.783  56.453
H  37.155  43.962  56.299
H  62.719  60.214  42.129
H  61.622  59.445  41.414
H  28.971  64.065  47.321
H  47.805  64.924  34.459
H  57.346  53.289  54.718
H  63.947  54.130  34.483
H  63.804  55.533  33.921
H  55.216  50.759  54.669
H  68.754  53.221  59.883
H  70.259  53.020  59.875
H  46.634  44.163  48.564
H  39.123  68.563  44.913
H  49.183  64.290  34.399
H  39.870  58.206  54.012
H  40.487  56.870  53.637
H  49.560  70.062  55.565
H  71.607  44.105  38.735
H  70.095  44.250  38.741
H  27.400  52.795  46.891
H  28.728  52.061  46.964
H  57.505  68.201  53.898
H  56.059  68.003  54.316
H  46.294  65.347  71.061
H  47.653  66.010  71.200
H  47.522  33.262  57.105
H  48.572  34.318  56.807
H  42.642  36.537  57.491
H  43.977  36.361  58.193
H  56.969  70.706  52.977
H  55.780  70.780  53.919
H  47.885  41.862  31.657
H  47.797  43.258  32.248
H  41.287  52.145  55.406
H  46.342  45.454  69.247
H  47.680  45.823  69.863
H  58.276  66.867  36.101
H  59.312  65.994  35.414
H  36.594  40.455  38.625
H  36.916  41.880  39.040
H  65.288  59.470  37.895
H  66.705  59.106  38.300
H  34.482  60.041  43.902
H  33.434  59.155  44.552
H  31.017  52.296  48.243
H  32.380  51.725  48.597
H  40.889  53.112  54.305
H  37.362  54.325  52.160
H  47.816  55.731  25.620
H  46.830  54.576  25.607
H  72.381  52.553  62.982
H  73.236  51.391  62.508
H  56.813  47.063  34.744
H  55.297  47.088  34.661
H  53.793  61.949  47.457
H  52.664  60.973  47.178
H  36.753  53.174  51.378
H  64.525  44.559  70.657
H  66.016  44.840  70.598
H  61.354  52.490  64.504
H  45.034  33.981  53.925
H  68.569  64.026  44.608
H  69.322  64.838  45.648
H  63.119  49.811  57.897
H  64.076  49.498  56.760
H  50.711  44.626  67.149
H  50.136  43.310  66.657
H  36.199  28.116  53.578
H  45.154  32.599  53.307
H  36.165  28.537  52.119
H  61.644  27.608  41.320
H  42.707  63.469  42.731
H  41.719  64.589  42.451
H  26.957  53.718  53.656
H  26.878  54.541  54.929
H  39.498  70.904  62.250
H  38.576  69.906  62.928
H  50.664  70.875  54.911
H  61.769  28.967  40.655
H  56.424  54.049  66.919
H  49.938  27.123  59.532
H  65.931  65.726  62.844
H  62.279  51.422  65.062
H  59.644  55.847  40.914
H  60.696  54.780  41.162
H  51.990  53.526  41.002
H  51.575  54.963  41.269
H  38.168  54.326  44.969
H  38.608  53.794  43.616
H  34.613  48.383  36.967
H  51.005  27.592  58.558
H  34.024  47.029  37.323
H  39.826  56.800  71.332
H  29.690  61.307  62.719
H  30.106  59.849  62.641
H  66.825  43.903  41.013
H  67.006  45.333  40.535
H  57.831  47.235  31.950
H  56.382  47.689  31.916
H  66.700  64.426  62.685
H  39.180  58.106  71.761
H  53.315  53.824  53.762
H  40.498  38.272  62.898
H  40.935  38.102  64.343
H  40.991  30.747  42.575
H  40.033  29.575  42.449
H  48.594  46.979  52.149
H  64.169  65.966  40.957
H  64.155  67.392  40.435
H  51.419  49.877  50.770
H  35.669  28.880  47.705
H  35.587  29.705  48.978
H  49.235  48.678  50.337
H  51.135  41.042  57.422
H  51.202  39.602  56.944
H  46.759  49.024  51.951
H  38.229  60.910  59.247
H  39.253  59.846  58.891
H  46.803  51.894  50.278
H  51.627  41.141  32.133
H  52.176  40.342  30.964
H  52.788  47.064  43.347
H  44.558  67.418  40.483
H  45.441  68.618  40.186
H  47.860  44.657  43.762
H  46.609  51.625  47.418
H  47.925  50.397  65.295
H  47.565  51.753  65.874
H  46.003  49.200  47.141
H  44.726  63.110  58.277
H  44.784  63.262  59.787
H  48.577  49.893  48.452
H  63.186  62.885  41.033
H  45.816  53.364  50.657
H  63.501  64.093  41.898
H  63.166  32.888  60.263
H  64.245  33.524  59.403
H  55.778  50.537  57.663
H  47.162  50.715  69.711
H  45.811  50.039  69.553
H  54.748  50.997  53.073
H  61.169  41.415  72.040
H  59.829  41.381  71.327
H  48.851  43.939  49.480
H  34.721  67.501  57.731
H  33.568  66.739  57.101
H  45.319  52.890  53.627
H  40.197  35.168  57.732
H  45.964  53.365  45.744
H  53.103  25.989  57.613
H  52.467  27.203  56.959
H  52.561  47.933  53.083
H  34.371  59.221  64.513
H  33.156  60.086  64.800
H  52.051  49.664  53.130
H  41.021  35.670  58.905
H  32.592  58.177  40.690
H  54.439  49.401  51.389
H  29.346  36.524  56.085
H  30.668  37.175  56.451
H  48.927  52.406  54.021
H  65.700  43.694  43.108
H  65.011  44.785  43.909
H  53.259  48.104  50.963
H  50.413  28.950  47.328
H  33.888  58.162  39.899
H  45.865  64.819  68.381
H  48.342  47.059  43.932
H  46.464  69.271  51.659
H  36.582  46.334  54.948
H  35.422  46.235  53.973
H  46.828  53.709  54.212
H  45.257  46.243  75.995
H  46.390  46.519  75.022
H  45.886  54.423  52.845
H  40.659  60.420  36.716
H  40.082  61.031  35.451
H  45.876  68.771  50.351
H  47.941  53.268  52.003
H  38.585  69.274  47.545
H  45.319  51.753  51.316
H  33.022  40.993  44.412
H  32.018  41.932  43.767
H  45.981  52.960  43.978
H  70.320  38.030  52.272
H  71.207  36.842  52.600
H  46.477  47.113  46.174
H  39.656  68.590  48.376
H  59.340  56.162  60.581
H  45.166  63.720  69.163
H  51.399  25.426  56.133
H  40.763  48.350  26.916
H  40.989  48.585  25.433
H  49.343  54.303  48.555
H  38.478  71.543  57.975
H  38.515  72.209  59.340
H  50.641  53.926  47.347
H  65.463  48.406  41.980
H  65.551  47.499  43.195
H  49.811  45.563  50.910
H  31.228  50.122  55.002
H  30.165  51.144  55.365
H  53.529  49.255  46.860
H  41.858  40.096  37.886
H  40.773  39.289  38.578
H  47.936  53.024  58.534
H  41.137  49.822  66.751
H  40.709  50.353  68.108
H  47.620  45.375  47.967
H  35.152  57.121  46.062
H  34.527  55.740  46.143
H  51.127  54.581  55.525
H  50.852  52.155  50.786
H  48.825  58.908  70.482
H  48.906  60.424  70.508
H  50.145  50.156  56.452
H  42.535  34.523  47.718
H  42.132  35.962  47.984
H  51.494  56.201  47.539
H  57.888  51.083  70.283
H  47.593  44.314  50.765
H  56.443  51.232  70.724
H  45.058  32.009  42.166
H  43.959  31.423  41.296
H  47.517  50.526  57.331
H  38.708  57.427  56.950
H  39.863  58.294  57.421
H  48.931  50.837  58.421
H  35.872  31.902  59.205
H  34.971  33.098  59.463
H  49.060  54.111  56.133
H  38.453  39.612  61.301
H  39.883  39.199  61.001
H  52.605  53.958  57.397
H  47.312  55.868  68.595
H  52.402  54.402  49.034
H  65.735  67.509  56.676
H  65.333  66.101  57.079
H  47.539  53.054  44.901
H  36.228  34.779  58.653
H  35.461  34.907  57.349
H  44.378  51.365  46.206
H  48.297  55.967  67.444
H  70.114  55.173  62.773
H  44.382  51.166  44.406
H  37.310  65.220  41.843
H  38.682  64.747  41.396
H  44.793  49.761  45.467
H  57.076  34.973  56.107
H  57.409  36.434  56.352
H  46.863  50.678  44.484
H  52.768  25.444  55.474
H  69.835  53.970  63.658
H  48.150  51.357  46.487
H  54.965  48.635  53.574
H  43.663  61.291  33.281
H  59.620  44.478  36.978
H  60.738  44.129  37.944
H  50.294  56.660  48.817
H  60.434  60.063  53.663
H  58.954  60.401  53.607
H  49.998  53.803  57.675
H  68.444  46.681  35.652
H  67.125  45.935  35.748
H  45.128  61.662  33.129
H  52.070  56.860  49.126
H  49.025  49.740  76.249
H  53.331  55.185  56.280
H  42.204  46.430  62.387
H  41.995  47.886  62.764
H  50.418  52.866  48.792
H  40.829  39.338  66.160
H  40.941  38.794  67.573
H  47.220  52.871  56.877
H  49.452  50.378  74.938
H  59.384  57.663  60.359
H  55.372  36.270  40.038
H  43.701  28.564  56.393
H  66.208  37.962  42.018
H  40.714  51.060  35.079
H  39.571  52.060  35.031
H  32.179  51.488  46.368
H  51.284  47.259  32.090
H  50.206  47.766  33.032
H  31.204  52.174  45.427
H  37.779  63.071  59.141
H  38.684  64.290  59.167
H  31.506  41.159  60.268
H  31.884  42.617  60.073
H  67.540  62.817  35.053
H  50.700  67.944  37.963
H  52.076  68.120  38.581
H  67.827  63.538  36.358
H  43.196  57.396  41.572
H  42.746  56.919  42.942
H  65.018  38.363  41.163
H  46.347  33.730  51.219
H  33.580  58.763  57.968
H  34.198  57.967  56.831
H  31.310  45.199  43.708
H  37.641  57.371  69.393
H  41.268  37.765  28.749
H  40.868  36.318  28.982
H  37.265  56.932  67.989
H  69.726  51.071  45.148
H  68.828  51.281  46.355
H  44.921  43.927  25.877
H  41.945  25.635  52.393
H  43.445  43.569  25.870
H  62.691  48.517  52.889
H  63.222  47.635  54.005
H  55.873  73.420  49.141
H  61.430  48.747  45.581
H  61.770  47.270  45.490
H  62.272  70.518  53.257
H  61.526  71.595  54.025
H  46.905  35.140  51.298
H  54.355  73.482  49.132
H  30.811  43.768  43.614
H  42.904  24.457  52.371
H  42.810  59.163  37.082
H  42.466  73.015  42.079
H  59.921  44.874  53.408
H  58.642  44.446  52.711
H  42.874  71.557  42.203
H  49.599  70.573  64.317
H  49.360  71.762  65.231
H  32.485  36.563  59.308
H  31.479  35.428  59.382
H  53.145  68.657  36.734
H  49.188  55.282  61.976
H  48.223  54.619  62.944
H  54.583  68.502  37.196
H  58.609  36.694  60.092
H  57.954  35.649  59.205
H  26.033  49.237  60.820
H  27.180  48.468  61.454
H  53.035  35.203  57.280
H  62.931  57.273  53.366
H  64.283  56.812  52.851
H  59.227  53.007  37.669
H  60.395  53.416  38.550
H  44.323  59.228  37.187
H  66.766  39.088  57.327
H  56.233  49.916  37.057
H  55.518  50.703  35.973
H  42.736  63.825  62.623
H  41.814  64.932  62.141
H  56.427  51.687  28.037
H  40.215  49.752  33.380
H  67.172  40.321  56.540
H  38.820  50.070  33.890
H  59.453  61.265  44.851
H  60.608  62.252  44.837
H  63.696  50.110  66.123
H  65.208  50.246  66.164
H  44.626  58.372  30.354
H  46.598  51.940  60.758
H  47.057  51.196  59.516
H  45.151  56.960  30.542
H  56.528  52.171  26.601
H  71.101  42.309  37.532
H  71.978  43.056  36.543
H  58.939  32.668  65.951
H  66.465  43.951  37.088
H  65.390  44.964  36.737
H  55.297  58.871  33.720
H  35.927  57.466  39.423
H  35.004  56.282  39.652
H  53.874  59.073  34.210
H  40.299  63.391  44.074
H  39.616  63.223  42.728
H  40.403  43.634  59.108
H  39.055  43.177  58.578
H  60.230  66.424  48.713
H  32.876  52.260  62.599
H  32.074  53.543  62.467
H  61.516  65.772  49.190
H  49.880  50.067  32.211
H  49.090  51.086  31.409
H  47.564  37.299  64.253
H  63.678  43.665  68.459
H  64.770  44.720  68.476
H  51.915  37.575  46.563
H  53.206  39.595  54.375
H  43.008  59.780  62.136
H  42.322  34.398  30.861
H  40.865  34.169  31.226
H  42.037  58.637  61.897
H  44.106  48.744  39.281
H  42.660  48.410  39.608
H  55.563  48.226  28.722
H  54.406  49.183  28.492
H  47.917  38.694  64.740
H  65.010  39.720  47.650
H  55.585  48.901  26.620
H  64.448  38.716  48.641
H  44.529  71.441  37.453
H  43.363  71.731  36.524
H  37.278  46.222  30.582
H  36.634  45.040  31.285
H  51.917  38.997  46.032
H  52.616  40.714  53.535
H  54.580  49.972  26.234
H  70.153  38.290  63.004
H  55.869  38.459  65.845
H  55.927  39.955  65.589
H  60.598  46.145  43.955
H  59.408  45.423  44.562
H  52.020  54.392  27.940
H  51.248  39.396  26.908
H  49.820  38.881  26.897
H  57.555  65.202  45.521
H  56.446  64.166  45.469
H  68.875  44.808  54.075
H  50.533  54.355  27.633
H  65.310  47.929  71.536
H  67.398  44.962  54.395
H  67.956  53.203  36.774
H  69.064  52.174  36.916
H  63.523  70.405  40.925
H  63.760  70.955  42.320
H  57.548  32.389  65.409
H  33.988  48.579  51.870
H  34.513  49.959  52.224
H  63.972  48.433  72.049
H  43.023  46.327  67.459
H  64.683  43.158  65.240
H  58.384  50.869  61.689
H  70.250  39.528  63.879
H  48.952  66.517  63.206
H  50.382  66.967  63.450
H  59.350  53.116  25.196
H  58.860  51.702  25.455
H  31.337  31.627  46.029
H  43.708  69.579  49.394
H  43.908  71.055  49.692
H  65.442  42.803  66.506
H  31.551  33.105  45.750
H  56.989  30.261  65.452
H  36.820  45.937  67.810
H  35.948  44.708  67.619
H  30.599  48.750  51.345
H  35.155  61.207  62.849
H  34.243  60.096  62.359
H  31.916  47.995  51.365
H  59.000  49.483  61.772
H  55.666  30.949  65.165
H  43.443  47.787  67.454
H  54.270  36.085  57.253
H  32.850  61.559  50.505
H  39.464  71.503  38.213
H  44.885  40.851  68.155
H  31.489  39.715  57.592
H  32.184  38.366  57.524
H  59.808  27.117  54.878
H  59.628  25.695  55.379
H  58.143  42.666  57.466
H  38.204  41.206  70.307
H  39.077  40.306  71.163
H  58.599  41.933  56.217
H  66.682  60.785  63.808
H  66.824  59.272  63.801
H  37.290  53.650  47.362
H  37.074  55.085  47.809
H  52.329  49.140  61.124
H  47.088  33.953  69.937
H  45.853  33.583  69.134
H  40.883  71.502  37.670
H  43.465  41.047  67.653
H  59.236  35.036  57.517
H  59.406  36.522  57.780
H  66.678  61.628  36.788
H  66.927  60.183  36.392
H  60.049  48.732  64.663
H  60.524  47.789  63.571
H  52.662  52.644  29.111
H  56.953  64.872  43.409
H  57.057  64.748  41.899
H  53.052  53.732  30.097
H  51.468  47.898  60.974
H  38.600  53.349  38.344
H  52.993  39.690  64.831
H  53.630  38.311  64.829
H  40.145  41.366  64.328
H  34.404  50.488  61.688
H  34.697  49.956  60.296
H  40.082  42.051  65.682
H  48.905  34.718  52.176
H  48.641  33.222  52.164
H  37.271  53.073  37.663
H  68.025  35.419  43.049
H  69.512  35.714  42.951
H  50.301  41.649  73.605
H  65.956  67.702  48.158
H  51.863  48.846  69.367
H  50.992  49.182  70.565
H  49.851  44.591  26.129
H  26.822  58.628  53.310
H  27.966  59.615  53.465
H  49.539  45.783  27.017
H  33.827  51.322  50.639
H  66.588  66.486  48.812
H  32.736  50.315  50.960
H  30.565  43.760  61.459
H  34.410  38.972  31.612
H  50.337  34.965  67.694
H  49.305  36.072  67.820
H  34.573  37.696  32.419
H  33.205  63.858  35.908
H  33.633  64.276  37.305
H  52.540  58.659  44.764
H  29.977  45.120  61.128
H  56.259  32.090  49.980
H  45.666  39.529  58.263
H  48.016  67.748  64.950
H  49.107  41.995  74.477
H  63.568  57.942  35.441
H  32.293  55.714  51.008
H  32.174  54.523  51.942
H  63.878  58.091  36.920
H  70.957  50.455  54.578
H  69.491  50.098  54.398
H  62.394  36.215  55.166
H  49.253  68.591  65.205
H  62.529  37.670  55.577
H  48.885  56.728  29.793
H  49.463  55.377  29.411
H  47.856  49.333  71.289
H  61.488  42.243  28.076
H  60.298  41.370  28.432
H  45.124  31.663  36.234
H  46.175  32.544  36.886
H  45.094  39.607  59.667
H  48.535  47.976  71.211
H  60.301  40.367  37.280
H  55.532  45.383  72.419
H  56.769  33.280  49.186
H  42.148  38.615  70.215
H  34.341  45.279  36.028
H  35.708  45.935  35.947
H  40.056  42.788  52.711
H  38.861  41.928  52.341
H  40.484  43.416  45.085
H  50.554  34.509  36.882
H  50.687  32.996  36.915
H  39.180  42.638  45.119
H  61.215  73.827  45.661
H  59.784  73.408  45.946
H  53.159  60.270  67.447
H  51.651  60.122  67.548
H  38.236  56.888  64.924
H  44.710  71.598  40.203
H  44.158  72.978  39.889
H  38.830  56.917  63.526
H  40.061  65.638  43.459
H  39.197  66.887  43.482
H  41.419  39.947  70.256
H  41.414  43.488  64.657
H  32.730  60.471  51.557
H  36.273  48.611  65.083
H  36.569  49.799  65.981
H  52.668  49.008  66.580
H  59.352  63.182  37.532
H  58.935  62.546  38.847
H  52.345  49.727  65.282
H  33.884  71.272  50.358
H  60.219  56.451  45.396
H  35.228  70.677  49.976
H  54.873  40.454  67.889
H  40.013  31.288  44.470
H  64.793  54.998  30.604
H  41.480  55.271  47.471
H  40.031  30.334  45.651
H  39.684  53.912  28.362
H  38.865  54.492  29.502
H  42.029  43.600  63.274
H  55.431  41.866  67.856
H  61.320  57.487  45.253
H  68.173  36.961  54.675
H  68.406  36.410  53.280
H  41.675  65.448  37.107
H  40.365  65.619  37.858
H  47.018  45.505  26.604
H  62.721  37.246  58.420
H  63.527  38.533  58.420
H  47.698  44.265  27.158
H  44.030  29.401  45.553
H  45.524  29.670  45.503
H  58.430  43.685  62.960
H  39.946  34.004  36.328
H  29.988  49.542  47.566
H  63.588  34.776  48.049
H  62.614  33.802  48.687
H  30.273  49.143  49.004
H  44.077  57.539  45.271
H  44.206  58.873  44.555
H  48.545  57.650  27.389
H  50.034  57.703  27.094
H  40.972  35.113  36.482
H  56.045  46.806  72.549
H  59.609  43.111  62.194
H  68.803  51.197  57.859
H  40.064  40.693  27.723
H  62.442  51.324  60.585
H  62.915  49.972  60.082
H  41.248  39.745  27.790
H  35.519  36.666  34.760
H  36.510  37.712  35.239
H  42.933  66.210  43.316
H  41.697  67.031  42.991
H  51.371  47.944  64.439
H  67.031  37.260  43.936
H  50.605  32.125  67.025
H  67.745  38.580  44.172
H  62.299  63.188  36.199
H  63.052  63.500  37.480
H  45.477  54.326  36.544
H  45.985  53.538  37.738
H  50.400  47.126  65.273
H  69.825  51.053  58.973
H  51.108  33.385  66.342
H  46.160  36.416  62.805
H  60.685  39.968  38.694
H  45.278  71.413  55.517
H  61.806  56.807  57.452
H  66.679  56.487  65.524
H  53.117  44.178  66.040
H  54.487  44.167  66.696
H  41.589  32.217  32.040
H  43.081  32.456  32.191
H  29.439  48.106  39.844
H  66.916  51.309  63.911
H  67.256  52.326  64.986
H  30.301  47.427  40.894
H  49.544  71.681  45.520
H  49.278  72.920  46.357
H  38.835  26.835  47.408
H  39.159  28.194  46.812
H  53.692  70.610  59.134
H  55.386  53.430  34.814
H  55.288  54.848  35.348
H  61.473  57.043  58.915
H  66.472  56.530  64.020
H  57.677  48.056  24.716
H  57.710  48.779  26.051
H  66.669  55.619  37.761
H  66.218  56.789  36.904
H  33.430  37.305  66.628
H  32.730  36.742  65.404
H  50.970  31.098  34.610
H  54.271  50.478  38.596
H  53.707  49.242  37.917
H  51.352  32.566  34.543
H  53.296  71.677  60.140
H  61.413  56.562  30.203
H  61.768  63.670  39.269
H  62.675  64.886  39.216
H  54.135  45.159  29.469
H  41.254  61.108  62.162
H  40.698  62.032  63.231
H  54.441  45.695  30.857
H  60.615  39.878  52.125
H  59.357  39.473  52.875
H  62.838  56.109  30.467
H  61.985  41.108  35.994
H  63.756  48.960  45.003
H  57.519  53.750  33.020
H  62.392  46.304  48.270
H  60.918  50.521  35.785
H  61.177  49.025  35.754
H  61.354  70.415  58.513
H  61.189  33.568  57.075
H  61.661  32.802  55.852
H  61.185  68.907  58.468
H  63.257  30.420  57.745
H  64.043  30.301  59.039
H  44.542  27.611  52.921
H  44.296  27.826  54.404
H  58.443  39.370  37.907
H  66.571  45.158  45.915
H  66.279  46.481  45.229
H  58.248  37.900  37.582
H  65.703  43.530  53.184
H  65.596  42.022  53.329
H  62.332  47.512  49.189
H  52.083  65.028  66.611
H  35.305  52.008  47.317
H  34.565  51.252  48.406
H  56.674  55.010  33.085
H  68.075  66.581  50.878
H  35.928  36.831  62.182
H  35.699  38.310  62.438
H  68.077  68.100  50.860
H  33.189  43.247  38.101
H  33.376  44.745  37.936
H  73.170  42.163  43.075
H  63.663  47.576  44.385
H  74.246  42.356  44.129
H  54.666  51.067  32.952
H  55.266  52.253  32.218
H  46.197  63.683  37.702
H  47.687  24.699  51.459
H  46.772  23.610  51.990
H  39.901  67.196  34.464
H  41.112  66.280  34.456
H  53.594  64.937  66.492
H  46.299  65.143  37.298
H  47.009  37.516  34.217
H  45.716  38.255  34.513
H  61.957  42.481  36.643
H  48.429  61.976  45.839
H  46.481  49.137  32.612
H  45.035  49.314  33.042
H  49.258  69.642  41.830
H  50.485  68.768  42.026
H  65.378  63.005  38.407
H  42.701  59.804  45.909
H  41.789  58.717  46.450
H  65.993  61.723  38.941
H  41.487  50.841  52.206
H  40.644  50.931  53.466
H  30.950  60.780  49.716
H  30.069  59.965  50.647
H  51.324  42.453  54.670
H  42.877  27.919  44.398
H  43.989  26.892  44.275
H  52.573  42.112  55.464
H  44.311  33.890  61.346
H  44.697  32.500  60.871
H  49.864  62.205  45.397
H  59.428  51.258  52.252
H  42.974  27.378  57.001
H  58.718  50.370  72.204
H  57.312  49.796  72.177
H  44.241  39.876  47.805
H  36.249  54.390  43.911
H  34.986  54.359  43.069
H  44.272  38.426  47.354
H  43.049  41.675  53.624
H  39.830  47.945  32.126
H  42.074  40.712  54.279
H  36.094  43.449  47.004
H  38.900  56.513  73.311
H  61.747  48.772  61.510
H  62.500  48.295  62.740
H  40.144  55.649  73.193
H  54.769  67.875  61.316
H  54.995  66.426  60.920
H  60.585  50.425  51.728
H  35.887  41.980  47.330
H  39.771  47.441  33.557
H  50.560  41.340  51.656
H  51.669  42.378  51.668
H  61.604  66.834  39.035
H  60.859  68.106  38.672
H  46.793  32.659  46.168
H  42.028  71.113  44.801
H  42.874  70.083  45.530
H  45.543  31.809  46.021
H  47.293  58.395  29.964
H  48.090  59.261  29.003
H  66.324  46.532  56.998
H  55.772  58.228  61.168
H  34.939  53.909  48.355
H  68.497  57.365  42.331
H  68.794  55.963  42.834
H  35.289  53.319  49.709
H  40.071  34.688  45.677
H  41.275  35.613  45.676
H  35.273  46.406  70.020
H  34.115  45.809  70.800
H  54.500  57.525  61.609
H  59.216  60.685  28.184
H  65.317  47.071  58.000
H  43.067  55.193  60.888
H  64.054  56.742  44.037
H  61.650  30.028  54.410
H  62.693  31.078  54.753
H  62.589  56.426  43.796
H  61.488  63.581  48.882
H  60.575  62.426  48.508
H  64.667  44.063  46.056
H  63.827  45.301  45.800
H  52.164  27.607  47.254
H  54.830  52.384  29.380
H  60.844  54.496  26.035
H  55.213  53.836  29.605
H  44.540  27.759  39.321
H  44.817  28.906  40.277
H  47.700  54.014  65.427
H  46.236  53.666  65.635
H  52.761  28.776  48.019
H  43.010  56.389  59.954
H  60.657  55.984  26.273
H  58.420  61.848  27.620
H  67.034  40.846  45.641
H  26.685  50.753  51.660
H  34.758  41.368  57.024
H  70.497  49.056  47.391
H  49.230  39.362  68.966
H  50.713  39.206  69.253
H  70.622  47.570  47.104
H  64.585  53.373  55.176
H  66.032  53.509  55.617
H  57.870  26.918  39.153
H  57.801  28.374  39.581
H  46.024  42.896  65.828
H  38.306  72.001  50.516
H  37.136  72.959  50.657
H  45.844  42.644  67.315
H  30.657  51.573  57.716
H  31.692  50.462  57.778
H  43.867  35.950  69.686
H  44.015  37.418  70.046
H  33.256  41.149  57.033
H  60.230  27.939  51.712
H  58.937  28.298  51.000
H  31.141  54.748  49.402
H  24.783  44.883  52.097
H  24.192  44.806  50.700
H  26.986  48.306  48.934
H  46.494  60.829  66.603
H  47.141  59.475  66.370
H  57.172  42.807  33.587
H  58.413  41.936  33.501
H  58.328  44.564  54.959
H  53.597  47.372  57.102
H  65.857  48.570  49.576
H  57.682  43.220  54.670
H  47.879  37.501  31.196
H  48.694  37.574  29.917
H  49.200  72.587  49.905
H  48.907  71.908  48.578
H  32.412  53.918  49.451
H  39.153  69.906  42.157
H  39.593  70.314  40.762
H  66.216  47.844  50.860
H  50.633  29.837  41.103
H  51.187  30.519  39.864
H  53.718  48.886  57.111
H  64.592  62.717  51.756
H  54.803  46.113  59.415
H  44.107  59.394  41.727
H  42.647  59.810  41.732
H  35.756  56.089  52.277
H  34.632  55.111  52.572
H  57.356  46.432  59.805
H  42.920  47.043  32.736
H  65.018  63.311  50.425
H  42.498  48.434  32.297
H  36.576  52.233  67.878
H  36.414  50.916  68.616
H  41.654  48.020  68.719
H  40.214  48.346  69.076
H  35.190  67.757  60.224
H  34.383  67.831  39.598
H  33.261  67.262  40.449
H  36.667  67.443  60.062
H  57.114  47.465  60.892
H  25.483  48.104  48.855
H  54.238  47.026  60.489
H  61.576  44.317  48.744
H  41.584  69.609  33.969
H  42.361  69.473  35.266
H  43.553  31.989  38.898
H  42.425  32.190  39.894
H  63.886  60.635  62.803
H  39.074  44.260  36.294
H  40.234  43.391  35.841
H  63.191  61.878  62.276
H  62.597  44.062  47.650
H  59.800  58.285  63.072
H  43.207  33.336  45.991
H  44.031  32.857  44.808
H  70.686  58.821  56.813
H  28.807  52.180  37.056
H  27.612  51.351  36.620
H  69.247  58.425  56.533
H  71.302  54.260  58.386
H  72.804  54.083  58.534
H  58.416  58.902  63.178
H  45.296  71.327  57.033
H  48.922  32.782  35.188
H  30.959  34.531  41.358
H  54.085  32.820  42.179
H  68.018  48.899  46.328
H  68.510  48.473  44.956
H  54.023  33.968  43.171
H  31.445  40.476  64.277
H  31.239  41.973  64.124
H  69.747  57.151  58.260
H  69.697  55.686  57.863
H  34.983  52.617  30.513
H  46.105  43.063  61.543
H  47.304  43.939  61.861
H  35.454  53.127  29.162
H  43.890  38.594  35.694
H  43.398  37.745  36.854
H  60.139  63.745  56.418
H  61.272  64.347  55.606
H  34.646  54.844  37.546
H  65.730  65.644  54.450
H  66.928  66.570  54.560
H  55.309  65.605  34.727
H  56.127  64.714  35.647
H  27.616  51.952  51.636
H  68.271  41.169  44.820
H  34.719  56.036  32.294
H  33.325  55.433  32.276
H  36.922  64.549  43.918
H  37.617  65.538  44.837
H  47.620  62.724  34.662
H  60.180  36.800  54.893
H  65.927  41.430  42.249
H  59.721  38.239  55.046
H  47.000  28.872  49.057
H  46.028  29.653  48.189
H  47.921  63.188  28.850
H  48.741  63.108  30.125
H  59.810  42.972  68.867
H  47.481  50.908  26.181
H  48.672  50.879  25.240
H  60.379  44.371  69.035
H  46.283  63.376  34.967
H  65.580  41.581  43.719
H  33.731  54.248  36.490
H  69.198  33.540  43.068
H  42.447  55.972  44.910
H  30.447  59.125  48.355
H  31.273  58.659  47.170
H  31.854  45.726  62.144
H  32.635  44.428  62.024
H  48.564  35.091  64.151
H  51.375  32.678  47.685
H  52.252  31.898  48.649
H  33.430  36.100  44.062
H  49.638  34.093  64.548
H  41.631  70.541  49.665
H  59.132  55.562  38.793
H  57.737  55.604  39.393
H  32.782  56.387  65.462
H  43.004  30.069  39.826
H  41.598  29.509  39.705
H  33.558  57.175  64.420
H  32.462  34.390  41.525
H  40.504  70.343  50.663
H  48.613  33.566  36.451
H  33.982  37.468  43.701
H  28.937  62.282  41.263
H  68.350  33.629  41.811
H  41.961  40.753  63.248
H  42.483  39.333  63.378
H  58.984  38.510  63.659
H  47.263  45.491  66.570
H  47.260  44.641  65.312
H  58.746  38.723  65.144
H  63.288  69.620  37.720
H  43.132  54.638  44.674
H  62.618  70.431  38.815
H  45.157  56.762  33.423
H  39.316  39.973  30.980
H  36.251  68.795  44.499
H  36.238  67.414  43.865
H  39.887  38.817  30.177
H  35.164  66.554  54.332
H  35.967  67.274  55.401
H  29.639  63.020  40.137
H  43.687  56.881  33.059
H  41.472  53.997  46.643
H  60.700  58.926  30.150
H  50.702  23.546  51.481
H  47.069  55.371  30.379
H  58.437  51.959  45.989
H  56.079  37.739  30.037
H  55.018  37.040  29.205
H  59.323  53.193  45.963
H  57.463  54.109  74.596
H  56.327  53.984  73.596
H  44.887  69.993  43.789
H  46.591  54.069  29.761
H  44.152  71.305  44.001
H  37.439  58.927  64.704
H  38.446  59.857  64.051
H  49.290  40.413  39.436
H  60.160  60.693  63.559
H  60.904  59.663  64.391
H  64.366  43.527  40.765
H  64.267  44.982  40.342
H  62.122  42.945  34.100
H  49.992  41.676  39.904
H  66.391  53.106  52.727
H  65.779  66.814  51.887
H  28.286  42.092  52.719
H  37.412  36.197  60.332
H  38.015  37.536  60.722
H  72.832  49.364  45.370
H  45.265  38.309  50.865
H  46.567  37.790  50.280
H  71.921  42.360  57.258
H  73.035  41.345  57.075
H  70.629  52.652  66.727
H  64.863  67.560  52.842
H  55.693  46.233  62.082
H  69.391  51.798  66.513
H  70.289  41.458  52.138
H  70.764  40.741  53.390
H  42.338  54.192  42.064
H  43.354  54.884  41.174
H  27.572  43.432  52.740
H  63.670  28.044  45.036
H  64.321  29.158  44.235
H  56.928  45.417  62.421
H  73.482  48.980  46.688
H  67.859  53.333  52.411
H  57.257  55.416  58.897
H  67.540  52.150  44.631
H  66.340  50.122  45.408
H  65.924  48.669  45.261
H  42.710  31.701  60.349
H  42.242  32.677  61.414
H  50.235  64.843  58.657
H  60.529  71.466  43.047
H  59.428  70.436  42.867
H  57.889  54.077  26.532
H  48.908  64.827  57.919
H  39.328  64.181  68.643
H  46.158  66.371  43.355
H  45.227  65.848  42.275
H  69.633  37.765  56.120
H  32.312  43.086  48.305
H  33.561  42.924  49.155
H  70.522  36.546  56.288
H  67.936  43.395  64.577
H  38.610  62.843  68.663
H  60.968  43.931  34.075
H  58.649  53.049  27.352
H  40.301  61.319  68.311
H  57.994  56.744  58.907
H  55.485  61.021  70.970
H  54.144  61.673  70.686
H  53.617  46.687  71.956
H  53.906  29.193  45.033
H  55.248  28.960  45.703
H  52.929  48.037  71.863
H  53.850  28.883  52.178
H  66.241  52.907  44.415
H  55.201  28.814  52.869
H  51.670  61.151  39.697
H  30.505  65.411  55.371
H  37.254  29.310  46.235
H  38.002  30.613  46.456
H  29.218  65.413  54.565
H  69.893  52.716  51.843
H  69.920  54.231  51.743
H  40.772  60.114  69.106
H  52.836  61.735  40.475
H  67.810  42.054  63.875
H  36.345  67.360  46.562
H  50.907  65.400  47.932
H  45.434  40.119  52.132
H  47.435  72.256  45.154
H  35.234  60.821  39.507
H  34.946  62.294  39.733
H  47.775  70.970  44.421
H  47.163  41.887  26.661
H  46.301  42.262  25.468
H  42.249  30.943  46.405
H  44.156  40.892  51.856
H  41.952  29.460  46.273
H  44.799  72.811  42.037
H  44.307  74.245  42.130
H  54.919  52.100  66.481
H  39.294  64.687  51.698
H  39.450  65.590  50.486
H  43.741  62.189  68.481
H  42.404  62.512  69.124
H  61.099  56.472  62.249
H  54.112  51.161  65.602
H  57.285  60.392  64.523
H  61.206  54.126  35.401
H  63.552  41.023  46.627
H  35.040  49.189  46.210
H  34.611  50.584  45.790
H  48.423  42.703  72.047
H  58.531  31.989  49.650
H  58.827  30.563  50.078
H  63.702  72.701  46.956
H  63.563  72.457  45.464
H  65.056  29.525  48.461
H  62.308  53.449  36.199
H  68.278  47.877  30.667
H  63.857  28.597  48.362
H  28.514  55.886  39.012
H  28.823  57.373  39.010
H  45.547  40.068  63.356
H  44.647  39.294  62.409
H  63.671  41.551  48.046
H  46.208  25.147  48.435
H  47.693  25.454  48.361
H  67.464  47.348  31.835
H  36.479  65.909  46.988
H  57.745  61.802  64.198
H  67.586  36.734  40.809
H  34.027  44.214  51.089
H  60.839  50.524  63.662
H  61.669  51.286  62.644
H  38.916  64.748  46.466
H  39.497  63.378  46.163
H  52.982  31.863  40.483
H  59.702  42.219  43.145
H  60.988  41.418  43.237
H  74.111  45.846  59.760
H  52.722  31.048  41.737
H  51.785  58.001  60.772
H  75.693  50.790  56.605
H  76.135  50.340  55.224
H  52.426  28.165  39.881
H  48.213  48.086  65.476
H  47.143  48.133  66.554
H  51.301  28.284  38.867
H  51.351  65.477  49.382
H  52.588  59.234  61.147
H  61.606  56.050  60.882
H  73.328  46.234  61.003
H  62.776  61.688  48.190
H  67.613  37.916  39.856
H  39.774  66.522  57.704
H  40.525  65.360  58.330
H  49.536  33.920  47.632
H  71.423  34.879  48.373
H  69.971  34.456  48.232
H  49.250  32.659  48.428
H  64.841  50.080  63.377
H  35.403  44.448  51.687
H  63.348  50.115  63.651
H  56.900  57.302  45.557
H  47.879  59.117  36.002
H  51.357  56.134  61.886
H  50.551  56.616  63.079
H  48.216  58.817  34.552
H  69.857  46.767  38.563
H  68.391  46.431  38.771
H  63.586  60.564  47.567
H  56.162  58.629  45.594
H  47.952  44.069  72.514
H  53.053  52.553  72.911
H  38.159  40.521  45.162
H  66.756  37.644  60.299
H  52.829  46.669  38.386
H  59.970  60.203  67.856
H  60.467  61.627  67.685
H  53.383  47.651  39.403
H  40.401  47.809  29.493
H  40.919  49.225  29.673
H  38.491  30.776  36.788
H  65.452  36.886  60.117
H  39.932  31.227  36.627
H  40.332  64.887  39.932
H  39.897  63.442  40.106
H  37.493  64.760  53.690
H  70.549  43.916  45.205
H  71.343  42.629  45.068
H  57.956  46.098  46.078
H  59.175  47.003  46.094
H  38.111  43.994  69.517
H  38.538  65.783  54.096
H  53.496  44.537  70.051
H  35.925  52.115  35.431
H  40.087  42.901  42.325
H  48.690  46.461  63.992
H  48.494  45.575  62.774
H  54.545  73.245  57.017
H  47.649  64.203  52.183
H  46.289  64.339  52.846
H  60.179  52.283  71.850
H  59.922  53.624  71.185
H  57.240  44.503  58.753
H  34.450  52.311  35.734
H  37.852  47.048  34.843
H  57.751  44.853  57.367
H  36.172  38.076  43.844
H  35.942  39.531  44.215
H  50.121  71.834  42.559
H  51.600  71.843  42.217
H  38.734  43.590  42.333
H  64.804  63.645  45.053
H  64.335  65.089  45.022
H  36.635  46.655  34.024
H  55.287  74.569  56.951
H  53.398  44.074  68.608
H  50.340  76.308  51.915
H  65.897  37.970  46.599
H  37.313  65.969  50.846
H  36.749  64.889  49.939
H  61.361  64.095  46.158
H  62.110  64.906  45.115
H  34.789  49.603  54.658
H  67.727  43.407  61.652
H  67.780  41.891  61.589
H  62.885  51.167  72.493
H  35.924  50.251  53.886
H  40.923  35.841  70.723
H  52.856  71.887  53.336
H  53.597  70.562  53.387
H  34.165  37.861  38.859
H  39.626  38.315  32.409
H  40.925  39.069  32.636
H  34.288  36.882  37.704
H  59.514  47.076  29.027
H  42.231  36.551  71.030
H  37.287  43.208  68.512
H  62.160  51.207  71.160
H  39.660  48.309  57.392
H  51.145  75.081  51.524
H  43.849  69.355  37.285
H  45.188  69.369  38.001
H  42.796  51.180  25.869
H  44.154  46.851  61.395
H  45.518  46.233  61.649
H  43.905  50.470  26.625
H  60.126  40.641  59.185
H  67.116  37.234  47.128
H  61.426  40.281  58.487
H  49.817  25.884  47.591
H  38.648  36.076  56.370
H  69.144  65.722  55.343
H  68.096  64.732  54.866
H  38.136  37.287  57.130
H  42.186  52.879  35.057
H  41.937  52.574  36.524
H  39.623  49.762  57.835
H  48.940  27.122  47.651
H  52.726  51.402  71.975
H  55.588  32.911  57.314
H  50.040  30.844  49.564
H  36.239  48.576  52.108
H  37.156  50.956  47.897
H  38.701  41.384  67.259
H  39.346  40.255  68.044
H  38.564  50.410  47.730
H  54.394  32.243  48.281
H  54.347  33.664  47.747
H  58.733  40.086  68.009
H  36.191  47.065  51.972
H  60.038  39.481  68.496
H  65.093  33.180  47.888
H  65.140  31.910  48.720
H  55.028  67.544  69.279
H  39.783  51.610  26.628
H  39.546  50.164  26.228
H  65.911  44.504  31.794
H  67.266  44.726  31.146
H  31.791  45.703  59.355
H  54.336  66.200  69.421
H  63.240  70.685  50.458
H  57.343  59.943  56.912
H  40.072  58.612  50.776
H  35.623  51.443  58.965
H  36.715  50.552  59.528
H  36.899  40.525  46.008
H  57.303  40.084  56.111
H  57.920  38.707  56.279
H  54.161  74.357  51.678
H  53.105  73.267  51.637
H  40.118  30.616  51.376
H  57.279  58.426  56.925
H  47.909  26.066  60.600
H  39.784  31.746  50.418
H  51.245  62.235  48.345
H  52.117  63.371  47.838
H  44.541  70.078  52.361
H  43.353  69.289  51.839
H  40.611  57.197  50.895
H  69.075  48.273  52.379
H  68.643  48.043  53.817
H  47.726  27.176  59.580
H  55.097  34.177  57.994
H  62.284  71.522  51.291
H  52.313  33.086  61.321
H  52.355  48.548  26.383
H  67.214  63.293  50.699
H  68.262  62.503  49.934
H  56.476  32.570  62.078
H  57.351  32.713  60.845
H  60.912  53.076  33.256
H  56.716  46.614  29.726
H  56.318  45.148  29.745
H  63.695  56.539  28.291
H  59.517  53.044  33.856
H  51.148  34.374  59.739
H  57.555  47.158  38.137
H  58.758  46.248  37.960
H  64.591  50.215  50.325
H  36.097  49.091  38.611
H  35.142  49.792  39.561
H  63.716  49.147  49.694
H  51.085  31.243  50.592
H  52.077  35.543  59.461
H  32.865  45.208  58.403
H  62.586  56.226  27.302
H  42.948  68.059  32.063
H  52.824  32.124  60.263
H  56.018  34.722  61.529
H  56.309  34.991  62.995
H  64.083  59.482  49.866
H  36.137  51.075  49.977
H  37.631  51.345  50.011
H  65.374  59.226  50.624
H  65.848  34.362  54.408
H  51.555  49.838  26.429
H  65.957  35.855  54.662
H  56.880  42.689  46.481
H  31.240  57.577  43.357
H  61.646  63.454  62.054
H  62.859  64.356  62.195
H  31.741  58.808  42.621
H  45.862  76.273  52.114
H  47.312  76.016  52.486
H  41.445  68.033  32.281
H  56.529  44.149  46.709
H  48.379  26.473  56.130
H  48.854  26.539  57.571
H  55.549  57.679  30.641
H  60.231  32.318  45.842
H  61.310  33.320  46.211
H  66.695  38.896  35.186
H  49.628  74.414  48.741
H  49.016  75.803  48.788
H  65.735  38.192  36.129
H  43.656  28.222  47.488
H  42.264  27.619  47.437
H  57.993  74.855  53.254
H  46.690  52.364  34.063
H  61.716  37.219  48.987
H  34.383  47.731  39.378
H  35.714  47.268  39.944
H  61.424  38.617  48.470
H  53.124  53.240  62.788
H  52.999  52.435  61.506
H  55.039  70.438  33.797
H  54.827  69.731  35.124
H  46.415  51.299  33.016
H  66.359  42.259  55.868
H  57.130  73.647  52.936
H  67.747  58.877  46.453
H  41.333  57.987  40.246
H  39.019  45.968  42.598
H  39.872  47.208  42.397
H  40.709  59.223  40.870
H  26.640  45.923  47.579
H  27.855  45.605  48.432
H  47.158  47.790  27.664
H  48.654  47.634  27.875
H  33.419  57.370  34.595
H  54.873  59.539  37.932
H  66.995  68.134  43.392
H  53.555  59.187  38.599
H  65.378  56.907  32.913
H  64.786  57.786  31.825
H  56.743  41.300  48.182
H  57.947  40.676  47.498
H  32.764  56.014  34.390
H  68.146  60.340  46.551
H  66.921  69.633  43.628
H  49.358  41.467  25.717
H  41.978  59.666  51.377
H  66.762  43.705  56.101
H  46.832  30.167  52.134
H  62.296  55.517  71.841
H  29.003  34.476  54.592
H  30.218  34.799  53.740
H  73.148  54.220  55.648
H  73.644  53.472  54.423
H  44.089  48.605  65.517
H  48.415  46.404  30.138
H  46.974  31.400  53.009
H  49.685  47.237  30.126
H  67.977  60.412  49.173
H  69.367  59.824  49.345
H  32.493  59.793  37.216
H  32.708  59.582  38.704
H  62.343  62.808  64.505
H  38.342  36.787  30.042
H  37.124  37.689  30.125
H  61.854  61.666  65.379
H  43.828  49.813  64.635
H  41.012  60.815  51.144
H  60.838  55.610  71.429
H  54.767  26.357  45.431
H  30.449  67.841  53.392
H  29.700  67.181  52.248
H  75.880  52.784  49.827
H  75.562  51.351  50.213
H  33.798  55.139  57.511
H  54.931  41.105  52.400
H  54.542  39.642  52.282
H  32.680  56.158  57.377
H  54.225  27.195  46.576
H  66.859  49.733  54.382
H  43.606  65.293  46.895
H  42.252  64.608  46.836
H  49.251  42.787  64.714
H  59.744  57.197  42.730
H  60.337  58.520  43.180
H  48.427  43.587  63.720
H  52.357  27.916  50.883
H  52.324  29.363  50.424
H  66.982  48.867  55.624
H  45.874  30.471  32.767
H  48.662  40.219  25.203
H  46.574  47.713  68.935
H  35.947  44.783  48.734
H  34.552  44.635  48.153
H  55.402  63.486  61.283
H  71.494  60.666  46.548
H  71.975  60.464  45.121
H  54.413  64.255  60.425
H  60.096  51.487  41.753
H  58.975  51.837  42.716
H  37.329  44.995  44.168
H  69.285  58.148  47.870
H  63.214  29.747  38.828
H  66.766  34.698  44.839
H  66.509  33.794  46.032
H  61.790  30.276  38.800
H  69.050  60.602  56.777
H  69.286  61.360  55.483
H  50.955  64.087  28.575
H  50.764  62.609  28.285
H  70.734  58.401  47.492
H  40.065  36.531  67.158
H  37.396  44.624  45.639
H  50.769  58.632  29.316
H  37.607  60.549  70.411
H  42.712  25.295  45.369
H  42.737  25.525  46.870
H  38.551  61.729  70.562
H  45.714  49.456  59.587
H  44.905  50.742  59.581
H  59.829  42.631  53.992
H  59.999  41.923  52.660
H  31.598  46.354  49.311
H  34.003  62.502  54.084
H  59.570  33.596  39.759
H  33.223  63.031  52.893
H  60.352  42.683  59.997
H  58.883  42.938  59.712
H  54.701  71.898  35.484
H  56.166  71.499  35.461
H  30.400  46.911  50.060
H  52.277  58.756  29.444
H  59.109  32.489  40.691
H  45.083  47.824  69.199
H  50.025  63.170  49.918
H  41.176  36.692  68.180
H  29.889  64.020  50.563
H  43.747  56.594  65.966
H  43.582  75.205  55.971
H  45.063  75.493  56.143
H  42.377  35.797  41.940
H  43.611  36.466  42.520
H  44.229  69.749  54.530
H  43.939  55.374  73.107
H  30.577  64.497  49.296
H  42.460  55.034  73.157
H  38.259  35.793  46.863
H  38.252  36.846  47.956
H  48.694  44.670  68.027
H  47.555  43.772  68.475
H  60.718  67.515  41.610
H  53.744  70.752  37.114
H  54.726  71.331  38.117
H  59.639  68.582  41.670
H  43.631  71.076  54.097
H  48.831  62.274  50.200
H  45.043  55.831  65.755
H  39.687  49.350  54.675
H  56.796  39.667  52.858
H  57.481  38.335  52.604
H  57.481  50.321  42.029
H  57.008  49.170  42.899
H  31.463  36.378  39.726
H  42.698  32.307  67.164
H  44.087  32.922  67.159
H  32.252  35.514  38.758
H  40.123  50.313  55.765
H  42.147  28.208  36.741
H  73.172  45.594  43.396
H  73.028  44.183  43.938
H  35.767  68.582  62.825
H  65.421  50.656  31.122
H  66.364  51.337  32.099
H  37.130  68.429  62.173
H  56.461  66.233  57.717
H  55.200  66.249  58.564
H  41.419  29.541  36.714
H  45.820  31.987  32.823
H  47.286  25.962  53.912
H  46.641  26.610  52.700
H  32.965  52.662  38.163
H  47.233  72.219  64.527
H  54.769  48.236  74.784
H  54.402  49.146  73.625
H  47.048  71.419  63.249
H  44.956  65.025  65.953
H  44.922  66.493  66.342
H  70.448  39.909  60.301
H  34.378  52.341  38.616
H  70.493  38.489  60.840
H  49.883  38.230  42.226
H  51.034  39.197  42.006
H  45.354  69.529  35.612
H  63.205  46.457  52.138
H  63.141  45.492  50.967
H  41.939  70.742  40.269
H  41.668  72.233  40.175
H  51.938  69.663  52.256
H  46.181  69.747  34.356
H  42.755  35.917  52.776
H  64.554  52.349  65.433
H  48.120  68.806  46.860
H  66.972  52.947  46.601
H  67.772  52.534  47.824
H  63.539  51.132  45.332
H  43.268  45.227  51.970
H  42.959  44.132  52.975
H  58.886  44.950  32.192
H  59.054  45.515  30.793
H  39.803  71.475  43.560
H  64.401  52.469  63.927
H  36.093  35.755  49.224
H  40.511  72.790  43.285
H  49.737  46.926  72.829
H  51.177  46.804  72.363
H  40.709  45.074  72.205
H  40.050  45.924  71.132
H  48.040  70.304  47.094
H  47.395  71.992  51.380
H  45.949  71.533  51.462
H  35.043  34.672  49.047
H  64.607  52.052  45.896
H  44.247  35.644  52.718
H  57.228  35.792  65.406
H  34.771  53.020  53.240
H  33.642  64.705  54.295
H  32.178  64.310  54.374
H  61.906  29.781  46.681
H  62.076  30.485  45.347
H  36.336  61.691  51.310
H  56.312  41.758  43.281
H  57.541  42.587  42.953
H  39.643  59.055  34.138
H  37.250  60.479  51.266
H  69.722  38.862  37.985
H  35.162  69.664  47.159
H  34.075  68.616  46.996
H  63.801  58.034  59.312
H  36.220  29.309  41.604
H  35.193  30.100  40.812
H  63.575  59.400  59.935
H  54.168  57.790  30.021
H  69.703  37.895  39.156
H  51.030  70.798  52.693
H  40.248  57.763  34.659
H  39.214  54.968  47.064
H  57.557  36.630  64.183
H  30.010  60.799  40.010
H  29.027  59.661  40.228
H  44.111  44.342  62.885
H  49.000  37.825  66.484
H  47.811  36.884  66.398
H  44.287  44.290  61.377
H  47.687  54.176  40.380
H  36.171  53.336  53.736
H  47.566  53.837  41.856
H  28.905  40.172  43.369
H  49.310  50.547  70.156
H  49.886  28.651  36.515
H  50.416  29.996  36.982
H  49.875  51.357  71.310
H  51.251  37.024  67.446
H  52.304  36.238  66.684
H  39.113  54.461  48.492
H  29.798  41.057  44.223
H  56.698  48.779  70.107
H  58.108  48.483  70.587
H  59.917  54.365  65.670
H  54.930  28.780  64.785
H  54.856  27.664  63.757
H  48.333  72.469  55.980
H  33.876  45.215  55.156
H  35.219  44.563  55.434
H  47.478  71.822  57.055
H  65.857  40.744  49.411
H  64.429  40.536  49.884
H  62.247  35.499  43.754
H  58.608  47.315  62.594
H  68.439  36.502  45.512
H  28.756  38.523  41.613
H  29.329  38.120  40.266
H  69.171  37.797  45.814
H  61.628  36.606  53.075
H  61.099  38.012  53.302
H  32.498  48.213  30.236
H  32.104  49.548  30.843
H  59.154  45.929  62.887
H  57.901  44.321  69.409
H  63.500  35.316  42.916
H  65.545  39.572  44.634
H  45.659  29.139  38.022
H  34.546  32.526  49.581
H  35.974  32.051  49.783
H  46.615  28.568  39.054
H  41.407  64.779  32.841
H  41.110  63.293  32.925
H  52.146  51.165  30.656
H  50.880  51.515  29.892
H  57.082  40.308  70.002
H  35.441  39.277  56.444
H  47.941  62.458  38.373
H  36.903  39.083  56.808
H  30.682  41.690  39.821
H  31.296  40.317  39.608
H  30.693  56.428  40.103
H  30.938  55.064  39.482
H  55.775  39.595  69.702
H  64.405  39.256  45.586
H  47.790  62.420  36.862
H  24.892  41.201  52.117
H  26.317  40.707  52.291
H  57.459  45.771  69.310
H  37.967  71.753  42.002
H  49.237  43.189  56.647
H  48.412  42.640  55.496
H  57.766  64.815  61.729
H  57.866  66.315  61.944
H  38.455  61.569  43.659
H  36.490  53.114  40.903
H  35.004  53.249  41.186
H  57.238  31.336  58.174
H  39.026  61.338  45.047
H  34.692  29.792  55.419
H  35.090  51.915  42.881
H  34.334  50.827  43.624
H  39.183  30.746  56.172
H  60.340  44.551  64.375
H  61.467  45.115  63.527
H  38.531  32.112  56.046
H  58.998  53.521  64.805
H  33.866  30.922  56.007
H  56.527  30.809  59.408
H  38.977  72.849  41.707
H  74.683  57.504  43.480
H  57.965  53.754  40.710
H  59.350  53.175  40.479
H  43.933  53.535  39.534
H  42.909  54.233  38.656
H  59.981  47.298  55.902
H  41.537  45.856  49.389
H  40.109  45.821  48.875
H  59.050  46.599  56.878
H  36.840  50.407  63.450
H  36.643  50.146  61.967
H  61.350  58.619  47.164
H  61.450  60.081  46.762
H  67.269  50.482  52.341
H  46.874  62.062  55.211
H  46.759  63.182  56.231
H  68.006  51.342  53.353
H  52.259  35.743  72.267
H  51.086  36.708  72.282
H  73.946  56.185  43.328
H  60.043  48.426  29.478
H  26.442  58.814  55.471
H  32.563  36.614  47.575
H  57.648  61.916  59.074
H  61.926  46.446  55.326
H  69.573  42.199  46.302
H  68.311  41.905  47.093
H  61.953  45.803  53.951
H  49.593  73.291  53.786
H  50.599  73.041  52.677
H  71.987  55.024  38.158
H  71.335  56.244  38.786
H  35.940  56.603  71.699
H  51.749  59.545  32.000
H  65.545  62.729  63.496
H  51.780  61.062  32.065
H  33.107  38.856  53.524
H  32.129  39.205  52.416
H  34.403  53.527  32.488
H  33.273  53.107  33.412
H  61.060  68.315  50.424
H  32.052  65.410  59.842
H  64.667  61.906  64.422
H  32.947  66.451  59.192
H  37.121  57.439  72.161
H  59.321  46.738  25.638
H  50.240  52.247  27.034
H  61.477  52.287  44.661
H  53.904  37.713  50.122
H  53.609  39.146  49.715
H  39.483  53.093  41.503
H  40.124  54.465  41.625
H  52.599  57.467  31.784
H  33.273  40.330  40.604
H  59.781  46.213  26.987
H  32.793  38.905  40.388
H  42.013  63.432  35.207
H  42.088  62.030  34.629
H  41.932  52.161  49.357
H  41.015  53.370  49.316
H  68.217  52.546  68.939
H  72.395  38.788  42.725
H  73.233  40.003  42.368
H  67.404  53.343  67.934
H  53.678  58.489  32.098
H  49.601  51.365  28.092
H  62.330  68.380  49.594
H  54.574  35.186  35.079
H  32.329  42.668  55.680
H  33.263  43.317  56.686
H  69.602  49.351  61.746
H  68.095  49.507  61.854
H  44.277  73.131  58.292
H  35.921  69.705  55.120
H  36.365  71.156  55.160
H  44.699  74.533  58.694
H  65.995  57.100  50.016
H  47.393  61.860  71.229
H  58.585  34.930  62.528
H  59.131  34.127  61.360
H  70.439  58.429  50.745
H  67.141  37.464  49.317
H  66.283  38.592  49.861
H  71.955  58.481  50.828
H  56.794  59.176  54.899
H  55.599  60.004  54.457
H  46.908  62.772  70.116
H  53.629  34.328  35.902
H  71.230  49.475  37.029
H  64.548  56.687  49.813
H  31.833  45.690  52.327
H  31.409  46.272  53.664
H  49.221  64.608  69.733
H  44.186  42.238  64.098
H  43.857  42.688  65.510
H  48.014  64.547  68.814
H  58.597  56.791  73.933
H  57.335  56.687  74.772
H  71.315  48.038  37.513
H  70.055  63.485  56.586
H  51.796  38.181  52.328
H  39.429  62.175  37.213
H  40.521  63.183  36.902
H  50.458  38.832  52.632
H  65.645  41.445  57.785
H  65.070  40.137  58.300
H  25.729  55.631  56.496
H  26.739  56.561  57.145
H  71.321  64.250  56.240
H  40.726  47.113  35.512
H  60.526  51.107  44.745
H  49.620  32.607  57.716
H  41.949  56.201  70.685
H  68.822  33.757  58.049
H  68.092  32.430  57.927
H  42.324  57.647  70.961
H  58.455  65.834  50.058
H  58.730  64.341  50.026
H  64.803  31.796  62.721
H  63.528  32.613  62.597
H  43.428  40.736  35.494
H  41.478  59.663  53.647
H  51.177  45.155  23.891
H  42.090  58.329  53.259
H  53.099  67.081  34.196
H  54.518  67.453  33.801
H  41.277  60.392  44.189
H  42.546  61.225  44.221
H  67.175  42.206  34.988
H  49.946  53.109  73.352
H  52.024  44.340  24.853
H  50.916  51.958  73.153
H  42.632  41.708  36.347
H  47.120  23.468  49.725
H  72.079  50.548  52.688
H  52.413  37.775  69.569
H  47.312  40.412  53.241
H  47.630  39.889  54.631
H  40.297  37.873  34.864
H  41.542  38.682  35.183
H  38.043  56.827  44.009
H  74.437  47.860  50.737
H  48.635  23.580  49.735
H  75.087  49.233  50.724
H  42.511  56.252  63.498
H  41.172  55.570  63.278
H  49.987  60.548  28.254
H  49.613  60.878  26.820
H  54.871  40.146  55.737
H  55.377  57.519  70.428
H  56.611  58.286  70.870
H  55.487  39.113  54.810
H  38.749  55.944  42.995
H  49.201  31.151  57.610
H  66.428  42.271  33.667
H  56.521  38.214  68.152
H  58.286  54.805  42.844
H  57.768  56.229  42.740
H  30.198  37.734  62.961
H  31.293  37.962  63.988
H  31.523  47.859  67.688
H  39.486  33.799  52.383
H  39.941  34.020  53.815
H  31.822  46.489  68.273
H  25.350  48.841  55.195
H  47.755  52.259  74.352
H  48.463  45.760  74.191
H  49.770  44.999  74.052
H  42.551  52.825  71.533
H  32.932  48.969  43.463
H  31.613  48.919  42.713
H  43.232  51.967  72.585
H  27.399  53.972  40.716
H  28.663  54.789  40.916
H  46.287  51.913  74.529
H  57.864  37.525  68.316
H  60.625  46.307  66.864
H  24.572  47.547  55.037
H  49.699  75.472  54.803
H  50.811  76.196  54.065
H  51.338  71.174  59.252
H  65.093  47.732  47.079
H  63.665  47.385  46.696
H  49.959  71.810  59.252
H  62.722  36.677  34.728
H  63.761  35.600  34.470
H  61.440  46.760  65.666
H  29.172  51.388  34.826
H  35.347  65.956  37.575
H  38.988  68.755  53.825
H  39.533  68.149  55.106
H  36.520  65.489  38.419
H  49.295  32.084  44.935
H  48.347  30.906  45.068
H  69.192  38.197  49.628
H  68.389  39.318  50.265
H  29.496  49.997  35.342
H  70.803  50.702  51.878
H  39.859  48.291  35.918
H  65.581  46.804  69.600
H  41.301  61.333  40.707
H  59.942  53.566  43.732
H  61.176  54.391  44.052
H  41.508  61.712  42.162
H  66.265  54.058  49.449
H  65.728  52.991  50.386
H  67.631  63.262  65.018
H  68.501  63.400  63.781
H  39.999  56.996  32.612
H  49.008  35.448  59.045
H  27.348  48.472  53.910
H  48.676  36.568  60.015
H  33.803  42.487  33.998
H  34.478  42.923  35.287
H  45.894  73.456  56.080
H  46.875  73.767  54.963
H  73.091  46.210  53.020
H  37.008  65.717  64.988
H  27.651  47.888  52.542
H  35.774  64.925  64.593
H  41.498  56.944  32.849
H  44.877  34.214  42.045
H  56.407  70.656  45.652
H  53.750  66.140  64.255
H  40.491  56.284  39.112
H  39.714  55.003  39.357
H  66.011  33.483  41.410
H  66.548  32.184  41.984
H  32.878  38.883  44.974
H  42.676  42.208  41.061
H  44.188  35.023  40.960
H  42.224  41.637  39.728
H  46.348  42.503  38.167
H  47.479  43.493  38.385
H  38.560  55.854  55.317
H  39.202  54.693  54.578
H  40.866  43.820  28.693
H  42.464  67.681  39.845
H  42.306  68.645  38.683
H  40.042  42.559  28.888
H  31.432  39.287  44.747
H  56.145  69.203  45.296
H  73.421  47.084  54.217
H  66.596  39.831  51.672
H  46.698  66.866  48.790
H  45.778  67.715  47.930
H  43.195  42.487  27.976
H  44.605  41.972  27.748
H  38.546  33.519  64.856
H  55.808  35.311  47.949
H  56.631  36.344  48.697
H  37.713  34.466  64.010
H  47.585  54.451  70.532
H  32.530  31.999  40.901
H  69.781  57.458  54.259
H  71.184  58.036  54.288
H  52.362  74.514  58.865
H  55.072  37.017  63.770
H  53.931  36.080  64.127
H  51.181  73.568  58.732
H  75.564  44.261  44.936
H  75.122  45.709  44.814
H  32.098  32.323  42.320
H  67.842  39.415  52.435
H  54.391  56.751  38.005
H  46.633  55.232  71.420
H  62.084  31.724  52.726
H  60.917  31.561  51.768
H  40.828  42.991  70.492
H  49.531  48.170  25.498
H  48.300  48.867  26.050
H  42.058  42.177  70.133
H  40.588  42.313  68.054
H  41.379  41.052  68.354
H  53.240  56.726  38.996
H  65.148  33.078  50.627
H  42.197  67.782  45.807
H  38.627  57.455  47.634
H  39.978  58.146  47.567
H  43.694  67.973  45.634
H  33.683  51.721  55.925
H  33.185  50.294  56.070
H  65.006  39.148  60.382
H  65.146  39.540  61.843
H  64.291  34.195  50.056
H  68.528  55.642  64.245
H  52.232  66.093  64.257
H  37.239  35.915  38.059
H  31.525  53.561  57.357
H  69.079  61.488  62.438
H  68.532  62.131  61.176
H  31.799  52.939  55.999
H  60.937  53.145  27.770
H  61.430  51.712  27.677
H  63.341  30.894  47.937
H  63.184  31.797  46.726
H  53.075  73.291  39.504
H  28.341  60.154  49.159
H  26.065  56.386  48.086
H  27.257  59.124  49.421
H  60.615  31.999  48.940
H  61.338  30.663  48.932
H  34.036  53.424  60.214
H  32.587  53.363  59.763
H  42.203  62.772  28.950
H  41.670  49.083  34.948
H  26.141  54.977  47.526
H  42.684  50.175  34.657
H  51.793  73.624  40.247
H  54.856  42.232  65.005
H  67.056  46.976  69.915
H  68.802  56.982  63.585
H  50.114  65.846  31.493
H  48.917  65.425  30.659
H  54.914  44.143  62.375
H  56.093  43.489  63.073
H  61.756  39.559  54.734
H  31.193  48.307  35.342
H  53.588  42.775  64.370
H  32.454  47.907  34.595
H  64.624  60.481  45.628
H  65.629  59.428  45.194
H  43.824  48.694  41.473
H  43.211  49.174  42.777
H  40.824  33.708  33.688
H  57.991  60.822  66.565
H  59.087  61.667  65.940
H  39.727  32.985  32.925
H  62.970  39.146  53.922
H  36.455  37.004  37.347
H  43.136  63.683  28.172
H  35.056  49.096  63.295
H  43.294  60.188  49.161
H  42.648  58.817  49.256
H  46.087  67.784  33.246
H  44.683  68.335  33.429
H  51.862  60.068  74.126
H  39.131  63.836  61.765
H  38.833  62.347  61.747
H  50.715  59.221  73.604
H  34.734  63.005  64.872
H  36.514  52.348  61.950
H  47.896  30.960  48.935
H  47.882  31.233  47.442
H  56.254  61.464  38.235
H  34.811  43.966  32.123
H  34.804  44.398  33.579
H  56.552  62.953  38.234
H  38.294  68.471  40.669
H  38.867  67.222  41.316
H  35.039  52.513  62.270
H  34.154  47.884  63.142
H  64.058  46.689  41.743
H  33.401  62.278  64.872
H  37.902  54.920  63.999
H  39.124  54.303  63.341
H  47.725  32.854  54.530
H  41.837  36.213  33.695
H  40.454  35.949  33.126
H  47.199  34.264  54.330
H  57.753  60.053  72.186
H  58.794  58.957  72.040
H  62.742  45.968  41.978
H  38.035  51.378  28.351
H  33.363  66.824  48.060
H  60.095  61.189  40.730
H  59.677  60.723  42.114
H  32.281  67.890  48.041
H  41.609  54.562  67.176
H  42.629  53.519  66.754
H  60.417  36.722  39.951
H  59.983  36.820  41.403
H  37.701  52.676  29.065
H  52.104  38.561  70.831
H  53.555  37.268  36.593
H  52.586  36.124  36.835
H  55.070  60.732  43.329
H  37.960  63.941  64.104
H  38.507  30.540  39.856
H  37.097  31.053  40.090
H  39.144  63.192  64.690
H  37.768  48.445  36.951
H  36.597  49.281  36.465
H  45.731  37.896  65.309
H  54.691  59.398  43.947
H  44.845  36.988  64.475
H  54.090  40.526  58.440
H  52.746  40.072  58.982
H  55.998  37.077  59.246
H  46.177  56.354  46.028
H  47.285  56.821  45.100
H  65.210  46.080  65.216
H  66.152  47.232  65.518
H  56.427  52.334  63.635
H  55.756  35.605  59.532
H  38.334  43.684  54.460
H  47.256  64.534  47.006
H  29.332  62.898  45.022
H  75.498  47.274  57.402
H  74.064  47.063  57.855
H  44.285  38.331  72.425
H  52.356  59.230  40.542
H  52.426  58.819  42.002
H  69.753  50.735  40.040
H  71.114  51.401  40.142
H  59.184  68.185  51.613
H  48.247  65.594  47.453
H  45.802  73.202  52.962
H  58.264  69.393  51.617
H  34.091  58.697  53.338
H  32.695  59.289  53.422
H  45.878  66.760  52.544
H  47.229  67.448  52.631
H  30.024  62.383  43.772
H  54.966  38.175  61.867
H  54.863  38.565  60.403
H  46.336  74.136  51.891
H  44.298  39.593  71.580
H  39.092  44.562  55.440
H  33.008  52.175  41.903
H  36.336  34.521  61.277
H  54.092  33.425  33.823
H  55.398  33.090  33.124
H  54.989  41.747  28.478
H  54.085  42.968  28.478
H  42.548  27.727  51.170
H  45.617  54.632  32.918
H  45.332  54.798  34.400
H  65.409  59.301  47.437
H  43.350  28.974  51.500
H  29.850  45.715  38.315
H  35.587  60.983  65.027
H  36.032  59.953  66.051
H  68.520  64.641  41.585
H  65.350  51.448  70.182
H  63.884  51.336  69.799
H  69.520  64.382  40.471
H  48.496  40.798  56.696
H  31.039  46.550  38.758
H  56.629  53.121  64.918
H  66.352  59.044  48.600
H  39.365  59.208  43.813
H  31.852  51.779  41.001
H  47.061  37.058  40.571
H  46.217  35.801  40.444
H  48.253  69.017  37.353
H  54.755  30.723  38.217
H  54.128  32.106  38.247
H  47.970  69.409  38.792
H  38.328  44.897  33.475
H  37.347  33.390  61.352
H  39.595  45.037  34.300
H  34.640  38.529  41.693
H  61.076  40.735  40.889
H  69.968  59.268  38.524
H  69.116  59.733  37.356
H  59.942  41.741  40.965
H  65.864  35.709  49.676
H  64.915  36.851  49.997
H  38.764  59.635  42.486
H  35.861  38.327  40.813
H  47.602  40.526  57.893
H  63.522  65.366  51.920
H  59.745  63.974  41.992
H  47.838  49.880  30.062
H  56.015  24.727  46.283
H  45.900  58.119  41.672
H  45.865  58.550  43.128
H  57.302  25.411  45.856
H  57.108  74.675  47.697
H  56.242  75.792  47.141
H  51.613  48.275  29.826
H  47.156  49.859  28.705
H  51.188  49.508  29.047
H  38.824  54.790  58.725
H  37.307  54.849  58.696
H  67.407  59.425  52.095
H  34.967  32.186  41.618
H  35.541  32.761  42.902
H  32.062  61.810  40.920
H  32.006  60.296  40.821
H  39.721  58.072  69.250
H  67.609  58.868  50.697
H  43.170  68.583  41.731
H  46.213  36.345  36.798
H  68.750  34.333  45.718
H  54.393  49.172  64.704
H  55.741  49.823  64.960
H  58.776  61.653  58.092
H  53.919  72.112  46.071
H  53.849  73.546  46.565
H  72.631  56.147  59.276
H  71.791  57.393  59.057
H  58.556  44.484  28.873
H  46.152  35.886  38.245
H  49.408  34.312  61.587
H  58.709  42.975  28.949
H  33.945  46.164  61.618
H  33.026  46.974  60.721
H  69.086  61.472  42.572
H  69.181  60.355  43.597
H  70.036  33.576  45.435
H  69.560  49.546  42.004
H  71.046  49.734  41.757
H  48.810  33.137  60.834
H  64.829  64.946  52.568
H  43.840  69.828  41.176
H  61.226  55.316  68.996
H  31.542  33.249  49.888
H  44.159  51.714  34.080
H  44.349  52.042  32.609
H  55.929  68.925  58.165
H  56.302  69.017  59.634
H  58.953  73.146  40.183
H  46.562  40.449  28.214
H  46.267  39.132  27.518
H  57.877  40.257  42.750
H  60.314  72.495  40.006
H  60.894  66.378  60.066
H  43.504  28.305  42.323
H  42.917  29.706  42.349
H  59.508  59.806  59.825
H  42.749  47.987  30.157
H  42.250  46.553  30.165
H  60.743  59.082  59.317
H  58.710  63.675  40.921
H  59.658  65.988  59.275
H  41.182  57.957  68.854
H  58.836  39.592  41.778
H  50.135  76.046  44.177
H  60.859  55.017  67.553
H  56.786  28.024  42.036
H  56.510  29.338  41.327
H  41.869  61.706  72.566
H  49.610  63.007  39.700
H  50.162  64.141  40.546
H  41.729  61.683  71.054
H  59.117  50.459  48.001
H  32.394  34.506  49.877
H  59.718  50.282  46.618
H  73.384  48.097  42.602
H  50.010  61.447  30.813
H  61.727  65.950  33.768
H  61.558  67.457  33.683
H  48.806  60.534  30.652
H  52.274  54.039  33.468
H  53.201  52.990  34.057
H  51.164  75.296  45.005
H  74.088  48.785  41.446
H  49.210  49.203  67.494
H  47.958  50.061  67.470
H  54.561  51.913  24.102
H  41.804  63.758  50.846
H  62.121  46.542  69.199
H  63.227  47.553  68.953
H  42.433  65.132  50.698
H  42.550  53.631  62.898
H  43.864  54.244  63.350
H  55.740  44.530  54.957
H  56.521  45.820  55.137
H  45.280  64.492  45.158
H  48.346  46.729  33.583
H  53.373  34.495  38.087
H  48.404  46.846  35.096
H  59.224  34.366  31.379
H  59.164  35.880  31.493
H  53.106  27.238  61.294
H  52.905  27.206  62.799
H  64.502  38.475  52.071
H  52.170  44.499  61.256
H  53.328  35.171  39.446
H  51.660  43.199  60.660
H  44.070  64.385  44.246
H  48.593  45.280  24.421
H  38.377  39.852  28.947
H  36.492  43.042  65.531
H  29.143  45.977  43.998
H  28.200  44.849  43.619
H  30.208  41.067  56.195
H  29.604  42.331  55.607
H  30.215  47.437  65.748
H  45.421  55.778  63.577
H  49.439  46.494  24.076
H  46.087  54.420  63.438
H  46.166  35.428  56.257
H  46.112  36.160  57.587
H  55.727  26.733  61.754
H  56.599  27.700  60.974
H  48.322  31.384  36.861
H  33.440  44.784  43.106
H  33.488  44.924  41.595
H  48.102  29.882  36.896
H  29.211  48.190  66.604
H  37.525  40.890  28.236
H  64.017  37.037  52.019
H  50.706  29.616  56.993
H  32.303  61.322  62.393
H  31.517  62.590  62.677
H  32.114  57.560  52.193
H  31.609  56.372  52.993
H  45.121  37.796  54.660
H  47.490  65.985  39.490
H  46.184  65.952  40.264
H  44.865  39.160  55.276
H  76.322  53.636  52.504
H  45.946  44.517  34.190
H  40.395  57.566  45.170
H  40.342  56.097  45.550
H  59.522  70.037  48.853
H  61.808  36.891  29.973
H  60.949  38.138  30.096
H  59.590  71.174  47.848
H  30.422  49.315  61.549
H  31.269  48.058  61.636
H  47.364  43.981  34.281
H  49.843  28.373  56.860
H  52.476  50.578  68.152
H  74.831  53.357  52.574
H  34.329  69.276  53.658
H  33.613  68.652  52.473
H  54.637  58.467  27.217
H  53.931  25.851  59.795
H  54.954  26.970  59.708
H  53.989  59.690  27.842
H  40.753  33.714  50.586
H  42.081  33.283  49.989
H  53.839  51.245  68.196
H  49.766  67.364  46.520
H  46.430  33.715  31.155
H  40.869  28.871  63.511
H  42.233  29.382  63.082
H  46.284  34.613  32.371
H  43.243  42.370  74.667
H  43.561  41.251  73.691
H  54.526  31.533  62.389
H  53.298  31.691  63.268
H  49.805  68.467  45.477
H  36.694  41.925  66.540
H  40.930  30.658  61.155
H  39.933  31.632  61.757
H  48.898  37.749  37.394
H  36.698  40.300  48.533
H  32.140  34.695  55.972
H  32.705  36.059  56.328
H  36.267  38.845  48.592
H  46.806  65.670  32.225
H  47.862  66.535  32.890
H  41.071  68.251  65.928
H  48.020  37.038  38.409
H  42.363  69.044  65.836
H  44.966  51.913  70.708
H  44.202  50.623  70.948
H  65.257  62.673  34.681
H  42.876  52.286  64.625
H  41.964  51.351  65.400
H  60.659  44.959  29.394
H  60.615  44.420  27.975
H  29.809  53.723  65.995
H  65.441  62.692  33.174
H  55.956  25.356  53.599
H  52.586  25.496  49.810
H  57.751  57.805  33.453
H  65.221  33.222  35.887
H  63.979  33.201  36.761
H  54.295  53.058  25.065
H  29.124  62.471  55.293
H  30.390  63.232  55.646
H  68.684  42.169  53.540
H  68.105  40.885  54.109
H  60.167  53.781  61.000
H  53.030  25.321  48.368
H  63.504  62.294  46.205
H  60.358  52.283  61.162
H  58.457  57.463  47.103
H  59.797  56.906  47.550
H  52.704  45.348  34.337
H  52.990  46.837  34.422
H  58.838  56.764  33.254
H  43.285  46.331  70.590
H  42.154  45.963  69.646
H  62.768  61.544  45.109
H  56.177  26.595  52.749
H  30.868  54.703  65.521
H  58.198  59.516  48.036
H  55.174  32.295  44.019
H  54.222  31.349  44.731
H  46.598  46.998  71.578
H  45.867  48.311  71.797
H  51.562  48.777  24.344
H  71.132  56.284  49.520
H  69.641  56.101  49.741
H  50.913  49.709  23.335
H  63.975  59.658  70.488
H  38.843  57.739  39.001
H  41.048  49.895  62.351
H  41.578  51.188  62.945
H  57.036  48.302  67.986
H  56.358  68.296  51.557
H  55.511  68.594  50.333
H  57.716  47.027  67.520
H  69.540  58.916  62.032
H  68.404  58.682  61.051
H  37.731  58.770  39.081
H  61.052  34.618  66.591
H  60.491  33.418  67.336
H  63.012  60.823  70.634
H  56.888  58.753  47.947
H  59.046  60.908  32.712
H  60.454  61.387  33.022
H  65.078  52.267  41.734
H  33.137  45.048  45.628
H  34.573  44.678  45.955
H  64.922  52.889  40.357
H  38.783  38.351  38.641
H  38.103  38.646  39.967
H  32.203  47.307  64.814
H  32.827  45.922  64.812
H  51.929  29.248  59.674
H  39.150  48.877  66.759
H  38.960  50.244  66.125
H  51.061  30.444  59.325
H  70.572  42.490  62.925
H  69.745  41.255  62.613
H  38.439  49.400  60.856
H  39.200  50.398  60.000
H  32.709  36.010  46.189
H  26.949  59.874  56.434
H  31.830  36.649  54.343
H  33.316  36.354  54.236
H  53.593  43.379  30.656
H  55.094  43.409  30.423
H  37.627  51.693  53.890
H  60.778  52.794  47.606
H  62.205  52.503  47.176
H  36.035  56.899  42.318
H  35.897  58.067  43.279
H  58.901  67.342  63.650
H  38.967  51.790  54.599
H  40.143  48.944  45.581
H  58.629  68.301  62.505
H  37.316  29.259  50.389
H  37.926  28.053  49.696
H  40.775  51.063  47.352
H  39.755  52.181  47.232
H  69.293  52.515  49.736
H  30.140  51.794  52.576
H  31.062  50.589  52.618
H  38.739  49.404  45.227
H  69.545  51.018  49.758
H  45.352  72.478  47.312
H  68.319  45.608  65.341
H  62.999  54.218  41.633
H  60.369  56.849  28.276
H  60.168  58.338  28.054
H  61.001  60.493  69.791
H  59.674  59.883  70.210
H  70.136  40.003  58.014
H  46.209  43.210  75.532
H  47.108  44.407  75.274
H  46.268  73.649  47.620
H  68.944  39.110  57.719
H  59.608  25.551  45.281
H  50.263  38.020  40.067
H  48.782  38.352  40.015
H  39.346  37.108  58.959
H  47.532  39.898  40.959
H  48.642  40.082  41.979
H  40.665  37.843  59.125
H  67.170  44.877  66.012
H  59.839  26.808  44.462
H  39.533  53.681  33.542
H  51.007  30.802  46.300
H  28.674  55.684  43.200
H  35.548  36.897  45.715
H  37.386  41.546  58.129
H  38.192  40.536  58.927
H  50.340  60.633  37.279
H  43.118  38.899  67.274
H  43.655  39.104  68.680
H  49.718  61.346  36.091
H  38.377  44.875  63.985
H  35.770  35.674  46.588
H  39.153  43.667  64.479
H  46.185  55.134  74.459
H  29.444  49.256  42.606
H  58.849  67.373  55.430
H  59.817  67.793  54.337
H  30.139  49.898  41.418
H  49.789  36.683  46.100
H  50.068  35.562  45.114
H  37.691  47.314  66.200
H  46.887  56.042  73.465
H  52.397  30.189  46.312
H  48.569  46.534  60.800
H  36.457  41.960  35.958
H  29.502  56.621  42.339
H  38.114  30.975  43.049
H  43.139  54.806  34.588
H  41.663  54.909  34.246
H  37.132  31.368  44.139
H  54.652  65.308  56.628
H  55.294  64.491  55.520
H  43.144  64.619  67.542
H  37.032  43.251  36.514
H  42.858  66.110  67.568
H  41.220  27.101  58.931
H  39.934  27.272  59.720
H  32.551  62.527  38.099
H  40.788  37.015  31.067
H  42.202  36.590  30.711
H  63.124  40.443  44.237
H  61.866  39.600  44.116
H  47.922  47.905  60.879
H  33.685  61.517  38.106
H  37.866  47.141  64.701
H  38.164  53.845  34.178
H  56.872  62.933  48.230
H  60.631  50.260  30.983
H  59.392  50.713  31.736
H  41.442  35.093  62.228
H  51.622  75.136  49.333
H  51.939  76.603  49.097
H  67.849  52.736  62.015
H  66.415  53.188  61.807
H  52.889  68.497  32.525
H  42.422  35.354  63.358
H  35.528  59.094  69.582
H  52.393  69.927  32.406
H  36.632  54.544  71.317
H  37.812  55.389  71.764
H  54.523  66.716  53.405
H  53.836  68.070  53.397
H  33.967  41.288  59.692
H  58.599  30.037  57.032
H  59.315  31.168  56.316
H  34.655  58.073  70.290
H  33.172  40.087  59.211
H  71.218  61.648  40.872
H  63.335  37.860  31.325
H  40.037  47.913  60.072
H  50.707  39.789  54.808
H  49.729  40.950  54.859
H  55.832  38.409  40.287
H  57.340  38.572  40.344
H  63.725  31.637  40.324
H  60.949  45.343  46.892
H  60.467  43.903  46.878
H  70.021  60.758  40.587
H  65.186  31.363  40.011
H  69.705  50.495  35.232
H  59.717  49.963  68.857
H  58.527  49.918  67.915
H  33.023  33.158  39.084
H  72.064  39.065  56.320
H  73.557  39.342  56.330
H  33.904  32.251  38.242
H  62.426  39.062  31.507
H  71.141  50.109  34.924
H  63.793  54.938  42.708
H  41.631  44.913  37.005
H  33.099  36.472  41.919
H  62.324  37.416  39.010
H  47.026  61.293  47.742
H  46.967  60.125  46.773
H  66.600  70.766  47.663
H  35.172  56.393  62.857
H  36.104  57.584  62.994
H  65.395  71.651  47.928
H  64.752  59.900  57.325
H  62.987  38.487  38.162
H  65.177  61.351  57.463
H  36.412  54.534  36.228
H  43.064  72.895  47.233
H  55.607  49.942  68.368
H  56.437  50.284  67.143
H  42.338  71.665  47.751
H  47.931  59.865  59.504
H  48.394  58.870  58.455
H  56.652  64.399  47.901
H  37.175  55.847  36.243
H  41.534  43.845  38.080
H  62.610  42.405  50.570
H  53.765  69.244  46.382
H  34.612  36.341  41.917
H  32.434  50.809  70.078
H  58.580  65.304  64.634
H  59.047  63.929  64.190
H  32.588  49.298  70.089
H  67.880  43.423  45.552
H  66.451  42.948  45.356
H  66.644  63.626  60.625
H  54.132  70.102  45.184
H  65.525  63.668  59.598
H  48.885  73.202  43.761
H  48.210  74.448  44.307
H  50.031  34.923  34.169
H  69.434  49.661  32.200
H  69.514  48.593  33.277
H  42.038  63.405  40.627
H  43.327  64.145  40.318
H  61.605  43.200  51.386
H  48.630  35.378  34.539
H  60.084  69.530  65.138
H  64.784  58.275  66.958
H  51.445  71.056  63.222
H  28.254  45.745  50.793
H  26.855  45.888  51.366
H  65.965  63.143  47.466
H  60.686  57.192  67.830
H  59.465  56.492  68.401
H  62.128  38.282  61.569
H  61.592  39.612  61.071
H  54.998  66.216  39.425
H  67.271  63.027  46.699
H  44.772  43.792  73.971
H  54.129  64.971  39.395
H  68.962  35.623  49.970
H  69.947  36.450  50.778
H  42.996  44.996  55.750
H  42.122  44.523  56.899
H  57.980  32.119  47.515
H  63.916  31.453  44.576
H  62.690  32.235  44.138
H  45.395  42.461  73.590
H  57.761  32.933  46.251
H  43.712  55.204  67.671
H  63.838  45.994  30.573
H  29.878  39.396  38.201
H  62.514  65.998  46.999
H  61.425  66.868  46.398
H  43.453  46.138  26.221
H  44.868  45.950  26.741
H  40.076  55.202  56.775
H  40.616  45.276  63.576
H  39.850  46.524  63.975
H  45.216  55.044  67.810
H  40.301  56.191  57.905
H  44.674  40.842  40.724
H  55.720  62.799  41.067
H  55.970  63.960  40.120
H  37.061  48.907  67.931
H  29.408  55.884  53.592
H  28.889  55.458  54.954
H  36.300  47.927  68.807
H  64.488  47.322  30.919
H  45.454  42.080  41.130
H  62.333  63.208  43.546
H  44.638  24.949  53.661
H  51.863  48.761  34.089
H  45.661  46.524  24.094
H  29.777  56.357  36.175
H  28.702  57.382  36.489
H  41.673  58.315  59.717
H  48.051  27.391  44.710
H  49.427  26.900  44.297
H  42.985  58.410  58.957
H  62.990  62.484  59.109
H  44.470  45.598  24.269
H  62.499  61.467  60.124
H  29.401  62.629  57.516
H  70.002  56.713  45.928
H  28.492  58.909  57.677
H  28.590  57.697  56.767
H  68.854  56.276  45.034
H  48.462  62.653  58.884
H  47.979  61.803  57.722
H  31.225  45.372  36.633
H  28.990  63.862  58.302
H  45.805  24.155  54.220
H  56.617  60.885  26.546
H  45.973  65.800  58.723
H  51.646  50.255  33.923
H  68.648  58.557  40.368
H  69.493  65.964  53.034
H  70.030  67.384  52.992
H  67.236  58.488  40.921
H  58.303  48.306  59.147
H  59.465  47.424  59.567
H  32.479  42.649  51.054
H  46.522  64.388  58.815
H  33.392  42.313  52.220
H  67.485  39.601  59.606
H  66.882  40.982  59.798
H  40.620  37.240  56.940
H  29.157  45.224  46.597
H  30.303  44.326  46.164
H  43.520  35.683  60.336
H  42.482  34.575  60.328
H  56.355  59.851  27.627
H  41.066  37.917  55.656
H  51.467  71.704  64.595
H  61.378  62.603  42.532
H  29.767  57.211  59.703
H  39.123  29.260  59.240
H  38.394  29.415  60.564
H  46.899  67.302  63.094
H  64.019  36.870  47.525
H  63.167  37.881  46.777
H  64.808  34.848  61.150
H  63.650  35.563  60.475
H  63.919  33.558  55.093
H  46.160  65.976  63.098
H  32.153  49.379  47.119
H  63.816  34.611  56.183
H  73.273  43.521  40.625
H  74.253  44.371  41.414
H  60.392  58.036  51.741
H  60.654  57.528  53.148
H  53.184  69.014  62.331
H  36.294  43.948  71.552
H  36.061  45.269  72.264
H  32.438  49.478  48.608
H  53.599  70.390  62.821
H  50.025  36.274  54.422
H  58.636  36.426  49.602
H  63.349  57.819  67.157
H  55.700  56.250  68.656
H  55.290  55.909  67.234
H  38.375  37.908  51.135
H  37.127  37.975  51.998
H  55.466  36.960  55.450
H  52.636  40.479  33.974
H  53.374  39.933  32.765
H  49.856  37.783  54.476
H  54.154  36.330  55.019
H  64.765  68.155  61.586
H  58.321  40.764  50.468
H  57.912  41.699  51.593
H  51.821  45.448  30.957
H  42.998  74.591  52.044
H  43.676  73.806  53.153
H  51.255  45.761  29.583
H  59.814  35.484  49.782
H  63.517  67.570  60.948
H  28.420  39.212  38.586
H  66.491  61.559  54.671
H  50.755  65.393  51.671
H  44.147  45.586  72.488
H  64.948  58.194  63.396
H  63.760  58.792  64.127
H  38.460  51.932  32.667
H  54.499  48.640  62.542
H  54.305  50.137  62.717
H  37.243  51.023  32.688
H  57.676  56.688  65.916
H  45.629  45.434  72.784
H  59.094  57.213  66.063
H  47.948  53.753  60.940
H  47.545  52.138  63.097
H  47.133  72.537  40.580
H  47.435  72.832  42.039
H  46.045  52.020  62.896
H  42.813  38.141  59.493
H  42.902  39.657  59.490
H  30.489  58.477  59.274
H  47.083  54.969  60.657
H  67.534  60.473  54.468
H  51.744  43.927  63.752
H  48.738  65.943  45.091
H  49.475  66.148  51.984
H  53.272  65.043  46.988
H  69.131  46.358  44.927
H  69.040  46.137  46.427
H  53.948  65.345  45.662
H  35.996  61.073  45.372
H  36.676  60.151  44.376
H  52.538  45.660  59.392
H  49.008  64.546  45.623
H  53.287  44.339  59.332
H  27.481  41.398  49.978
H  26.076  40.939  49.628
H  56.967  39.509  33.126
H  50.277  62.181  52.582
H  49.495  61.048  51.943
H  38.222  52.899  64.805
H  37.073  51.980  65.182
H  51.405  42.494  63.384
H  56.599  38.447  32.105
H  58.835  69.452  65.997
H  40.974  49.108  60.043
H  61.121  57.792  71.355
H  58.168  52.206  50.653
H  60.949  61.268  58.079
H  61.002  62.780  58.214
H  59.030  52.187  49.402
H  51.618  67.169  36.120
H  52.041  66.325  37.310
H  35.169  33.812  37.066
H  36.681  33.670  37.062
H  47.237  37.303  55.808
H  40.088  51.667  38.065
H  48.486  59.783  45.123
H  39.722  51.859  39.526
H  65.741  44.903  58.357
H  64.253  45.154  58.188
H  31.543  55.048  42.231
H  30.682  54.082  41.434
H  58.045  58.910  28.759
H  72.717  41.976  49.236
H  48.925  58.329  45.130
H  73.109  43.434  49.395
H  47.983  36.117  55.224
H  50.078  41.368  37.618
H  33.813  63.861  43.412
H  38.576  44.656  67.472
H  44.384  56.355  52.520
H  42.926  56.185  52.911
H  66.442  41.682  37.076
H  66.431  40.321  37.750
H  48.634  69.418  62.240
H  63.747  53.744  53.174
H  51.176  40.321  37.691
H  62.992  55.062  53.186
H  30.493  44.348  33.153
H  31.590  43.432  32.642
H  61.272  50.173  66.569
H  61.003  48.681  66.645
H  64.668  50.506  36.197
H  50.158  60.863  33.990
H  50.328  59.356  34.075
H  63.378  49.706  36.211
H  48.794  70.574  61.269
H  32.753  64.946  43.339
H  56.827  58.003  28.724
H  57.446  52.714  35.118
H  59.871  57.940  30.955
H  57.016  56.299  62.673
H  60.655  34.502  47.947
H  59.482  33.732  47.364
H  46.513  49.701  74.456
H  62.367  33.862  41.715
H  63.789  33.328  41.730
H  47.140  48.370  74.081
H  50.938  53.771  38.547
H  42.077  52.049  31.747
H  60.415  65.242  62.586
H  60.854  66.669  62.863
H  55.179  54.266  71.081
H  27.164  43.530  62.056
H  28.415  43.296  62.884
H  56.379  53.431  70.672
H  33.802  53.339  46.172
H  32.432  53.661  46.743
H  42.056  50.936  30.713
H  57.611  51.334  35.731
H  30.251  43.599  66.561
H  49.599  53.172  38.939
H  39.922  41.447  56.120
H  39.935  40.694  54.801
H  58.668  57.642  50.424
H  40.882  29.118  48.315
H  41.053  30.600  48.599
H  59.966  57.305  49.710
H  34.663  48.036  34.364
H  35.661  49.145  34.083
H  30.671  42.141  66.641
H  27.382  53.509  61.371
H  47.847  34.930  46.648
H  71.666  44.551  53.277
H  71.670  44.440  54.791
H  46.438  34.834  46.088
H  50.960  51.833  23.927
H  52.244  51.157  24.378
H  54.032  41.980  38.068
H  54.950  42.502  36.976
H  28.485  53.075  62.320
H  36.806  52.778  72.640
H  39.632  43.999  66.601
H  63.598  43.544  52.251
H  55.570  52.850  75.945
H  38.183  35.288  49.728
H  38.062  33.908  50.349
H  54.357  53.214  75.107
H  48.315  65.387  49.768
H  47.550  64.094  49.987
H  51.324  46.077  63.278
H  50.521  45.875  62.004
H  58.181  57.582  27.010
H  46.702  40.315  38.438
H  60.623  65.853  66.966
H  47.870  40.974  37.726
H  38.460  38.141  68.288
H  37.734  39.195  69.105
H  43.846  38.899  53.042
H  42.960  37.897  53.762
H  61.856  64.052  51.330
H  69.750  48.527  65.331
H  59.394  64.971  66.831
H  68.257  48.289  65.188
H  58.579  56.116  26.982
H  49.994  26.377  52.539
H  50.687  24.321  50.175
H  46.764  63.624  39.831
H  45.077  49.962  62.009
H  43.921  48.987  61.868
H  46.850  71.148  53.978
H  47.473  69.980  54.722
H  41.264  45.464  66.422
H  37.147  47.754  32.170
H  49.506  24.946  52.684
H  37.401  49.129  31.580
H  54.375  64.174  36.886
H  52.881  64.376  36.709
H  50.466  53.960  25.454
H  51.891  53.641  25.869
H  27.943  59.348  61.410
H  50.235  58.939  42.623
H  50.189  60.455  42.690
H  28.114  57.897  61.825
H  40.310  46.645  66.415
H  63.819  44.663  53.254
H  60.549  63.432  50.866
H  56.732  69.043  66.583
H  28.055  45.468  41.473
H  28.321  45.386  39.980
H  53.345  60.706  30.550
H  52.642  60.914  29.220
H  29.871  59.043  35.643
H  32.297  51.948  36.012
H  30.802  52.184  36.128
H  30.017  57.914  34.638
H  62.326  49.420  26.336
H  28.135  38.761  60.391
H  41.917  26.990  54.129
H  41.504  28.327  53.540
H  46.631  59.489  51.797
H  51.095  25.560  42.926
H  51.959  24.314  43.016
H  46.536  58.022  51.415
H  45.912  31.235  38.991
H  46.499  32.161  40.041
H  28.086  40.276  60.467
H  55.479  68.731  67.383
H  38.589  46.614  45.085
H  63.556  48.869  27.036
H  25.037  53.371  46.476
H  24.329  54.701  46.285
H  40.103  53.734  65.596
H  60.317  35.750  69.106
H  60.812  37.184  69.177
H  40.877  53.398  64.334
H  58.446  68.226  39.099
H  58.643  68.566  37.633
H  37.107  46.820  45.344
H  58.131  50.664  58.210
H  60.388  34.629  44.665
H  34.881  47.006  44.982
H  35.411  46.184  43.820
H  58.886  34.755  44.845
H  41.211  70.139  53.993
H  40.143  71.115  53.532
H  58.758  60.136  30.576
H  58.016  59.065  31.356
H  57.957  51.433  59.508
H  38.201  53.374  72.558
H  59.527  31.270  58.600
H  35.248  61.775  49.248
H  65.847  49.180  58.330
H  67.110  49.791  57.746
H  54.260  63.438  34.813
H  55.682  39.183  34.964
H  55.227  37.784  34.585
H  35.759  42.032  28.880
H  36.157  42.202  30.336
H  38.994  39.521  63.996
H  52.900  63.258  34.161
H  42.416  47.447  60.181
H  38.309  38.377  63.268
H  46.944  56.227  40.671
H  47.080  56.169  39.160
H  58.578  63.088  53.702
H  60.077  62.936  53.509
H  50.224  31.819  32.666
H  51.051  71.088  40.195
H  51.682  69.717  40.363
H  43.037  48.501  59.281
H  51.704  31.493  32.559
H  65.757  30.280  46.292
H  37.865  40.096  42.412
H  68.681  64.142  52.107
H  52.453  59.122  53.333
H  51.410  60.020  52.690
H  60.595  55.483  51.650
H  60.866  54.577  50.462
H  58.328  30.968  37.850
H  62.447  66.324  36.298
H  61.113  67.045  36.201
H  65.329  31.736  46.240
H  56.855  30.740  37.558
H  32.455  40.947  53.719
H  45.977  40.425  70.426
H  46.170  41.771  69.750
H  30.051  37.188  60.200
H  63.735  33.575  45.535
H  64.043  35.027  45.858
H  30.321  38.681  60.147
H  39.145  39.961  41.606
H  33.893  40.846  54.197
H  70.510  45.766  51.851
H  50.426  57.794  31.677
H  63.159  38.188  50.351
H  60.130  51.780  67.550
H  50.129  36.979  31.849
H  51.027  35.759  31.735
H  68.048  55.666  54.102
H  58.874  58.075  40.374
H  60.011  58.379  39.414
H  68.799  55.809  52.790
H  34.906  54.937  65.845
H  59.787  51.727  66.072
H  36.005  55.983  65.898
H  70.072  50.728  64.383
H  32.010  61.012  45.963
H  45.655  68.081  44.643
H  46.886  68.968  44.703
H  30.571  60.526  45.967
H  56.395  36.524  71.002
H  57.609  36.753  71.886
H  62.116  58.630  72.138
H  68.891  49.928  63.862
H  49.289  58.779  31.891
H  55.433  40.326  62.860
H  69.896  60.988  51.167
H  62.825  39.518  51.001
H  55.685  57.392  25.609
H  24.334  50.508  51.757
H  23.808  50.713  50.347
H  56.894  56.472  25.614
H  64.646  43.926  55.542
H  63.404  44.800  55.593
H  49.961  40.454  30.201
H  71.398  61.166  51.303
H  48.572  39.894  30.453
H  46.193  67.629  36.636
H  47.525  66.901  36.676
H  45.562  59.133  62.648
H  61.595  47.846  33.029
H  62.663  47.985  31.959
H  59.457  39.584  48.670
H  58.514  38.608  49.351
H  54.045  40.842  63.196
H  45.011  60.548  62.677
H  71.177  47.047  52.320
H  70.143  64.312  51.735
H  34.591  61.792  34.693
H  40.456  62.871  60.248
H  33.605  43.930  64.227
H  32.475  43.754  65.226
H  40.673  64.374  60.291
H  36.939  62.406  42.212
H  35.752  63.295  42.538
H  31.262  39.738  61.930
H  32.297  39.100  61.019
H  55.602  38.992  37.548
H  57.439  50.106  50.700
H  51.162  33.442  54.660
H  58.700  49.259  50.720
H  54.063  46.520  64.406
H  53.579  45.191  63.853
H  47.621  45.440  31.950
H  46.398  45.357  31.053
H  63.679  57.346  47.852
H  43.247  49.870  75.250
H  51.294  32.385  55.743
H  44.335  50.028  74.202
H  56.075  37.549  37.555
H  29.496  48.041  59.248
H  35.631  60.356  48.864
H  60.758  30.671  59.257
H  57.210  31.695  35.474
H  57.187  33.189  35.202
H  46.043  28.970  55.099
H  47.094  30.028  54.816
H  60.095  28.684  42.452
H  31.131  45.982  56.181
H  28.775  49.092  60.073
H  30.076  47.067  56.053
H  61.922  59.498  67.127
H  62.930  60.626  66.993
H  47.887  57.072  31.724
H  47.062  57.693  32.837
H  26.540  58.289  43.280
H  59.691  27.571  59.312
H  59.101  28.912  59.714
H  27.952  57.750  43.424
H  58.874  27.840  42.775
H  64.745  56.287  47.631
H  32.986  54.432  54.756
H  33.954  55.602  54.772
H  61.293  65.097  53.277
H  35.199  56.858  59.278
H  35.248  58.354  59.537
H  32.015  37.144  51.493
H  65.125  66.077  64.866
H  63.818  65.606  65.479
H  31.557  35.768  51.944
H  37.890  61.411  35.839
H  60.878  66.441  52.703
H  36.807  60.840  36.737
H  64.103  37.319  44.497
H  50.286  34.068  70.356
H  54.057  48.725  69.879
H  54.889  47.557  70.381
H  49.001  33.503  70.934
H  48.424  43.732  58.795
H  49.721  43.188  59.367
H  35.940  62.389  34.330
H  64.439  38.197  43.304
H  50.612  44.669  55.759
H  71.560  51.792  43.785
H  71.410  51.849  42.275
H  49.035  55.723  73.819
H  50.035  56.401  72.899
H  43.169  67.541  55.430
H  40.035  33.758  43.045
H  38.855  33.012  43.642
H  41.656  67.667  55.431
H  53.761  71.340  65.124
H  55.215  71.605  64.778
H  50.923  39.747  66.521
H  52.226  39.435  67.236
H  55.708  36.155  43.086
H  31.728  46.172  33.424
H  32.981  45.737  34.162
H  56.100  34.688  43.076
H  48.440  64.476  55.641
H  47.850  65.866  55.479
H  63.010  50.325  54.101
H  64.513  50.529  54.184
H  51.895  44.731  56.569
H  32.286  46.348  36.156
H  29.521  51.914  39.907
H  40.468  53.471  72.877
H  40.024  54.144  71.590
H  39.413  44.302  46.872
H  62.193  39.633  34.367
H  62.910  40.893  33.914
H  38.700  65.985  35.884
H  73.104  52.547  49.839
H  71.595  52.393  49.748
H  39.695  64.891  35.541
H  58.597  34.128  51.018
H  40.408  45.439  46.720
H  57.155  33.750  51.305
H  50.508  45.468  34.346
H  56.963  68.843  43.068
H  59.243  50.845  34.338
H  58.729  49.416  34.355
H  56.957  69.940  42.018
H  32.640  61.203  35.534
H  31.647  62.182  34.931
H  38.444  50.641  37.019
H  49.911  45.069  33.007
H  37.783  50.968  35.692
H  30.654  40.773  36.630
H  61.918  43.250  40.473
H  66.712  61.354  45.157
H  71.970  35.879  46.401
H  64.456  50.301  42.537
H  65.136  51.106  43.632
H  70.879  35.701  45.359
H  46.900  28.936  64.915
H  47.778  30.171  64.820
H  41.741  42.539  34.275
H  61.667  44.747  40.494
H  40.864  41.301  34.206
H  61.322  52.190  50.066
H  61.487  50.715  49.743
H  38.571  45.555  61.276
H  38.159  32.923  35.614
H  37.488  33.173  34.274
H  51.439  27.854  35.174
H  52.054  27.146  36.369
H  32.069  40.676  36.086
H  40.065  45.821  61.209
H  66.739  62.719  44.491
H  63.080  42.036  42.715
H  27.871  64.808  49.396
H  38.797  45.734  53.483
H  37.771  45.481  52.393
H  40.973  53.637  69.340
H  46.651  35.055  66.004
H  46.792  34.713  67.477
H  56.163  48.778  59.342
H  56.908  49.596  60.383
H  44.887  35.412  71.560
H  39.899  53.307  68.318
H  38.732  47.981  51.049
H  45.657  36.685  71.868
H  56.595  53.139  49.312
H  57.550  54.256  49.695
H  65.036  50.630  28.425
H  65.611  52.035  28.449
H  46.047  27.054  43.045
H  45.403  45.136  28.714
H  46.887  45.396  28.906
H  37.805  49.118  50.656
H  28.807  65.892  49.903
H  42.896  31.884  34.643
H  62.832  31.133  50.735
H  63.638  42.573  44.021
H  70.789  54.217  34.640
H  70.227  52.926  34.071
H  56.201  46.961  64.685
H  55.985  46.806  66.180
H  32.201  59.172  32.530
H  46.565  30.097  42.163
H  45.713  30.309  43.402
H  42.791  30.788  33.597
H  32.002  57.709  32.883
H  42.987  62.508  65.991
H  35.646  36.790  56.212
H  36.684  36.744  55.104
H  54.193  53.825  65.325
H  50.452  67.030  58.765
H  51.885  66.994  59.267
H  54.839  53.968  63.958
H  64.157  30.446  50.451
H  42.108  61.856  67.044
H  45.821  26.185  41.819
H  42.660  65.959  31.468
H  35.107  41.698  61.933
H  44.967  51.797  29.495
H  60.638  39.556  65.899
H  60.903  38.628  64.727
H  44.332  38.673  40.587
H  62.673  53.980  49.018
H  63.000  55.426  48.686
H  44.597  37.262  40.090
H  48.802  58.973  67.722
H  46.479  51.740  29.625
H  49.467  60.338  67.715
H  56.632  69.369  38.606
H  56.715  48.676  63.246
H  56.338  29.772  48.850
H  54.962  30.205  49.324
H  56.537  50.145  62.904
H  41.046  52.292  29.205
H  42.002  52.407  28.031
H  31.651  62.115  54.190
H  57.220  70.548  37.850
H  31.159  60.679  54.164
H  58.676  54.542  35.235
H  48.991  74.874  59.618
H  55.725  46.808  57.158
H  68.097  52.725  55.655
H  54.978  29.133  60.155
H  53.753  29.760  60.798
H  69.423  51.997  55.524
H  71.218  62.520  42.966
H  71.803  63.557  43.909
H  63.480  51.769  51.417
H  49.685  73.731  60.339
H  62.508  51.836  52.582
H  38.233  55.523  40.898
H  37.948  56.978  41.226
H  44.129  68.368  64.694
H  37.371  50.765  55.881
H  36.548  51.488  56.933
H  47.039  31.705  66.662
H  48.416  32.337  66.759
H  58.834  56.049  35.337
H  45.102  68.493  63.534
H  41.381  66.361  30.755
H  35.056  56.857  67.731
H  29.379  53.265  55.638
H  70.238  40.015  55.522
H  69.398  41.063  56.230
H  61.750  33.927  34.608
H  70.216  65.018  43.472
H  69.877  66.182  42.558
H  39.688  45.404  31.757
H  41.037  46.077  31.938
H  50.337  70.657  37.771
H  60.832  35.132  34.508
H  50.803  33.972  29.372
H  51.603  70.252  37.036
H  40.421  72.588  48.407
H  39.487  71.412  48.184
H  54.242  36.067  61.952
H  53.839  34.617  62.152
H  34.123  42.808  62.258
H  41.948  42.710  48.531
H  41.425  43.658  47.466
H  50.931  33.739  30.867
H  28.401  52.395  54.867
H  33.700  34.224  47.023
H  47.042  51.690  40.663
H  33.636  57.277  68.070
H  42.961  56.583  55.075
H  41.777  55.642  54.928
H  30.508  43.333  37.647
H  30.592  43.204  36.136
H  52.237  25.995  44.755
H  56.590  62.047  46.236
H  56.795  61.292  44.935
H  32.368  33.852  47.651
H  51.121  26.505  45.651
H  40.013  52.119  61.102
H  67.734  57.756  53.490
H  66.319  57.642  52.952
H  59.069  34.629  64.721
H  57.475  36.450  51.471
H  56.214  35.841  50.884
H  59.618  36.045  64.702
H  46.960  52.165  39.223
H  40.709  52.254  59.759
H  45.772  41.695  59.853
H  47.228  42.126  59.892
H  34.034  64.746  51.754
H  70.984  54.076  53.664
H  71.921  53.003  53.138
H  63.511  53.066  44.280
H  70.173  44.476  58.858
H  68.715  44.230  59.205
H  63.124  52.053  43.217
H  61.456  51.473  38.845
H  59.952  51.269  38.807
H  60.376  60.153  36.914
H  48.997  32.838  42.860
H  51.259  68.567  55.006
H  61.263  63.425  30.668
H  61.848  64.059  31.919
H  52.432  69.531  54.989
H  63.587  55.551  37.973
H  62.403  55.859  37.072
H  49.016  65.243  61.414
H  48.264  63.940  61.208
H  49.794  32.417  41.638
H  41.341  42.021  51.098
H  60.885  61.582  36.981
H  74.701  53.200  40.621
H  69.517  39.701  43.465
H  52.558  41.873  72.058
H  52.168  41.467  70.647
H  70.219  38.452  43.970
H  29.364  36.554  42.389
H  30.627  36.987  41.666
H  43.969  44.645  58.655
H  44.995  43.631  59.131
H  64.314  72.460  51.603
H  65.381  42.945  60.327
H  62.274  59.152  44.010
H  66.691  43.369  59.687
H  36.963  60.036  55.406
H  38.058  60.542  56.328
H  48.286  62.055  67.008
H  49.692  62.510  67.358
H  64.977  71.102  51.758
H  73.346  53.436  41.264
H  61.273  60.291  44.091
H  49.181  67.996  50.828
H  42.621  75.331  48.657
H  41.037  40.628  51.621
H  35.154  62.443  68.358
H  67.027  60.249  43.104
H  46.667  52.853  72.504
H  45.235  53.054  72.967
H  63.451  61.248  35.981
H  64.463  61.426  37.100
H  67.962  35.844  59.900
H  28.997  61.997  50.234
H  36.437  62.951  68.991
H  29.008  61.583  51.695
H  42.998  67.272  50.899
H  41.702  68.040  51.093
H  70.010  62.716  45.681
H  68.857  61.885  45.146
H  39.457  41.149  43.500
H  25.927  61.523  49.773
H  26.668  62.765  50.237
H  40.921  40.892  43.185
H  66.799  35.529  58.976
H  41.181  75.138  49.100
H  67.400  58.977  43.845
H  50.939  39.735  74.494
H  62.625  45.440  61.458
H  61.696  46.601  61.150
H  47.541  40.068  60.817
H  47.301  39.444  62.180
H  66.633  37.703  53.110
H  40.939  44.929  42.377
H  41.809  46.156  42.168
H  66.374  37.316  51.665
H  52.421  39.424  74.384
H  61.001  59.634  61.433
H  73.575  54.225  61.777
H  72.639  54.838  62.804
H  49.800  75.483  42.068
H  56.049  60.441  49.851
H  55.263  59.237  49.361
H  49.791  74.277  41.145
H  58.159  29.804  46.096
H  56.908  30.644  46.283
H  61.804  58.585  62.182
H  48.507  69.357  50.797
H  41.892  37.561  46.490
H  42.194  39.019  46.191
H  33.715  36.519  62.655
H  56.713  60.809  60.776
H  58.054  60.526  61.430
H  36.868  57.922  51.047
H  36.634  55.072  29.802
H  35.912  56.381  30.069
H  35.532  58.203  51.712
H  50.162  59.930  60.425
H  33.742  37.824  63.431
H  50.789  59.973  59.042
H  52.344  66.237  39.685
H  47.251  55.956  28.049
H  37.882  41.734  61.724
H  39.251  41.454  62.320
H  45.942  55.364  27.557
H  62.268  53.835  66.038
H  62.811  52.646  66.812
H  44.346  33.596  33.584
H  51.937  64.860  39.190
H  43.785  34.533  32.529
H  63.407  68.287  63.312
H  42.824  41.105  31.174
H  35.533  64.896  51.949
H  44.654  50.019  35.957
H  58.076  48.543  47.712
H  56.890  47.622  47.945
H  46.040  50.294  35.400
H  50.345  49.841  72.974
H  49.079  49.011  73.089
H  58.361  55.278  51.486
H  42.889  39.981  32.193
H  56.884  55.608  51.370
H  54.307  68.695  55.970
H  54.821  67.552  56.827
H  66.493  60.619  40.998
H  58.970  47.224  42.598
H  57.523  46.900  42.925
H  61.380  65.436  42.462
H  62.336  66.576  42.768
H  62.555  69.492  62.955
H  67.081  61.904  41.554
H  40.668  31.631  34.398
H  28.104  52.644  49.461
H  27.577  54.064  49.357
H  53.557  36.218  51.747
H  45.383  72.960  60.497
H  53.066  38.027  57.523
H  54.469  38.196  58.078
H  49.019  75.557  46.029
H  47.796  74.861  46.600
H  49.724  29.435  60.751
H  52.530  49.414  75.631
H  54.482  35.857  52.895
H  53.354  50.655  75.330
H  43.479  60.933  35.934
H  44.432  61.897  35.251
H  57.675  43.726  37.698
H  57.098  42.347  37.430
H  63.141  53.382  58.222
H  47.890  25.478  43.053
H  46.905  25.394  44.206
H  62.248  52.159  58.109
H  50.660  28.337  61.223
H  45.927  71.861  61.393
H  45.377  53.601  61.523
H  44.537  53.570  60.258
H  40.962  30.163  34.653
H  24.055  47.601  47.240
H  24.753  48.301  46.088
H  47.244  60.312  42.742
H  48.037  59.035  42.959
H  39.579  64.564  55.620
H  39.322  55.639  66.373
H  38.186  54.652  66.165
H  40.214  63.346  54.971
H  42.179  71.266  55.751
H  42.901  71.822  56.966
H  47.628  39.706  50.626
H  48.438  40.939  50.984
H  46.242  35.475  34.505
H  45.835  38.737  68.647
H  46.174  37.305  69.023
H  46.354  34.425  35.597
H  62.511  47.248  39.983
H  61.625  48.450  40.257
H  57.092  47.130  57.736
H  46.369  63.989  41.251
H  46.177  41.967  30.108
H  72.973  46.523  45.560
H  36.895  50.198  45.242
H  36.614  50.036  43.758
H  66.323  50.860  67.984
H  41.890  44.232  40.521
H  43.264  44.872  40.615
H  58.790  63.758  29.485
H  58.482  62.429  30.152
H  64.711  43.485  48.227
H  67.220  50.600  69.182
H  67.648  44.296  68.114
H  66.163  43.808  47.920
H  65.359  45.076  49.601
H  65.117  46.356  48.821
H  41.862  67.507  36.121
H  40.421  67.418  36.592
H  44.440  41.584  62.010
H  59.148  67.883  33.204
H  57.949  66.950  33.212
H  68.769  43.617  67.346
H  43.284  40.756  61.478
H  69.385  58.370  44.578
H  46.332  40.512  34.734
H  54.493  54.724  33.135
H  59.301  37.558  70.733
H  60.227  38.761  70.778
H  61.059  33.073  59.215
H  61.024  33.201  60.728
H  54.902  33.196  67.810
H  52.551  70.497  57.233
H  52.122  69.122  57.714
H  70.236  58.278  43.323
H  54.828  32.530  66.447
H  70.880  61.068  60.346
H  26.671  57.317  40.362
H  28.001  57.600  41.038
H  30.917  66.309  45.448
H  45.353  74.901  50.074
H  44.164  73.958  50.025
H  31.901  66.085  46.584
H  46.572  41.978  35.048
H  71.294  59.608  60.415
H  45.920  37.582  59.255
H  46.858  32.461  62.804
H  37.003  53.354  31.285
H  45.640  53.808  69.612
H  48.142  28.411  52.331
H  48.937  29.352  51.442
H  44.177  61.432  42.745
H  58.433  69.532  46.938
H  57.758  68.257  46.464
H  44.831  62.802  42.754
H  48.986  51.436  37.546
H  44.194  54.272  69.635
H  48.173  50.226  37.120
H  57.916  63.421  68.073
H  41.241  47.997  64.948
H  57.983  34.375  53.246
H  56.611  34.993  53.041
H  41.607  49.375  64.425
H  56.046  55.230  45.357
H  56.563  53.888  44.869
H  64.260  39.756  55.596
H  57.456  62.214  68.871
H  45.431  32.809  63.188
H  29.650  48.869  45.496
H  69.023  43.807  36.650
H  36.286  54.538  31.910
H  56.111  59.148  63.137
H  34.909  60.880  60.353
H  35.568  62.173  60.801
H  54.604  59.331  63.088
H  32.655  54.778  30.285
H  32.892  53.278  30.284
H  44.900  39.994  65.457
H  69.805  44.078  35.376
H  46.144  40.092  66.323
H  42.651  49.188  28.317
H  43.305  50.395  28.967
H  42.476  36.725  65.099
H  43.144  36.371  55.349
H  44.097  35.205  55.544
H  55.445  63.622  58.576
H  56.069  63.047  57.317
H  30.426  50.085  45.021
H  42.342  36.022  66.439
H  63.053  39.639  56.510
H  46.337  36.625  60.359
H  30.284  60.964  60.628
H  42.641  57.538  29.898
H  41.749  57.726  28.684
H  63.875  40.659  31.949
H  28.371  48.997  37.899
H  28.344  50.343  38.602
H  65.211  54.145  38.564
H  65.847  53.635  37.282
H  52.245  51.326  39.310
H  65.330  40.255  31.791
H  31.555  63.775  44.769
H  52.112  50.589  40.631
H  42.262  69.059  43.677
H  40.781  69.367  43.541
H  38.183  56.444  34.286
H  37.078  57.415  33.908
H  51.045  72.027  35.298
H  64.759  37.744  34.209
H  65.026  37.960  32.730
H  32.213  62.493  44.289
H  52.237  71.216  34.819
H  65.904  51.040  61.692
H  51.159  63.057  36.283
H  28.471  51.115  40.658
H  32.208  69.891  49.999
H  33.421  69.438  49.207
H  64.781  68.492  50.851
H  63.802  67.331  50.889
H  47.998  38.182  52.279
H  45.418  57.800  38.452
H  44.645  58.456  39.582
H  64.910  50.763  60.578
H  46.944  37.099  52.432
H  37.661  32.824  58.316
H  55.102  34.056  40.421
H  55.905  32.874  40.937
H  58.727  43.982  39.703
H  31.059  40.154  49.081
H  30.807  41.432  48.300
H  57.805  44.982  40.377
H  51.968  62.507  37.444
H  39.025  32.364  58.798
H  53.500  55.340  32.165
H  75.032  47.308  47.134
H  29.082  50.371  51.280
H  54.575  33.772  60.085
H  40.609  59.876  71.876
H  39.163  60.279  72.110
H  57.844  53.609  47.540
H  40.312  69.567  38.822
H  39.826  68.129  38.846
H  58.064  54.853  46.697
H  60.321  45.837  71.249
H  55.011  32.318  60.037
H  60.895  47.200  70.906
H  50.133  39.601  59.027
H  46.333  74.631  41.362
H  63.458  44.039  36.235
H  62.303  45.008  36.054
H  47.765  75.132  41.308
H  64.055  68.286  54.756
H  63.434  67.062  55.407
H  29.192  61.032  59.575
H  49.559  40.865  59.643
H  76.349  47.647  46.458
H  44.929  39.705  29.671
H  42.718  29.921  54.461
H  30.312  50.916  50.576
H  42.650  50.159  55.658
H  64.819  35.785  37.451
H  63.385  35.374  37.169
H  41.880  49.399  56.723
H  35.247  48.847  31.940
H  34.341  49.340  30.825
H  31.078  40.382  42.523
H  42.930  30.693  55.751
H  30.677  38.928  42.699
H  60.934  62.684  69.569
H  62.284  63.381  69.553
H  33.845  33.009  44.585
H  33.121  53.768  44.087
H  32.276  55.011  44.306
H  57.359  32.511  43.807
H  58.842  32.409  43.492
H  43.666  40.436  29.250
H  32.810  31.919  44.364
H  76.414  51.631  53.463
H  69.633  62.547  39.259
H  68.135  62.330  39.388
H  46.719  52.713  67.682
H  51.870  42.645  34.682
H  55.105  39.948  42.942
H  54.924  40.049  41.438
H  34.858  29.208  44.076
H  33.488  29.827  44.284
H  59.467  30.443  44.334
H  43.158  67.377  47.744
H  46.158  51.306  67.786
H  41.692  67.716  47.947
H  39.045  64.315  33.138
H  39.221  63.227  34.182
H  37.159  48.838  48.490
H  37.364  48.648  46.997
H  58.101  46.028  72.623
H  45.893  44.067  55.489
H  46.488  43.387  54.268
H  57.626  44.941  71.674
H  60.267  30.783  43.089
H  39.946  57.016  60.128
H  51.810  42.507  36.193
H  48.945  59.385  39.270
H  38.083  63.072  49.985
H  38.127  61.615  49.557
H  44.966  60.820  27.880
H  43.630  61.448  27.523
H  29.774  34.189  46.462
H  59.658  49.396  39.979
H  58.170  49.695  39.937
H  29.577  34.999  45.193
H  48.259  58.443  38.297
H  46.034  53.165  27.569
H  56.790  42.947  49.640
H  56.491  44.075  50.612
H  64.720  48.409  28.845
H  57.224  40.517  59.842
H  56.851  39.099  59.447
H  66.223  48.452  29.064
H  58.934  33.374  55.127
H  59.700  34.653  54.837
H  47.445  52.717  27.906
H  56.064  71.398  50.650
H  40.510  56.685  61.499
H  34.803  60.587  52.436
H  49.902  44.029  29.678
H  48.585  44.189  30.417
H  57.163  59.066  42.695
H  39.413  49.910  51.933
H  38.581  51.180  51.974
H  56.280  57.857  42.438
H  62.792  31.060  36.216
H  61.939  32.316  36.233
H  66.647  57.000  46.090
H  63.618  51.970  34.090
H  53.715  53.081  69.664
H  54.474  52.212  70.651
H  58.746  71.100  39.344
H  49.859  65.616  37.644
H  50.251  64.180  37.946
H  72.454  46.143  46.936
H  29.111  63.489  52.992
H  27.703  64.057  52.953
H  62.198  51.901  34.625
H  35.629  60.292  53.676
H  66.160  56.747  44.674
H  46.317  60.890  60.593
H  45.643  31.822  55.351
H  53.392  55.000  43.402
H  52.249  54.012  43.556
H  45.565  30.703  56.375
H  38.474  52.541  56.607
H  38.229  54.037  56.516
H  32.355  51.161  60.070
H  32.439  49.778  60.692
H  63.736  44.561  32.239
H  29.807  34.712  50.166
H  35.603  40.565  68.014
H  28.700  33.925  49.486
H  35.193  62.718  36.850
H  36.024  63.395  37.925
H  52.707  64.614  53.078
H  52.163  63.313  52.514
H  63.752  43.093  32.629
H  47.105  62.188  60.559
H  34.691  39.364  68.195
H  66.106  57.285  60.875
H  64.638  57.399  61.245
H  54.814  71.421  51.513
H  50.578  36.009  63.998
H  49.691  37.215  63.741
H  43.480  65.848  38.933
H  36.356  31.545  57.082
H  36.458  31.551  55.567
H  59.351  58.674  45.367
H  58.122  59.539  45.153
H  32.820  49.868  35.522
H  44.444  66.623  38.052
H  55.868  40.141  50.299
H  33.792  50.384  36.568
H  34.319  47.228  47.263
H  35.708  46.614  47.250
H  73.320  38.930  44.799
H  72.933  37.612  45.446
H  61.236  57.299  65.569
H  56.202  41.703  31.420
H  55.350  40.653  32.111
H  55.989  38.995  49.311
H  60.848  56.151  64.653
H  73.713  51.398  55.864
H  62.207  41.942  53.299
H  75.182  51.061  52.782
H  72.341  38.657  53.647
H  73.515  38.331  52.742
H  48.932  40.071  35.444
H  48.527  38.609  35.389
H  66.145  65.122  46.521
H  64.074  40.064  39.901
H  63.288  40.388  41.160
H  73.271  49.964  56.095
H  65.282  66.372  46.540
H  61.534  54.597  46.596
H  47.671  54.932  37.439
H  49.131  55.306  37.255
H  31.436  63.581  42.097
H  46.663  27.325  46.874
H  45.350  26.563  46.905
H  31.215  65.048  41.769
H  63.178  41.122  52.467
H  60.808  54.978  47.874
H  34.811  46.147  30.195
H  34.146  47.050  31.219
H  61.319  39.017  46.305
H  62.069  59.956  55.615
H  62.637  60.782  56.755
H  58.261  37.509  29.850
H  41.330  35.003  40.176
H  42.591  35.354  39.406
H  58.580  37.987  31.255
H  71.888  56.011  52.996
H  72.963  55.686  54.018
H  34.457  42.111  66.152
H  45.137  36.558  46.577
H  61.952  67.331  66.010
H  47.762  39.799  33.195
H  46.429  39.744  32.468
H  60.887  67.491  64.940
H  51.886  50.542  36.716
H  51.535  49.140  36.251
H  30.494  36.879  48.424
H  30.141  37.983  47.443
H  46.129  37.657  46.242
H  33.559  41.696  65.000
H  44.650  70.356  65.491
H  30.237  57.820  50.187
H  59.852  39.129  45.927
H  48.993  62.567  54.555
H  42.697  46.751  37.592
H  41.472  47.573  37.950
H  49.199  63.798  53.690
H  41.876  73.822  55.812
H  43.116  73.191  55.205
H  64.393  40.745  35.839
H  64.323  42.051  36.611
H  25.290  50.571  58.366
H  68.249  43.469  48.640
H  68.591  42.938  50.021
H  25.078  50.279  56.890
H  33.069  39.106  48.127
H  32.049  38.989  47.009
H  51.641  70.543  47.859
H  51.025  69.884  46.638
H  45.885  69.473  65.447
H  28.759  57.946  50.514
H  45.958  43.186  30.986
H  59.618  69.956  39.828
