915
xyz format
Cl 39.106 49.969 60.184
Cl 31.247 50.946 48.398
Na 35.918 45.033 51.34
Na 35.533 36.977 44.303
Na 36.045 52.744 54.029
O 36.431 65.411 42.414
O 24.901 52.29 51.995
O 32.33 43.493 36.27
O 34.03 51.908 48.431
O 28.13 60.544 48.062
O 33.547 55.93 43.381
O 34.624 42.468 47.144
O 41.412 59.904 45.339
O 39.645 51.124 52.771
O 29.178 61.196 49.884
O 42.55 60.666 40.761
O 43.898 59.337 44.775
O 38.806 41.967 52.515
O 31.718 50.328 50.467
O 42.228 51.872 52.946
O 37.603 54.09 36.874
O 30.798 55.98 50.701
O 36.137 54.707 47.034
O 30.685 62.111 51.835
O 35.047 57.531 39.733
O 25.972 52.103 35.086
O 32.848 56.56 52.79
O 41.677 58.091 41.798
O 32.229 48.197 51.93
O 28.288 44.115 42.157
O 39.083 52.778 54.927
O 36.801 54.519 43.989
O 34.33 47.058 35.839
O 26.166 52.854 46.693
O 31.442 49.918 38.638
O 27.779 46.239 43.778
O 37.424 59.543 39.401
O 32.873 59.85 43.046
O 30.128 53.045 49.088
O 35.998 54.064 51.222
O 38.11 53.8 52.342
O 29.555 46.662 46.322
O 37.77 49.323 42.741
O 34.909 40.162 40.192
O 26.051 54.568 53.65
O 38.685 57.888 54.719
O 36.685 59.221 51.626
O 39.974 61.558 41.697
O 29.172 50.2 48.425
O 33.462 42.924 54.583
O 29.263 57.353 47.75
O 25.063 46.875 39.686
O 31.434 51.37 36.637
O 27.97 51.193 54.054
O 24.982 60.288 44.773
O 36.087 52.32 37.839
O 32.809 39.934 49.526
O 43.014 57.352 50.28
O 33.267 49.089 41.3
O 42.303 51.756 47.762
O 40.166 45.084 54.475
O 36.115 47.947 57.122
O 37.603 39.466 51.337
O 29.977 50.025 55.681
O 38.696 57.437 57.182
O 33.794 56.833 46.106
O 32.012 59.02 39.058
O 33.823 57.49 36.037
O 32.099 40.922 43.526
O 34.983 47.227 55.413
O 33.548 46.777 43.633
O 37.008 46.736 44.303
O 27.21 44.915 40.162
O 30.16 50.975 34.524
O 39.834 55.328 46.991
O 32.254 53.515 45.469
O 33.895 62.403 48.551
O 42.458 57.269 53.963
O 29.255 55.539 42.532
O 31.879 55.375 48.019
O 31.749 47.537 40.849
O 39.394 58.119 42.329
O 35.795 40.644 50.88
O 29.147 42.049 40.598
O 25.847 57.847 47.837
O 33.429 56.825 48.595
O 32.823 52.029 52.37
O 29.856 46.113 56.703
O 34.384 57.658 42.083
O 38.688 48.38 45.352
O 39.724 51.06 46.718
O 30.114 49.385 53.351
O 27.409 57.141 42.66
O 35.318 54.462 35.57
O 32.252 49.193 47.517
O 35.206 61.71 44.431
O 34.706 64.629 41.292
O 31.547 56.696 55.17
O 28.487 47.652 53.572
O 33.453 54.701 51.781
O 31.211 56.956 35.773
O 33.645 39.909 52.16
O 36.04 57.475 57.67
O 33.386 46.348 50.318
O 25.959 43.248 47.027
O 29.931 55.761 44.616
O 35.803 57.681 53.654
O 36.678 46.875 40.602
O 38.784 44.157 50.705
O 29.647 42.765 50.736
O 32.256 46.71 56.603
O 24.083 55.899 43.304
O 36.405 46.299 37.519
O 35.244 44.44 37.319
O 39.124 61.219 37.284
O 26.055 42.137 41.776
O 32.081 47.191 54.461
O 34.074 64.267 46.582
O 35.934 45.985 42.469
O 31.602 42.544 45.783
O 28.566 60.137 43.225
O 36.399 47.621 52.922
O 39.372 47.593 53.489
O 33.308 41.152 41.522
O 32.843 62.11 56.765
O 28.001 55.325 50.766
O 35.843 64.144 45.28
O 36.849 64.13 38.33
O 26.374 53.253 41.419
O 31.681 64.007 47.357
O 31.612 63.976 40.661
O 29.251 61.711 40.82
O 26.362 55.899 44.144
O 30.109 48.309 36.131
O 34.303 62.494 41.642
O 35.879 57.619 36.81
O 30.816 47.124 43.877
O 33.204 55.026 41.103
O 32.668 41.843 39.067
O 36.772 61.67 37.716
O 34.353 42.37 49.495
O 34.092 44.254 44.32
O 26.658 61.408 43.162
O 26.647 49.718 47.157
O 31.815 57.263 45.075
O 40.293 57.193 52.427
O 26.284 47.246 41.59
O 31.158 37.572 45.994
O 35.641 60.734 40.835
O 22.32 55.094 50.577
O 29.347 42.171 45.413
O 29.457 54.438 36.791
O 32.349 54.56 38.524
O 36.032 56.502 49.186
O 24.665 52.096 48.669
O 40.196 51.677 39.231
O 35.826 54.847 38.167
O 27.725 46.583 48.447
O 31.392 56.378 39.587
O 38.01 56.638 51.62
O 36.959 55.005 57.413
O 33.894 43.538 40.384
O 31.949 61.294 48.233
O 33.56 58.405 51.13
O 38.604 51.744 41.346
O 22.985 51.131 41.585
O 38.568 53.967 50.198
O 27.125 44.516 37.501
O 38.638 48.827 37.901
O 36.566 48.865 45.684
O 23.585 49.717 51.698
O 35.002 50.37 53.825
O 39.528 47.063 40.557
O 34.865 50.637 46.801
O 39.239 49.041 51.133
O 32.846 50.038 56.493
O 31.234 43.464 43.251
O 35.254 60.288 36.134
O 36.904 54.586 41.793
O 40.983 49.07 48.041
O 38.094 50.989 49.754
O 31.257 44.358 51.092
O 26.554 55.236 47.178
O 31.285 52.849 34.228
O 40.461 51.484 50.229
O 26.397 50.49 49.722
O 29.291 53.725 39.126
O 29.853 39.773 46.989
O 34.066 53.885 49.408
O 38.04 44.595 39.198
O 35.034 50.578 40.027
O 29.503 53.396 43.912
O 29.309 49.506 45.239
O 30.982 59.397 51.281
O 26.765 48.709 43.978
O 23.247 49.824 48.776
O 34.394 52.84 46.177
O 27.948 43.245 48.572
O 40.455 55.642 38.693
O 32.798 64.958 50.387
O 37.205 51.46 46.884
O 36.101 39.456 43.033
O 30.955 54.379 56.495
O 29.615 57.402 37.347
O 28.495 54.48 53.532
O 40.517 45.963 51.754
O 30.996 43.925 48.06
O 38.589 51.006 35.766
O 23.17 48.138 40.886
O 35.656 53.484 58.677
O 37.91 49.795 57.98
O 39.422 54.221 45.107
O 29.174 51.139 37.763
O 36.446 54.914 54.061
O 36.941 52.18 56.464
O 28.277 58.144 45.471
O 42.049 57.107 45.768
O 35.709 42.973 52.475
O 27.037 51.918 43.553
O 29.399 52.358 46.08
O 31.515 45.151 53.129
O 35.791 57.384 44.901
O 38.559 49.318 40.297
O 30.695 53.439 53.104
O 27.318 50.233 41.013
O 38.189 41.608 43.127
O 34.463 48.203 38.824
O 34.831 63.241 53.989
O 28.841 40.928 42.861
O 37.175 44.512 56.397
O 35.203 50.261 44.664
O 34.023 53.09 43.91
O 23.707 51.944 43.647
O 31.187 61.561 44.972
O 32.056 63.298 53.082
O 34.279 58.0 56.305
O 29.516 50.703 41.081
O 35.492 58.963 47.841
O 41.558 54.762 51.557
O 35.19 41.251 55.002
O 35.964 42.155 43.105
O 30.592 46.561 48.669
O 38.37 58.492 36.904
O 41.005 43.105 47.516
O 32.52 45.173 45.866
O 41.164 55.004 53.881
O 35.976 50.126 56.944
O 41.215 52.032 41.657
O 37.669 56.619 40.494
O 40.52 56.216 56.62
O 26.679 52.413 55.351
O 25.801 44.315 43.516
O 30.83 45.234 41.651
O 38.213 45.197 46.694
O 38.171 43.125 54.991
O 30.927 53.199 40.867
O 36.251 49.122 35.91
O 31.733 59.795 54.694
O 26.254 53.848 50.583
O 36.632 47.66 50.624
O 38.052 59.85 42.629
O 37.526 45.597 52.84
O 29.254 46.596 38.507
O 40.443 52.733 48.418
O 38.862 54.0 40.963
O 33.772 47.17 47.384
O 30.721 49.255 42.815
O 26.011 55.067 40.228
O 35.656 48.968 42.243
O 28.997 45.557 52.378
O 33.372 60.588 52.768
O 38.803 56.633 44.769
O 36.908 47.584 47.915
O 38.712 52.742 57.567
O 29.809 57.686 52.617
O 37.263 50.647 53.136
O 41.481 52.655 56.237
O 28.119 58.058 51.151
O 27.812 50.917 34.873
O 32.41 38.728 47.709
O 42.028 61.824 43.179
O 36.339 63.293 50.164
O 33.494 44.757 56.3
O 28.691 56.212 38.95
O 38.747 46.415 48.462
O 32.384 41.162 47.373
O 34.262 46.965 52.847
O 31.325 60.57 36.467
O 34.483 52.707 40.128
O 37.87 56.507 47.514
O 26.258 57.448 38.043
O 33.79 61.374 38.43
O 32.8 48.774 45.137
O 41.942 55.608 42.03
O 42.752 44.261 52.878
O 32.19 51.182 42.566
O 38.49 63.281 46.223
O 32.599 53.517 36.145
O 33.689 45.502 38.67
O 40.71 45.32 41.849
O 37.492 54.612 60.328
O 30.686 61.382 39.184
O 33.872 50.523 36.959
O 38.523 46.114 42.817
O 26.018 45.269 48.0
O 35.062 50.156 51.212
O 37.765 49.304 54.806
O 33.943 44.592 49.112
O 37.774 43.969 44.9
O 34.196 51.64 34.002
O 36.483 51.152 35.074
O 31.411 56.074 42.243
O 28.73 51.543 51.349
O 27.327 49.045 38.502
O 29.996 63.967 43.94
O 24.315 54.869 47.922
O 42.779 49.169 40.93
O 27.274 56.449 55.15
O 30.609 45.454 35.664
O 26.497 44.214 51.598
O 28.574 44.703 46.284
O 31.732 42.196 51.333
O 25.994 58.043 40.664
N 47.749 49.355 48.296
C 44.622 43.983 46.852
C 46.467 52.748 44.96
C 46.353 51.272 45.295
C 47.076 49.542 47.028
C 47.085 51.016 46.603
C 44.896 50.866 45.352
C 46.223 53.463 53.307
H 32.406 63.661 52.259
H 33.239 51.649 34.134
H 37.544 45.37 56.153
H 34.46 50.762 34.303
H 40.055 48.731 51.544
H 39.253 48.632 50.259
H 32.675 63.613 53.753
H 35.943 50.747 44.28
H 34.426 50.687 44.28
H 36.003 42.399 44.038
H 35.896 43.002 42.648
H 35.706 41.815 54.412
H 34.861 40.552 54.423
H 38.939 44.363 39.461
H 31.498 46.231 48.628
H 30.071 45.776 48.881
H 37.713 43.796 38.768
H 31.399 62.502 44.946
H 30.3 61.535 45.352
H 34.931 53.129 43.585
H 33.49 53.268 43.125
H 33.815 47.679 38.335
H 35.196 48.297 38.203
H 34.804 62.462 54.558
H 34.685 63.975 54.599
H 34.831 50.518 36.85
H 33.686 49.679 37.39
H 28.492 41.589 43.472
H 32.291 44.825 53.602
H 38.848 51.921 42.263
H 30.898 45.384 53.834
H 36.12 52.629 56.226
H 37.64 51.705 41.368
H 37.133 51.629 55.694
H 29.477 50.486 37.119
H 30.393 60.477 39.352
H 27.783 51.795 44.153
H 26.281 52.019 44.145
H 31.457 61.483 39.757
H 30.335 52.209 46.263
H 28.948 51.757 46.686
H 28.842 51.862 37.216
H 37.253 55.153 54.533
H 35.792 54.81 54.764
H 23.726 50.818 41.051
H 34.85 43.391 52.336
H 42.386 54.555 52.01
H 41.371 53.965 51.047
H 35.941 59.571 48.441
H 35.045 58.346 48.433
H 30.213 50.563 40.428
H 29.982 51.086 41.835
H 42.573 56.542 46.35
H 41.572 57.683 46.378
H 36.027 42.8 51.581
H 27.922 57.249 45.543
H 27.568 58.7 45.819
H 34.721 49.736 50.412
H 24.198 49.751 48.633
H 39.907 46.938 39.678
H 40.031 47.803 40.92
H 27.613 42.541 49.142
H 28.316 43.886 49.193
H 35.332 52.755 46.392
H 34.124 53.641 46.644
H 30.041 49.453 45.866
H 29.304 50.434 44.971
H 31.593 59.294 52.022
H 41.775 55.301 41.13
H 42.885 55.445 42.156
H 27.721 48.576 43.969
H 26.547 48.869 43.051
H 31.561 59.566 50.528
H 38.409 62.876 45.351
H 38.099 50.541 57.398
H 29.092 40.275 47.309
H 30.21 39.364 47.787
H 32.994 60.84 38.32
H 33.472 62.172 38.87
H 39.763 53.414 44.703
H 38.743 53.903 45.716
H 33.967 50.691 46.451
H 34.847 49.85 47.359
H 33.829 54.491 48.694
H 34.362 47.513 52.059
H 33.562 46.345 52.608
H 39.747 56.148 39.11
H 41.26 56.066 39.016
H 33.219 53.519 49.69
H 31.496 53.928 55.834
H 30.228 54.75 55.98
H 37.678 51.003 47.592
H 37.512 52.372 46.955
H 36.187 39.043 43.901
H 35.35 40.053 43.136
H 35.606 50.88 50.877
H 29.392 52.872 43.109
H 28.642 53.816 44.032
H 32.783 41.632 48.116
H 31.439 41.185 47.569
H 34.623 51.159 53.418
H 35.356 50.691 54.664
H 32.578 64.417 49.618
H 26.395 49.146 47.893
H 26.965 50.52 47.59
H 39.666 38.844 52.496
H 30.13 54.135 38.882
H 31.05 48.136 36.002
H 25.991 56.634 44.649
H 25.826 55.143 44.412
H 29.678 47.537 35.742
H 32.07 58.101 45.48
H 31.605 56.699 45.83
H 40.145 58.063 52.036
H 40.361 56.607 51.663
H 24.803 55.486 48.482
H 32.927 54.104 41.17
H 34.158 54.99 41.243
H 31.205 46.474 44.475
H 30.426 47.777 44.472
H 33.749 61.978 41.043
H 27.193 44.968 36.651
H 36.556 57.518 36.129
H 36.072 56.906 37.432
H 27.498 43.643 37.328
H 33.671 62.903 42.245
H 30.68 57.406 52.927
H 29.313 57.834 53.432
H 29.434 62.407 41.463
H 28.611 61.145 41.27
H 32.698 50.798 57.069
H 30.651 64.063 40.675
H 38.918 57.525 44.417
H 38.751 56.08 43.98
H 43.611 44.238 47.21
H 31.776 63.158 41.147
H 41.165 51.824 55.86
H 42.43 52.639 56.063
H 40.875 53.387 48.981
H 40.031 53.264 47.725
H 30.621 45.073 50.97
H 31.79 44.386 50.287
H 38.366 50.997 50.681
H 37.723 51.87 49.617
H 41.826 49.069 41.047
H 30.585 42.954 43.75
H 31.742 43.92 43.934
H 28.245 46.072 52.061
H 40.394 50.799 49.551
H 33.936 43.348 44.025
H 34.805 44.562 43.748
H 26.83 61.877 42.336
H 27.09 61.954 43.831
H 41.413 51.595 50.349
H 36.942 61.558 38.66
H 35.814 61.778 37.667
H 35.195 42.772 49.247
H 34.193 42.704 50.387
H 23.831 54.321 48.553
H 27.641 50.188 34.264
H 28.034 51.655 34.291
H 26.803 51.363 49.655
H 36.354 54.959 41.093
H 36.685 53.646 41.78
H 26.06 55.935 46.731
H 27.379 55.666 47.433
H 26.291 50.359 50.672
H 39.43 54.596 41.467
H 38.871 54.372 40.072
H 25.821 55.865 39.719
H 25.695 46.54 41.886
H 27.167 46.881 41.728
H 26.195 54.402 39.553
H 41.139 48.517 47.266
H 40.024 49.176 48.059
H 31.548 48.788 42.642
H 30.901 49.748 43.625
H 39.259 53.371 50.512
H 38.457 60.378 43.328
H 35.973 50.796 39.986
H 34.759 50.573 39.101
H 37.718 60.51 42.008
H 31.352 60.967 47.549
H 31.553 62.133 48.501
H 30.619 52.512 53.364
H 30.101 53.514 52.347
H 46.003 49.2 47.141
H 46.609 51.625 47.418
H 37.751 49.496 39.8
H 39.244 49.774 39.792
H 29.565 41.233 45.361
H 28.692 42.215 46.121
H 29.152 45.95 37.797
H 29.618 47.371 38.061
H 30.772 59.786 54.785
H 31.921 59.004 54.174
H 38.163 42.44 42.638
H 37.725 40.989 42.55
H 33.817 58.675 50.24
H 36.375 55.472 56.802
H 37.454 55.713 57.843
H 46.863 50.678 44.484
H 36.172 56.566 45.245
H 36.558 57.881 44.591
H 44.793 49.761 45.467
H 31.149 52.95 41.773
H 31.364 52.526 40.33
H 48.15 51.357 46.487
H 37.329 43.305 54.555
H 38.829 43.35 54.322
H 34.579 43.721 41.039
H 33.075 43.562 40.895
H 27.49 50.506 41.923
H 26.363 50.095 40.992
H 47.539 53.054 44.901
H 44.378 51.365 46.206
H 44.382 51.166 44.406
H 36.89 48.524 35.503
H 35.499 49.101 35.305
H 32.827 57.794 50.982
H 38.257 58.176 37.809
H 29.767 55.065 36.127
H 28.81 53.902 36.316
H 37.982 59.375 36.918
H 29.503 52.785 39.184
H 27.93 46.11 49.262
H 28.47 47.187 48.338
H 30.799 55.829 40.115
H 32.05 56.682 40.224
H 38.015 57.433 52.167
H 38.375 56.936 50.778
H 33.024 54.835 37.891
H 32.193 53.633 38.305
H 30.495 45.408 42.54
H 42.06 52.126 41.201
H 38.878 54.239 49.325
H 40.625 52.623 41.173
H 26.188 44.541 42.661
H 26.428 43.685 43.892
H 31.776 45.095 41.786
H 39.583 48.933 37.734
H 35.253 60.753 39.952
H 36.144 61.557 40.883
H 38.565 47.928 38.243
H 45.319 52.89 53.627
H 25.364 52.757 48.74
H 24.286 52.255 47.796
H 45.964 53.365 45.744
H 40.996 51.149 39.344
H 40.296 52.06 38.351
H 36.566 57.216 49.556
H 36.083 55.808 49.856
H 31.937 45.279 46.629
H 36.011 48.132 45.979
H 45.981 52.96 43.978
H 36.863 49.273 46.506
H 33.385 45.005 46.26
H 35.155 54.64 38.829
H 36.597 55.095 38.692
H 36.328 48.213 48.361
H 36.547 46.724 48.165
H 32.425 41.532 41.439
H 33.798 41.816 42.023
H 26.455 52.316 41.203
H 25.878 53.256 42.247
H 39.944 48.344 53.693
H 39.282 47.136 54.334
H 33.281 61.758 55.981
H 37.662 50.033 52.507
H 36.804 51.284 52.575
H 26.6 42.629 46.656
H 25.634 42.797 47.816
H 29.601 55.605 45.509
H 29.763 56.7 44.469
H 33.305 60.795 51.827
H 33.345 61.452 53.196
H 38.828 53.699 57.606
H 38.133 52.55 58.315
H 36.872 63.862 50.733
H 31.465 47.934 54.47
H 32.929 47.593 54.684
H 34.118 63.308 46.479
H 33.384 64.533 45.961
H 35.176 46.504 42.173
H 35.947 45.232 41.865
H 34.526 46.575 47.292
H 36.098 48.538 52.913
H 37.237 47.66 53.401
H 33.969 47.886 46.767
H 28.305 59.886 44.12
H 29.344 59.592 43.052
H 30.972 64.109 46.71
H 27.664 55.654 51.609
H 35.113 64.064 44.653
H 36.63 64.103 44.723
H 28.608 56.018 50.476
H 36.957 62.608 49.881
H 36.876 63.692 39.19
H 33.37 38.796 47.629
H 32.285 38.076 48.409
H 32.528 42.808 45.852
H 31.118 43.359 45.965
H 27.677 58.605 51.812
H 27.996 58.549 50.329
H 29.659 42.28 49.901
H 29.035 42.26 51.285
H 40.306 43.731 47.29
H 40.539 42.266 47.618
H 33.187 46.908 56.767
H 31.836 47.579 56.588
H 26.933 42.382 42.092
H 25.508 42.166 42.571
H 39.557 44.299 50.144
H 36.273 47.394 39.895
H 37.444 46.469 40.178
H 38.215 44.911 50.507
H 30.601 56.925 50.707
H 30.488 55.676 51.563
H 41.656 52.63 52.774
H 42.731 52.136 53.726
H 36.187 51.834 35.69
H 35.472 55.266 47.455
H 36.415 54.11 47.739
H 32.687 40.521 50.282
H 33.485 39.313 49.824
H 39.064 45.216 46.24
H 31.072 49.863 51.014
H 32.567 50.082 50.855
H 38.193 44.325 47.108
H 37.038 57.05 41.084
H 28.129 48.462 53.956
H 29.286 47.487 54.087
H 37.423 56.942 39.619
H 31.623 56.437 36.475
H 35.831 50.638 57.749
H 35.085 49.892 56.657
H 33.274 40.39 52.91
H 33.536 47.094 49.723
H 32.467 46.457 50.593
H 32.63 54.894 51.315
H 34.117 55.202 51.29
H 40.33 55.489 53.83
H 27.259 53.169 55.504
H 39.137 61.296 38.247
H 41.209 54.723 54.803
H 24.471 56.499 42.655
H 35.786 58.569 54.032
H 35.948 57.109 54.418
H 34.913 43.577 37.04
H 34.736 45.064 36.786
H 37.092 45.621 37.498
H 36.845 47.081 37.164
H 36.929 51.651 34.378
H 31.092 45.958 36.331
H 30.423 44.614 36.101
H 34.093 65.179 40.788
H 35.244 64.204 40.613
H 31.911 56.412 56.018
H 30.613 56.848 55.361
H 32.155 54.341 45.958
H 31.484 53.501 44.886
H 34.105 61.673 47.955
H 34.584 62.352 49.226
H 30.446 64.498 44.609
H 29.676 51.4 51.477
H 28.36 50.652 51.365
H 29.444 46.8 56.165
H 30.198 45.487 56.053
H 29.439 63.372 44.457
H 26.772 48.278 38.314
H 28.019 48.998 37.83
H 28.443 44.289 45.422
H 27.701 56.614 54.3
H 27.911 56.781 55.795
H 34.999 60.807 44.701
H 36.023 61.91 44.905
H 31.497 48.593 47.463
H 32.735 48.884 48.294
H 35.409 53.807 36.273
H 35.834 55.214 35.889
H 27.763 44.495 46.764
H 32.119 42.614 52.112
H 35.143 58.222 41.891
H 33.726 57.929 41.431
H 38.842 47.977 46.215
H 39.529 48.807 45.145
H 40.367 50.501 46.264
H 30.347 50.32 53.297
H 29.616 49.225 52.54
H 26.492 44.968 50.995
H 27.545 57.991 42.225
H 27.007 56.593 41.974
H 39.347 51.597 46.009
H 39.742 57.22 42.38
H 38.917 58.133 41.49
H 26.809 57.834 47.758
H 32.618 57.281 48.853
H 33.839 56.592 49.437
H 30.814 47.356 41.009
H 32.056 46.755 40.374
H 29.5 42.44 41.407
H 29.843 41.444 40.313
H 31.129 55.958 47.847
H 31.733 55.074 48.924
H 36.083 40.909 49.998
H 35.449 39.752 50.751
H 42.713 56.493 53.448
H 33.205 45.976 43.217
H 33.945 46.458 44.453
H 37.62 46.484 45.005
H 26.747 44.193 39.719
H 27.744 45.309 39.46
H 30.91 50.689 33.988
H 29.88 50.168 34.976
H 36.154 46.412 44.615
H 31.428 56.697 42.98
H 31.557 55.217 42.664
H 29.004 54.751 42.033
H 29.248 56.241 41.869
H 35.128 48.58 42.952
H 35.235 49.822 42.084
H 32.788 52.766 52.993
H 32.386 51.309 52.842
H 40.419 55.745 46.347
H 40.021 55.801 47.811
H 26.379 58.926 40.599
H 25.447 58.09 41.458
H 31.262 61.334 37.055
H 30.47 46.917 46.494
H 29.091 47.506 46.25
H 31.403 59.822 37.072
H 35.339 40.502 40.986
H 37.878 50.175 43.182
H 37.559 48.716 43.462
H 36.4 42.328 56.482
H 33.774 55.872 46.184
H 34.508 57.097 46.7
H 39.561 53.435 55.449
H 39.158 51.971 55.452
H 32.69 44.695 55.769
H 30.875 53.096 48.479
H 36.444 53.262 50.922
H 35.897 53.928 52.173
H 27.116 52.963 46.831
H 25.996 53.341 45.877
H 36.667 54.355 44.931
H 37.657 54.112 43.805
H 25.833 54.781 54.566
H 25.67 53.69 53.522
H 38.956 58.362 53.923
H 38.244 57.1 54.377
H 33.753 47.768 35.531
H 34.964 46.949 35.119
H 28.816 56.714 39.766
H 28.044 55.538 39.193
H 29.367 52.925 48.506
H 33.926 56.534 36.12
H 26.318 44.71 48.728
H 25.117 45.508 48.251
H 37.928 40.373 51.272
H 38.122 46.88 42.387
H 38.07 45.362 42.417
H 31.829 58.86 39.992
H 32.58 58.282 38.806
H 36.193 52.631 38.747
H 36.555 51.476 37.83
H 32.488 41.693 43.956
H 29.099 50.414 55.776
H 29.797 49.094 55.5
H 35.203 48.062 54.98
H 35.235 46.559 54.763
H 31.222 40.855 43.924
H 33.873 45.615 39.611
H 32.736 45.639 38.605
H 33.397 59.588 43.813
H 37.796 56.088 46.647
H 35.028 54.154 58.974
H 37.837 55.765 48.13
H 34.194 43.554 54.589
H 33.568 42.457 53.745
H 38.538 51.621 36.509
H 38.182 50.2 36.107
H 32.606 49.713 45.027
H 33.673 48.672 44.737
H 29.052 55.22 53.26
H 28.95 54.123 54.305
H 25.429 57.649 38.496
H 26.92 57.501 38.743
H 39.613 46.269 51.606
H 41.014 46.779 51.895
H 28.839 57.029 36.91
H 30.058 43.837 47.85
H 31.192 43.132 48.575
H 29.278 58.202 37.768
H 32.095 60.271 43.432
H 34.705 52.812 41.061
H 28.536 51.852 53.635
H 27.407 50.882 53.334
H 33.615 52.284 40.144
H 32.481 51.351 43.471
H 32.977 51.359 42.036
H 38.511 46.777 49.325
H 32.1 50.622 38.596
H 31.533 49.467 37.79
H 39.547 45.904 48.638
H 28.468 46.382 44.439
H 37.061 59.047 40.145
H 38.211 59.964 39.769
H 27.003 46.003 44.302
H 38.33 52.865 52.441
H 35.764 59.128 51.899
H 36.653 59.111 50.668
H 38.881 54.256 52.7
H 33.378 53.24 35.647
H 28.597 50.209 49.2
H 29.206 49.268 48.175
H 32.292 54.302 35.674
H 29.339 56.964 48.63
H 29.119 58.291 47.926
H 24.688 47.016 38.807
H 25.973 46.61 39.506
H 39.8 60.892 41.021
H 39.726 62.388 41.27
H 43.674 44.02 53.027
H 32.043 51.162 35.917
H 30.916 52.108 36.292
H 32.666 55.886 53.458
H 33.076 57.341 53.309
H 25.983 54.666 50.147
H 26.977 53.523 50.032
H 34.531 57.256 38.964
H 34.973 58.493 39.727
H 28.941 60.445 47.547
H 27.523 59.914 47.655
H 38.569 41.421 53.276
H 38.049 42.557 52.412
H 38.264 45.43 53.439
H 31.043 61.398 52.38
H 35.773 47.343 50.316
H 36.749 45.525 53.409
H 43.953 59.514 45.723
H 43.284 58.593 44.717
H 37.937 53.472 37.536
H 37.605 53.575 36.058
H 29.978 62.481 52.379
H 37.057 46.867 50.973
H 28.386 45.065 42.017
H 28.785 43.95 42.968
H 32.564 48.625 52.728
H 31.552 47.593 52.261
H 42.582 58.294 41.531
H 41.189 58.081 40.964
H 33.226 44.868 48.527
H 34.741 44.842 48.631
H 37.299 44.178 44.086
H 38.015 43.041 44.793
H 42.504 50.942 47.283
H 42.767 52.437 47.26
H 38.512 49.69 55.279
H 37.184 48.992 55.511
H 33.096 49.687 40.562
H 33.879 48.44 40.931
H 42.094 57.181 50.043
H 41.017 45.015 54.024
H 40.383 44.911 55.4
H 32.307 43.099 37.15
H 25.625 51.777 52.376
H 24.828 51.949 51.095
H 36.674 64.478 42.437
H 32.673 44.382 36.425
H 34.706 51.801 49.111
H 33.457 51.141 48.554
H 34.102 55.289 43.842
H 33.614 56.725 43.924
H 34.616 43.202 46.516
H 34.381 41.704 46.606
H 39.952 45.044 41.319
H 41.459 45.215 41.249
H 42.022 60.569 45.68
H 40.637 59.988 45.909
H 40.449 50.625 52.579
H 39.393 50.821 53.652
H 29.228 60.523 50.574
H 29.024 62.014 50.372
