54
xyz format
O 66.925 61.162 65.676
O 67.1 66.698 63.22
O 64.954 62.354 66.872
O 67.461 64.799 62.139
O 65.263 69.121 61.854
O 66.099 67.001 66.451
O 68.79 66.91 61.533
O 70.478 65.422 59.228
O 65.031 69.513 64.007
O 64.283 66.522 62.313
O 67.749 62.38 60.54
O 68.558 59.38 65.557
O 68.87 65.363 64.414
O 65.904 67.722 59.316
O 65.587 59.325 64.57
O 67.575 63.471 65.438
O 62.641 65.124 62.733
O 69.996 63.107 63.519
H 62.854 64.196 62.576
H 62.469 65.163 63.682
H 68.182 63.056 60.003
H 66.93 62.804 60.823
H 65.255 67.007 59.322
H 67.229 63.617 64.548
H 69.534 67.4 59.04
H 68.411 63.014 65.286
H 70.264 63.766 62.868
H 69.532 62.442 62.995
H 68.679 65.919 65.18
H 69.812 65.17 64.501
H 70.929 60.897 62.288
H 64.703 65.728 61.959
H 64.922 66.85 62.959
H 65.115 69.274 64.939
H 64.078 69.602 63.878
H 68.277 66.762 60.729
H 69.513 67.48 61.241
H 67.643 61.229 66.318
H 67.381 61.124 64.826
H 70.3 64.997 60.077
H 66.936 67.004 65.97
H 65.529 66.435 65.916
H 65.3 68.298 61.351
H 66.043 58.754 65.201
H 65.026 59.88 65.126
H 66.939 64.946 61.34
H 68.212 64.278 61.83
H 67.779 67.269 63.601
H 66.856 66.114 63.948
H 68.912 59.551 64.675
H 68.209 58.483 65.494
H 65.092 61.399 66.876
H 65.707 62.697 67.369
H 67.161 69.351 60.694
