89
xyz format
O 33.994 67.104 54.839
O 32.708 61.385 63.482
O 35.527 64.484 62.437
O 37.736 73.589 59.468
O 32.782 67.915 58.422
O 35.516 72.018 57.872
O 31.427 60.912 59.062
O 36.026 71.251 53.232
O 30.054 65.574 59.418
O 38.248 67.756 61.842
O 32.129 64.169 59.621
O 30.135 65.473 56.644
O 29.409 64.522 61.444
O 35.314 65.152 59.461
O 37.459 63.726 63.168
O 34.204 69.5 60.717
O 32.718 71.191 58.814
O 35.955 69.295 58.382
O 37.313 73.439 56.155
O 34.639 70.179 56.839
O 34.127 65.404 56.244
O 27.82 67.286 56.005
O 34.377 62.425 61.472
O 27.203 64.702 56.516
O 37.406 67.172 63.96
O 33.695 66.003 62.934
O 34.86 72.365 55.699
O 31.202 67.111 60.721
O 32.728 63.924 62.354
O 30.183 62.742 64.217
O 37.832 70.091 54.695
O 31.771 65.823 54.513
O 31.841 68.853 61.903
O 27.706 62.051 61.204
O 27.628 63.755 58.981
H 32.22 70.367 58.748
H 33.015 71.206 59.733
H 33.146 66.758 63.179
H 27.444 65.183 57.318
H 33.703 66.029 61.969
H 34.642 70.333 60.931
H 34.933 68.873 60.632
H 34.188 62.854 60.628
H 36.453 73.853 56.297
H 39.072 67.617 59.338
H 34.971 65.48 56.706
H 33.478 65.672 56.907
H 36.85 63.194 63.695
H 35.393 70.153 56.237
H 37.26 72.62 56.663
H 37.963 64.218 63.828
H 34.24 69.305 56.745
H 35.662 72.094 55.234
H 34.194 72.408 55.001
H 37.701 68.07 61.112
H 39.072 68.248 61.74
H 29.98 63.546 63.722
H 31.706 63.5 60.173
H 32.828 64.524 60.185
H 31.108 67.518 59.851
H 31.932 66.489 60.605
H 32.541 69.463 62.168
H 31.679 68.331 62.698
H 38.445 70.545 54.104
H 37.445 70.805 55.217
H 34.861 64.574 58.835
H 37.308 66.269 64.288
H 35.666 70.045 58.918
H 29.825 63.652 61.476
H 28.516 64.362 61.774
H 36.445 68.744 59.005
H 29.499 64.75 56.577
H 29.791 66.138 56.034
H 29.239 65.564 58.902
H 30.747 65.647 58.75
H 31.148 61.79 58.776
H 27.455 64.121 59.857
H 36.207 72.143 58.535
H 34.699 72.047 58.384
H 31.988 64.03 62.965
H 33.491 63.811 62.936
H 37.079 74.11 58.99
H 32.447 68.451 57.692
H 33.544 68.413 58.741
H 31.529 65.022 54.994
H 35.698 65.117 63.146
H 35.637 65.007 61.633
H 34.573 67.535 55.48
H 33.65 67.836 54.312
