389
xyz format
O 64.275 48.624 42.465
O 59.583 55.722 38.457
O 55.752 53.306 41.348
O 62.842 59.32 50.441
O 59.892 64.597 44.045
O 55.09 53.194 37.529
O 54.453 56.755 39.842
O 66.077 51.943 48.352
O 54.774 50.098 37.186
O 62.267 63.912 49.325
O 62.752 58.048 44.383
O 57.587 66.404 42.599
O 60.951 62.205 43.16
O 60.603 53.293 37.665
O 57.793 65.457 45.373
O 63.103 48.738 45.302
O 61.539 55.57 41.633
O 52.703 53.557 40.845
O 53.925 62.227 47.433
O 63.678 51.852 40.364
O 61.097 47.285 39.771
O 65.141 55.078 45.493
O 65.816 54.329 48.2
O 59.139 60.722 52.596
O 68.807 50.74 45.586
O 62.79 61.89 41.071
O 63.446 63.312 46.768
O 65.525 52.671 44.585
O 55.795 60.641 40.337
O 53.649 54.883 36.971
O 61.631 61.417 54.456
O 61.746 48.45 48.04
O 62.799 56.683 39.336
O 65.951 61.95 43.321
O 62.787 52.349 46.174
O 57.659 64.519 48.088
O 61.228 59.219 53.159
O 60.875 56.202 50.356
O 60.733 58.5 38.045
O 57.069 50.944 47.434
O 61.67 60.589 49.077
O 67.53 55.478 44.629
O 55.779 60.703 52.103
O 63.355 58.652 38.526
O 59.399 49.094 44.669
O 50.964 58.471 40.09
O 66.635 59.354 41.847
O 54.5 64.222 51.801
O 60.014 61.846 50.729
O 56.906 48.665 42.027
O 59.223 46.933 46.829
O 63.951 57.903 46.767
O 62.932 65.063 51.091
O 59.342 57.664 49.762
O 67.002 54.671 50.022
O 54.237 59.335 38.115
O 59.951 56.297 35.449
O 58.264 59.554 45.095
O 63.897 50.046 47.79
O 57.548 52.303 44.476
O 61.051 62.737 39.649
O 51.207 52.913 38.078
O 64.779 53.145 50.193
O 65.48 57.043 37.414
O 61.369 48.486 42.344
O 59.425 57.438 41.472
O 57.741 58.74 36.33
O 64.402 61.363 50.707
O 57.776 62.291 50.856
O 49.989 55.99 41.873
O 61.668 51.737 35.816
O 62.31 52.908 43.54
O 63.637 61.443 37.313
O 59.547 53.745 45.963
O 59.739 56.869 45.804
O 62.898 54.962 51.608
O 57.302 55.255 38.117
O 61.818 53.825 48.639
O 54.624 64.417 45.167
O 55.221 57.942 52.735
O 70.138 59.345 47.123
O 53.953 64.891 39.245
O 58.02 64.553 53.514
O 60.701 48.478 37.688
O 65.993 48.457 40.905
O 56.446 50.871 40.283
O 57.216 55.613 46.616
O 56.798 62.435 53.25
O 57.233 58.595 38.722
O 56.784 47.336 45.397
O 57.225 52.662 37.699
O 58.081 64.754 39.87
O 57.528 54.975 41.331
O 59.491 59.983 35.846
O 58.972 60.969 41.817
O 62.618 64.824 43.263
O 51.325 55.259 43.721
O 51.332 56.014 38.196
O 55.293 63.072 41.956
O 56.157 66.826 39.98
O 51.839 62.809 41.651
O 63.68 50.758 43.388
O 61.48 51.258 49.088
O 57.568 62.218 45.647
O 66.182 51.454 42.628
O 58.034 60.286 47.16
O 64.109 55.729 48.859
O 59.438 46.785 42.027
O 58.134 55.782 52.161
O 58.58 48.821 49.111
O 55.5 60.524 43.901
O 63.845 62.107 44.969
O 60.41 58.431 47.998
O 58.316 54.111 48.936
O 67.033 59.107 48.538
O 61.716 55.792 45.973
O 56.998 55.032 44.209
O 60.976 59.705 44.48
O 59.429 55.082 42.667
O 54.216 54.975 43.071
O 66.894 57.467 45.327
O 59.719 49.752 39.534
O 67.213 49.441 44.803
O 62.888 60.417 46.224
O 52.727 62.421 39.125
O 59.652 52.897 39.842
O 60.461 57.639 43.872
O 56.121 58.474 44.4
O 64.72 61.502 47.32
O 67.769 53.237 47.772
O 63.8 55.418 37.834
O 56.23 60.142 49.067
O 53.609 61.002 51.89
O 61.838 51.324 39.278
O 59.542 64.838 41.515
O 63.232 47.84 39.281
O 59.887 50.759 47.083
O 62.766 59.39 42.403
O 52.623 59.858 41.431
O 60.246 52.807 42.008
O 65.837 64.717 46.944
O 59.295 50.375 42.726
O 60.832 46.359 45.268
O 56.162 64.145 38.985
O 64.951 64.335 43.018
O 66.343 60.743 45.142
C 52.893 51.882 46.466
H 51.685 56.05 43.3
H 51.284 54.616 43.003
H 65.798 64.117 46.189
H 63.975 50.553 44.284
H 64.068 51.625 43.212
H 61.772 46.577 45.259
H 60.514 46.676 44.414
H 52.386 62.065 41.933
H 54.418 62.882 41.595
H 55.779 63.427 41.202
H 52.087 56.004 38.798
H 62.082 65.622 43.184
H 62.155 64.302 43.93
H 60.765 50.376 47.203
H 59.906 51.096 46.178
H 57.268 56.08 38.617
H 57.233 54.572 38.796
H 62.5 53.147 48.548
H 60.993 53.336 48.529
H 56.493 59.211 38.8
H 57.863 58.909 39.382
H 61.811 47.628 42.321
H 61.969 49.066 41.859
H 64.035 61.994 50.076
H 55.161 64.224 45.945
H 53.806 64.773 45.536
H 57.569 52.964 36.849
H 57.492 51.735 37.739
H 57.103 61.787 53.898
H 56.321 63.084 53.782
H 57.151 48.004 45.988
H 64.782 60.642 47.755
H 64.858 62.132 48.038
H 57.875 61.335 50.763
H 57.255 62.544 50.084
H 56.94 57.967 44.337
H 56.174 58.89 45.269
H 62.996 55.156 50.668
H 69.447 58.775 46.765
H 58.654 64.099 52.945
H 61.25 51.289 35.07
H 61.375 51.229 36.583
H 56.808 55.354 40.812
H 58.306 55.107 40.775
H 55.575 58.119 51.855
H 53.33 61.77 39.504
H 58.999 56.547 45.275
H 59.686 56.347 46.614
H 58.753 58.083 41.217
H 60.022 57.418 40.714
H 58.313 58.165 36.854
H 66.596 49.919 45.37
H 56.854 58.406 36.509
H 65.543 60.304 44.827
H 56.865 49.026 42.921
H 57.456 47.877 42.123
H 59.269 47.868 46.593
H 60.83 62.184 50.338
H 60.021 60.909 50.498
H 59.944 53.127 45.335
H 58.711 53.988 45.547
H 63.225 57.679 47.362
H 64.643 58.221 47.36
H 59.303 55.934 43.102
H 60.184 54.698 43.131
H 59.423 46.925 47.773
H 60.172 62.487 39.339
H 60.886 63.121 40.519
H 66.606 59.638 49.222
H 64.725 53.574 51.056
H 65.176 52.287 50.388
H 66.576 59.367 47.728
H 60.314 59.664 35.454
H 64.026 62.832 44.358
H 54.479 60.094 38.66
H 53.476 58.957 38.574
H 66.197 55.147 50.262
H 59.768 58.458 50.109
H 58.543 58.0 49.337
H 59.232 63.991 41.857
H 60.412 64.945 41.92
H 53.358 59.364 41.048
H 50.743 52.927 38.925
H 51.204 53.837 37.8
H 55.793 60.689 42.997
H 55.969 61.19 44.419
H 59.913 61.028 41.609
H 58.883 60.102 42.232
H 63.663 61.358 44.388
H 59.021 56.475 35.637
H 58.565 60.433 44.833
H 59.068 59.12 45.406
H 52.726 52.754 45.787
H 62.806 53.46 44.157
H 59.652 58.4 47.402
H 61.169 58.461 47.402
H 58.232 51.655 44.266
H 56.945 52.252 43.725
H 63.651 50.978 47.854
H 66.016 61.558 45.542
H 64.837 50.073 47.571
H 62.068 52.136 44.067
H 57.539 59.499 47.421
H 58.553 60.5 47.945
H 59.744 50.716 39.572
H 59.2 49.505 40.31
H 61.219 60.522 48.226
H 62.54 60.938 48.848
H 66.941 57.538 46.289
H 67.686 55.121 45.512
H 67.005 54.794 44.195
H 66.613 58.346 45.046
H 53.716 54.235 43.438
H 53.656 55.295 42.352
H 65.818 59.183 42.333
H 60.931 60.318 45.224
H 60.478 60.151 43.784
H 66.29 50.784 43.315
H 66.857 51.225 41.977
H 55.739 61.186 51.269
H 56.524 60.1 51.984
H 60.208 48.851 44.202
H 58.804 48.354 44.498
H 61.499 50.319 49.313
H 61.597 51.7 49.938
H 52.441 60.202 43.931
H 63.407 58.985 37.621
H 64.278 58.603 38.805
H 58.17 62.629 46.28
H 51.533 57.691 40.098
H 56.844 62.853 45.574
H 64.615 56.175 48.167
H 63.699 54.986 48.4
H 56.66 50.152 47.804
H 57.307 51.463 48.213
H 60.867 57.826 38.723
H 60.964 59.324 38.491
H 60.803 55.315 50.729
H 61.123 56.749 51.111
H 56.347 64.472 38.095
H 56.448 63.223 38.954
H 65.473 64.901 42.436
H 64.478 63.754 42.41
H 60.443 58.946 52.669
H 61.866 52.299 46.461
H 63.056 53.242 46.421
H 57.031 64.0 47.57
H 57.31 64.471 48.987
H 62.126 55.729 46.845
H 62.006 54.987 45.525
H 57.204 55.861 43.757
H 57.525 54.376 43.735
H 65.497 61.328 42.74
H 66.326 62.6 42.714
H 61.651 46.72 40.324
H 60.583 47.797 40.408
H 63.119 52.069 41.12
H 64.24 51.139 40.691
H 61.031 57.578 43.095
H 59.684 58.112 43.55
H 63.526 61.396 41.454
H 62.055 61.266 41.1
H 62.01 54.729 41.698
H 60.854 55.398 40.975
H 53.073 53.784 39.983
H 51.796 53.884 40.799
H 54.764 62.503 47.821
H 62.497 55.796 39.566
H 63.282 56.971 40.12
H 61.371 48.078 47.232
H 61.621 47.75 48.693
H 53.335 54.495 37.797
H 56.506 60.386 40.938
H 55.074 60.891 40.927
H 61.363 61.528 53.535
H 56.737 56.448 46.539
H 56.55 54.996 46.943
H 56.05 50.338 39.582
H 56.093 50.483 41.093
H 61.282 48.21 36.965
H 60.556 49.419 37.527
H 65.448 53.984 47.377
H 64.823 52.659 45.248
H 66.269 52.248 45.031
H 63.819 63.957 47.382
H 62.532 63.604 46.657
H 59.713 53.832 39.609
H 58.821 52.836 40.33
H 62.635 61.268 46.604
H 62.893 59.82 46.982
H 65.298 55.949 45.878
H 64.193 55.076 45.309
H 66.452 54.994 47.907
H 59.181 61.305 53.363
H 58.535 60.022 52.872
H 68.082 53.198 46.86
H 62.991 48.502 39.941
H 62.516 60.142 42.954
H 63.651 59.163 42.713
H 60.536 55.62 38.575
H 59.426 55.398 37.562
H 62.288 57.799 45.192
H 63.679 57.865 44.584
H 63.274 48.61 46.244
H 62.142 48.826 45.255
H 58.264 64.795 45.895
H 57.045 64.969 45.006
H 57.278 55.714 51.718
H 59.695 53.099 37.401
H 60.972 53.748 36.898
H 58.83 53.645 48.265
H 57.561 53.53 49.091
H 60.173 62.444 43.68
H 58.769 55.771 51.434
H 59.516 48.606 49.204
H 58.583 49.756 48.871
H 61.659 62.161 43.814
H 54.799 56.23 40.574
H 54.346 56.113 39.129
H 60.955 52.271 41.631
H 60.194 52.508 42.924
H 66.084 51.876 47.389
H 54.451 52.605 37.109
H 55.486 53.668 36.787
H 60.22 50.359 42.451
H 58.973 49.494 42.499
H 55.118 54.032 41.3
H 63.779 55.5 36.872
H 64.002 54.485 37.98
H 63.637 48.505 43.18
H 64.095 47.884 41.872
H 62.361 50.531 39.103
H 62.071 51.917 38.553
H 55.772 52.959 40.447
H 63.675 58.836 50.381
H 62.238 58.689 50.85
H 59.98 65.558 44.07
H 60.181 64.318 44.923
H 56.685 59.743 49.819
H 55.298 60.112 49.32
H 62.249 64.682 48.742
H 62.001 63.183 48.75
