77
xyz format
O 56.077 50.987 30.501
O 59.394 49.104 23.261
O 61.001 51.267 23.796
O 56.201 49.297 25.156
O 56.128 49.545 27.927
O 57.432 47.613 30.077
O 62.119 48.05 24.336
O 60.892 54.228 28.697
O 58.688 50.203 26.442
O 58.569 52.523 28.233
O 60.787 51.273 31.003
O 54.32 47.556 22.265
O 62.539 54.401 30.282
O 62.057 48.702 30.499
O 59.8 52.798 25.368
O 58.902 49.145 28.359
O 60.942 45.956 29.562
O 58.318 47.048 25.715
O 62.378 50.704 28.496
O 60.364 48.822 31.943
O 61.243 44.699 26.709
O 58.176 49.376 31.163
O 57.63 53.784 23.62
O 58.439 45.375 30.012
O 60.785 47.793 26.633
H 62.172 50.719 25.811
H 56.951 45.537 28.32
H 60.185 49.506 32.601
H 60.203 47.252 27.181
H 61.341 48.254 27.274
H 61.04 46.88 29.299
H 62.175 51.498 27.987
H 58.072 53.127 23.068
H 57.922 53.566 24.514
H 60.093 53.59 25.836
H 59.57 52.185 26.077
H 62.289 48.784 29.566
H 57.96 54.601 27.139
H 57.002 43.728 24.857
H 58.379 46.281 25.132
H 59.381 55.956 29.977
H 57.976 47.746 25.142
H 60.056 45.313 23.936
H 62.092 52.854 25.288
H 59.811 49.149 28.682
H 58.443 49.745 28.959
H 60.349 44.877 26.389
H 61.114 44.489 27.643
H 54.822 47.455 23.083
H 62.053 55.235 30.271
H 58.461 50.26 31.426
H 57.243 49.353 31.41
H 58.305 44.089 26.592
H 61.607 51.156 30.506
H 60.101 51.23 30.326
H 57.934 50.449 25.892
H 59.243 49.681 25.849
H 59.373 51.989 28.26
H 57.96 51.994 27.704
H 53.483 51.922 29.088
H 61.625 47.515 23.702
H 61.838 48.953 24.142
H 56.54 47.509 30.429
H 57.293 47.728 29.129
H 60.519 51.842 23.188
H 60.311 50.907 24.367
H 56.334 50.327 27.4
H 56.476 48.815 27.399
H 55.844 50.188 25.258
H 55.79 48.976 24.344
H 60.96 54.281 27.736
H 61.033 53.292 28.886
H 58.544 48.75 22.97
H 59.671 48.494 23.955
H 56.147 51.587 29.748
H 55.732 51.547 31.208
H 61.479 54.741 24.336
