38
xyz format
O 33.588 72.568 49.856
O 26.463 66.289 46.959
O 31.974 67.306 45.976
O 29.459 67.221 47.295
O 29.895 70.243 51.165
O 28.74 68.696 48.934
O 29.75 66.513 51.072
O 32.416 70.089 49.615
O 31.017 70.342 47.136
O 32.643 70.762 53.145
O 33.263 70.338 46.724
O 34.507 67.204 46.762
H 31.104 69.565 47.702
H 30.257 70.135 46.578
H 28.679 65.066 46.992
H 30.194 67.042 51.746
H 28.836 66.822 51.104
H 33.184 69.989 52.94
H 32.208 70.524 53.973
H 28.771 69.482 48.374
H 29.66 68.563 49.193
H 31.576 69.677 49.853
H 32.612 70.661 50.367
H 29.174 69.648 51.405
H 30.047 70.755 51.969
H 28.539 67.456 47.118
H 29.961 67.804 46.711
H 32.156 66.398 45.705
H 32.633 67.825 45.498
H 26.753 66.655 46.114
H 29.492 68.809 53.751
H 33.502 70.209 47.65
H 33.687 69.597 46.272
H 34.373 68.687 43.805
H 35.35 69.85 43.795
H 33.997 72.338 50.7
H 33.162 73.416 50.032
H 28.057 65.647 49.056
