69
xyz format
O 64.694 41.658 68.189
O 67.902 36.888 68.453
O 65.216 34.181 61.503
O 68.805 38.811 66.129
O 65.077 35.392 65.902
O 64.232 40.062 62.331
O 64.688 38.506 65.185
O 60.249 38.508 63.968
O 65.478 33.409 63.918
O 62.869 34.55 68.12
O 63.218 39.463 67.738
O 65.797 38.013 67.021
O 62.695 41.199 68.982
O 64.287 33.038 66.929
O 68.528 33.361 62.826
O 67.38 33.776 65.297
O 62.04 34.867 65.062
O 62.059 41.298 64.773
O 68.013 40.036 68.603
O 61.007 36.409 67.457
O 62.493 38.106 65.071
O 65.3 30.074 62.913
O 62.973 37.804 62.188
H 68.5 40.288 69.398
H 67.124 39.848 68.929
H 61.335 37.24 67.091
H 61.964 41.694 68.59
H 62.258 40.472 69.442
H 62.05 35.534 64.365
H 62.086 34.031 64.58
H 68.211 33.381 65.003
H 66.866 33.021 65.611
H 62.655 41.812 65.332
H 62.491 41.306 63.91
H 66.036 38.947 67.084
H 65.612 37.761 67.934
H 64.729 33.228 66.092
H 63.387 32.807 66.666
H 60.557 39.313 63.532
H 60.415 37.817 63.315
H 64.069 35.631 62.695
H 62.962 34.601 62.555
H 65.112 31.012 62.785
H 63.603 38.591 67.585
H 63.649 40.022 67.079
H 67.794 33.551 62.229
H 69.264 33.171 62.231
H 62.227 34.534 67.4
H 66.157 32.849 63.522
H 64.693 32.847 63.925
H 64.415 40.618 63.098
H 63.268 40.013 62.308
H 64.305 39.34 64.884
H 64.798 37.997 64.373
H 68.458 38.555 65.265
H 68.113 39.374 66.497
H 63.566 41.816 60.591
H 62.327 38.719 65.798
H 62.859 37.326 65.507
H 64.674 33.441 61.807
H 62.598 37.411 62.985
H 63.922 37.815 62.362
H 68.181 37.585 67.846
H 67.299 36.35 67.923
H 64.79 36.308 65.999
H 65.94 35.375 66.335
H 65.263 41.601 70.374
H 65.334 40.935 68.214
H 65.191 42.391 67.803
