61
xyz format
O 66.298 65.926 54.185
O 67.504 68.334 48.91
O 66.081 64.437 51.062
O 70.392 65.806 48.912
O 67.719 68.723 45.768
O 64.751 70.124 53.396
O 69.302 68.926 56.655
O 65.593 68.66 46.358
O 69.162 67.138 54.708
O 69.555 68.937 50.703
O 70.076 67.526 58.252
O 68.635 71.238 54.809
O 69.937 69.552 53.348
O 71.422 63.771 56.513
O 66.157 70.708 55.349
O 68.886 65.327 52.273
O 70.268 63.435 54.333
O 73.324 65.471 56.738
O 66.579 69.031 52.834
O 65.453 66.525 51.355
O 70.246 65.83 56.323
O 65.906 69.426 50.77
O 72.44 67.385 52.61
H 70.459 65.447 55.463
H 70.636 66.712 56.285
H 68.974 64.485 50.242
H 70.684 63.405 53.463
H 69.338 63.25 54.149
H 65.894 68.354 52.763
H 67.402 68.534 52.748
H 72.156 63.24 56.181
H 71.217 63.37 57.367
H 69.395 70.744 55.14
H 68.256 71.635 55.603
H 72.543 65.938 57.062
H 70.4 68.954 52.747
H 69.17 69.84 52.838
H 69.591 65.238 52.926
H 68.109 64.976 52.725
H 68.346 66.682 54.466
H 69.633 67.225 53.871
H 65.288 66.204 52.251
H 66.394 66.738 51.357
H 69.172 69.664 50.198
H 69.927 68.358 50.026
H 69.948 68.775 55.954
H 68.736 68.145 56.618
H 65.18 69.258 46.993
H 66.763 68.485 48.31
H 68.252 68.19 48.318
H 65.724 68.638 50.243
H 66.743 69.75 50.416
H 72.332 68.165 52.052
H 71.632 66.879 52.457
H 67.782 67.857 46.191
H 67.774 69.343 46.506
H 64.696 69.55 54.17
H 66.382 65.453 55.022
H 65.959 66.792 54.445
H 70.531 66.252 49.757
H 70.599 66.484 48.257
