65
xyz format
O 53.805 22.386 44.661
O 55.185 25.407 42.795
O 51.808 28.999 46.82
O 60.061 23.932 48.445
O 55.794 25.778 50.403
O 58.427 26.082 47.382
O 59.234 28.691 48.974
O 52.252 26.546 47.882
O 55.123 28.446 40.186
O 55.036 26.209 47.893
O 55.014 28.877 45.193
O 58.732 32.014 45.041
O 55.254 30.614 43.803
O 54.877 29.222 37.498
O 56.573 27.325 45.185
O 55.208 24.706 45.187
O 57.955 28.652 46.267
O 57.554 27.156 41.065
O 58.877 30.145 43.394
H 58.527 32.469 45.868
H 59.141 31.189 45.329
H 57.996 26.376 41.424
H 57.504 27.758 41.817
H 54.472 29.544 45.633
H 54.378 28.197 44.938
H 55.982 32.894 42.504
H 55.181 27.783 40.886
H 55.637 29.187 40.53
H 56.505 26.442 44.802
H 56.844 27.877 44.441
H 58.743 26.851 47.874
H 58.032 26.465 46.589
H 51.429 26.447 47.387
H 52.933 26.28 47.251
H 53.633 27.164 38.352
H 55.588 29.423 38.12
H 58.743 28.365 49.739
H 60.158 28.594 49.237
H 54.746 31.224 43.254
H 55.881 30.217 43.185
H 52.682 24.639 49.699
H 53.595 24.276 48.54
H 56.346 26.086 49.673
H 55.001 25.444 49.966
H 60.08 23.643 47.525
H 55.721 28.518 48.723
H 55.369 31.552 40.048
H 52.035 28.241 46.267
H 52.585 29.114 47.381
H 59.285 23.712 44.745
H 58.959 30.146 42.432
H 58.003 29.767 43.55
H 55.935 24.57 45.808
H 54.446 24.865 45.757
H 55.583 26.116 42.276
H 54.574 25.868 43.383
H 53.286 21.74 45.156
H 54.522 22.615 45.265
H 55.412 25.324 47.808
H 61.052 28.933 44.868
H 55.101 26.572 47.001
H 51.929 26.603 42.61
H 58.157 26.247 39.155
H 57.833 29.594 46.094
H 58.808 28.453 45.863
