68
xyz format
Cl 62.646 58.926 60.688
O 62.038 56.92 63.279
O 66.925 61.162 65.676
O 58.796 59.374 64.961
O 64.954 62.354 66.872
O 63.319 59.946 67.882
O 60.777 65.268 60.86
O 59.051 56.579 63.042
O 61.481 62.579 66.845
O 64.283 66.522 62.313
O 63.496 63.416 65.077
O 62.029 62.718 69.551
O 59.831 58.823 61.169
O 57.663 61.028 61.846
O 67.575 63.471 65.438
O 60.544 60.771 65.385
O 56.957 60.557 66.723
O 62.406 59.781 62.749
O 62.641 65.124 62.733
O 59.188 61.6 68.093
O 58.454 57.81 67.415
H 60.765 60.61 69.273
H 60.007 61.619 70.117
H 62.854 64.196 62.576
H 62.469 65.163 63.682
H 64.232 62.862 64.789
H 62.767 63.143 64.506
H 60.056 59.601 61.693
H 60.56 58.213 61.339
H 60.06 61.316 64.752
H 61.469 60.991 65.217
H 57.709 60.843 66.19
H 57.892 56.63 65.489
H 61.213 59.53 59.155
H 61.466 58.1 67.362
H 61.853 60.771 59.753
H 64.888 62.586 69.535
H 58.645 57.378 63.401
H 64.323 58.483 62.257
H 58.653 60.802 68.194
H 59.541 61.528 67.198
H 59.275 60.602 58.994
H 59.517 62.579 62.113
H 59.584 61.609 60.947
H 62.402 62.354 66.66
H 61.187 63.022 66.039
H 64.703 65.728 61.959
H 57.38 62.238 64.52
H 67.643 61.229 66.318
H 61.659 64.884 60.784
H 60.303 64.644 61.423
H 63.907 61.36 61.012
H 63.815 60.55 68.449
H 62.593 59.649 68.444
H 65.026 59.88 65.126
H 58.774 58.649 67.769
H 63.928 57.532 67.396
H 62.339 62.131 68.849
H 62.394 63.578 69.308
H 65.092 61.399 66.876
H 65.707 62.697 67.369
H 58.999 58.527 65.378
H 59.295 59.347 64.135
H 58.032 60.418 62.498
H 61.184 57.37 63.276
H 61.728 59.697 63.43
H 62.875 60.589 62.99
H 56.11 58.767 63.263
