46
xyz format
O 51.909 51.365 55.163
O 50.686 49.697 48.558
O 53.93 51.905 51.539
O 49.286 50.822 51.315
N 51.782 48.251 46.32
N 51.761 52.453 51.079
N 47.749 49.355 48.296
N 52.84 50.036 49.228
N 54.45 50.646 53.996
C 52.791 51.562 51.129
C 51.898 49.739 48.263
C 56.677 51.811 56.155
C 54.053 49.22 53.886
C 55.642 51.408 57.001
C 54.453 52.135 57.049
C 52.916 48.985 52.897
C 53.356 49.113 51.453
C 51.331 52.398 55.595
C 52.523 50.115 50.631
C 51.894 53.827 51.502
C 54.285 53.274 56.25
C 52.412 49.441 46.828
C 56.517 52.946 55.359
H 55.216 50.759 54.669
H 53.18 45.103 52.679
H 52.985 54.119 51.425
H 53.529 49.255 46.86
H 53.648 51.217 54.314
H 57.63 51.259 56.147
H 50.852 52.155 50.786
H 53.315 53.824 53.762
H 52.533 52.166 47.484
H 53.728 48.878 54.911
H 54.748 50.997 53.073
H 46.003 49.2 47.141
H 48.577 49.893 48.452
H 49.235 48.678 50.337
H 51.419 49.877 50.77
H 54.965 48.635 53.574
H 53.804 50.032 48.986
H 54.439 49.401 51.389
H 53.259 48.104 50.963
H 51.038 50.892 45.952
H 53.991 51.68 46.508
H 52.561 47.933 53.083
H 52.051 49.664 53.13
