41
xyz format
O 25.972 52.103 35.086
O 25.063 46.875 39.686
O 31.434 51.37 36.637
O 25.132 49.206 37.179
O 30.16 50.975 34.524
O 30.109 48.309 36.131
O 29.438 51.371 32.483
O 31.285 52.849 34.228
O 29.174 51.139 37.763
O 29.126 52.297 30.21
O 27.812 50.917 34.873
O 27.327 49.045 38.502
O 30.038 48.87 33.103
H 33.239 51.649 34.134
H 29.776 51.655 29.899
H 29.644 53.101 30.343
H 29.477 50.486 37.119
H 28.842 51.862 37.216
H 30.348 48.892 32.189
H 31.05 48.136 36.002
H 27.641 50.188 34.264
H 28.034 51.655 34.291
H 28.762 50.829 32.056
H 29.09 52.269 32.412
H 31.86 53.37 33.654
H 30.585 53.467 34.474
H 29.618 47.371 38.061
H 26.772 48.278 38.314
H 28.019 48.998 37.83
H 30.91 50.689 33.988
H 29.88 50.168 34.976
H 32.737 49.471 33.849
H 24.568 49.939 36.902
H 25.862 49.226 36.547
H 31.533 49.467 37.79
H 24.688 47.016 38.807
H 25.973 46.61 39.506
H 32.043 51.162 35.917
H 30.916 52.108 36.292
H 25.553 51.522 35.733
H 26.54 52.671 35.622
