317
xyz format
Cl 61.242 67.541 41.063
O 59.892 64.597 44.045
O 69.971 57.602 40.999
O 68.519 57.296 37.386
O 61.382 64.936 39.073
O 62.267 63.912 49.325
O 63.17 64.233 36.155
O 68.14 62.73 34.009
O 62.752 58.048 44.383
O 67.504 68.334 48.91
O 66.081 64.437 51.062
O 60.951 62.205 43.16
O 67.054 61.767 48.895
O 67.057 60.849 37.867
O 66.038 60.789 52.061
O 72.199 57.22 40.709
O 67.809 53.637 41.01
O 70.146 65.692 44.416
O 65.141 55.078 45.493
O 68.807 50.74 45.586
O 62.79 61.89 41.071
O 63.446 63.312 46.768
O 75.095 56.844 38.069
O 73.877 61.721 48.033
O 70.392 65.806 48.912
O 64.727 61.208 39.209
O 63.74 64.362 40.428
O 65.254 67.849 39.795
O 65.951 61.95 43.321
O 67.719 68.723 45.768
O 71.625 62.154 42.162
O 71.719 61.327 50.7
O 70.973 55.472 36.151
O 71.488 52.678 41.931
O 70.108 53.36 39.458
O 70.575 57.224 38.166
O 74.32 57.188 47.452
O 61.67 60.589 49.077
O 67.53 55.478 44.629
O 65.069 66.505 49.189
O 63.355 58.652 38.526
O 69.275 66.517 41.447
O 60.085 65.541 47.945
O 66.635 59.354 41.847
O 64.193 63.194 52.568
O 71.274 63.123 47.551
O 65.593 68.66 46.358
O 64.38 67.73 37.299
O 67.714 67.655 42.698
O 70.148 55.109 49.272
O 72.804 63.531 50.301
O 63.951 57.903 46.767
O 72.953 61.649 53.31
O 73.251 53.982 43.039
O 65.461 65.494 37.627
O 65.235 70.63 41.03
O 69.555 68.937 50.703
O 76.504 56.359 40.716
O 72.38 61.594 39.215
O 65.48 57.043 37.414
O 69.016 64.218 45.603
O 72.188 65.307 47.107
O 66.095 62.975 38.981
O 64.402 61.363 50.707
O 69.945 53.596 43.675
O 64.667 68.385 43.334
O 67.362 65.095 43.669
O 75.061 62.007 52.346
O 70.897 61.178 34.591
O 63.637 61.443 37.313
O 66.758 58.695 39.359
O 68.991 57.036 50.856
O 64.806 66.687 44.858
O 68.911 55.426 42.911
O 70.138 59.345 47.123
O 69.005 60.911 52.108
O 73.841 63.047 40.876
O 67.687 70.179 41.156
O 66.721 59.471 35.239
O 58.081 64.754 39.87
O 74.704 55.139 41.297
O 68.166 63.878 37.838
O 70.116 53.973 46.542
O 70.22 59.972 41.714
O 68.886 65.327 52.273
O 62.618 64.824 43.263
O 69.646 59.53 39.567
O 69.357 61.929 36.411
O 71.647 66.058 40.798
O 71.703 56.515 48.601
O 68.644 62.422 42.981
O 73.033 63.716 42.985
O 63.598 66.9 42.117
O 70.58 60.278 37.239
O 63.845 62.107 44.969
O 67.033 59.107 48.538
O 69.656 64.098 39.441
O 73.177 56.067 37.247
O 60.976 59.705 44.48
O 71.345 58.403 44.585
O 66.894 57.467 45.327
O 62.888 60.417 46.224
O 69.717 60.399 49.481
O 64.72 61.502 47.32
O 70.291 61.075 43.64
O 62.414 65.692 45.616
O 71.196 62.744 44.895
O 65.47 62.538 35.031
O 59.542 64.838 41.515
O 65.453 66.525 51.355
O 62.766 59.39 42.403
O 68.579 61.247 46.523
O 68.592 70.168 44.357
O 69.139 63.701 50.781
O 72.926 61.412 46.035
O 72.488 59.353 48.668
O 65.837 64.717 46.944
O 65.906 69.426 50.77
O 63.435 67.588 46.967
O 64.951 64.335 43.018
O 72.44 67.385 52.61
O 66.343 60.743 45.142
H 66.117 65.556 46.557
H 65.798 64.117 46.189
H 64.137 69.148 43.599
H 66.774 64.647 44.29
H 67.602 64.402 43.041
H 65.576 68.695 43.425
H 68.974 64.485 50.242
H 69.256 62.997 50.131
H 69.534 62.561 35.703
H 68.424 62.068 36.614
H 68.832 59.428 40.075
H 69.572 60.416 39.19
H 62.082 65.622 43.184
H 62.155 64.302 43.93
H 65.964 63.257 39.895
H 72.851 65.312 46.405
H 74.553 55.919 41.845
H 74.166 55.302 40.512
H 72.686 65.553 47.896
H 65.275 63.232 38.542
H 67.308 64.303 37.714
H 68.783 64.476 37.398
H 66.678 59.608 39.662
H 63.284 65.606 46.025
H 61.875 66.096 46.307
H 66.446 58.729 38.446
H 71.143 60.633 43.739
H 66.366 56.679 37.294
H 69.648 60.383 43.839
H 69.766 52.788 44.173
H 74.158 62.403 40.23
H 73.461 63.749 40.333
H 67.562 70.805 40.432
H 67.777 70.744 41.934
H 70.089 54.26 44.36
H 64.035 61.994 50.076
H 64.824 60.698 50.149
H 64.782 60.642 47.755
H 64.858 62.132 48.038
H 69.447 58.775 46.765
H 70.7 59.532 46.36
H 68.25 55.805 42.318
H 69.426 56.19 43.198
H 68.362 56.811 50.159
H 69.655 57.57 50.402
H 64.365 66.198 44.152
H 65.728 66.722 44.572
H 65.543 60.304 44.827
H 67.656 68.619 42.709
H 67.621 67.41 43.627
H 72.579 62.128 52.56
H 73.58 54.732 43.551
H 72.865 54.392 42.255
H 72.848 56.634 37.956
H 73.308 55.213 37.678
H 74.999 62.662 53.052
H 75.33 61.201 52.804
H 64.37 60.876 37.043
H 62.861 61.01 36.936
H 64.643 58.221 47.36
H 72.596 64.339 50.788
H 73.502 63.121 50.827
H 70.625 61.387 33.688
H 71.369 60.341 34.5
H 71.698 62.277 39.232
H 72.774 61.684 38.338
H 66.606 59.638 49.222
H 66.576 59.367 47.728
H 70.015 59.638 36.788
H 71.38 60.297 36.7
H 64.026 62.832 44.358
H 69.62 64.473 46.311
H 68.141 64.332 45.996
H 59.232 63.991 41.857
H 60.412 64.945 41.92
H 70.104 60.829 41.284
H 71.103 59.695 41.44
H 63.663 61.358 44.388
H 72.345 56.221 47.943
H 72.248 56.917 49.289
H 65.031 70.162 41.849
H 65.544 69.932 40.439
H 65.816 65.74 38.49
H 64.528 65.318 37.804
H 66.016 61.558 45.542
H 69.172 69.664 50.198
H 69.927 68.358 50.026
H 66.941 57.538 46.289
H 67.686 55.121 45.512
H 67.005 54.794 44.195
H 66.613 58.346 45.046
H 65.18 69.258 46.993
H 65.06 68.767 45.561
H 69.817 67.1 41.993
H 68.918 65.879 42.078
H 65.02 62.866 52.192
H 67.252 59.645 42.53
H 65.818 59.183 42.333
H 70.384 62.885 47.838
H 71.657 63.553 48.326
H 64.283 66.428 48.634
H 65.763 66.09 48.661
H 68.324 61.743 42.373
H 69.181 62.996 42.421
H 71.701 65.18 41.196
H 71.986 66.644 41.486
H 66.763 68.485 48.31
H 68.252 68.19 48.318
H 71.432 56.273 35.869
H 71.667 54.801 36.155
H 72.74 63.944 43.876
H 73.549 64.483 42.71
H 70.874 53.813 39.83
H 73.685 57.913 47.514
H 75.176 57.634 47.441
H 70.546 52.757 41.733
H 70.997 57.73 37.461
H 70.809 57.708 38.967
H 71.761 60.374 50.845
H 70.826 61.563 50.983
H 72.261 61.696 41.598
H 71.267 62.845 41.591
H 63.114 67.902 46.112
H 63.182 68.29 47.579
H 65.473 64.901 42.436
H 64.478 63.754 42.41
H 71.632 66.879 52.457
H 67.782 67.857 46.191
H 67.774 69.343 46.506
H 69.611 63.139 39.538
H 70.601 64.289 39.487
H 70.627 58.359 43.942
H 72.109 58.669 44.058
H 65.497 61.328 42.74
H 66.326 62.6 42.714
H 70.159 60.835 48.742
H 69.162 59.734 49.055
H 72.227 56.435 40.147
H 72.626 56.932 41.526
H 66.73 61.463 52.055
H 66.475 60.009 51.696
H 68.548 53.672 41.63
H 67.944 54.413 40.45
H 63.526 61.396 41.454
H 62.055 61.266 41.1
H 69.46 66.352 44.254
H 70.715 65.757 43.638
H 69.139 69.404 44.134
H 68.655 60.6 45.811
H 68.942 70.872 43.796
H 74.309 60.915 48.341
H 74.09 62.371 48.715
H 68.37 62.07 46.063
H 63.481 63.787 39.697
H 64.027 65.173 39.991
H 65.917 67.247 40.155
H 69.178 60.112 51.594
H 68.608 60.579 52.922
H 63.819 63.957 47.382
H 62.532 63.604 46.657
H 66.648 60.812 36.993
H 67.841 60.294 37.776
H 62.635 61.268 46.604
H 62.893 59.82 46.982
H 64.193 55.076 45.309
H 66.831 63.862 51.26
H 65.89 64.252 50.133
H 62.516 60.142 42.954
H 63.651 59.163 42.713
H 67.817 61.824 34.091
H 67.521 63.244 34.543
H 64.421 66.674 41.668
H 63.334 67.733 41.708
H 60.173 62.444 43.68
H 61.659 62.161 43.814
H 67.81 61.494 49.43
H 66.478 62.218 49.525
H 72.515 60.759 45.455
H 73.363 62.018 45.424
H 70.531 66.252 49.757
H 70.599 66.484 48.257
H 74.741 57.431 38.749
H 72.327 60.021 47.99
H 71.608 59.162 49.015
H 63.923 60.709 39.399
H 65.206 61.198 40.047
H 68.707 56.957 36.502
H 68.194 58.191 37.224
H 70.383 57.661 41.87
H 70.539 62.455 45.54
H 70.674 63.202 44.225
H 59.98 65.558 44.07
H 60.181 64.318 44.923
H 69.028 57.54 41.195
H 65.914 62.568 35.888
