83
xyz format
O 62.081 40.221 36.613
O 65.857 38.14 34.556
O 66.164 30.998 42.14
O 65.915 35.229 38.306
O 62.508 37.306 37.731
O 64.431 37.393 30.032
O 69.296 36.144 35.877
O 65.82 31.95 38.353
O 64.471 31.977 40.092
O 63.152 31.415 34.885
O 65.785 33.664 33.61
O 60.416 33.93 38.209
O 61.483 38.114 30.98
O 67.536 33.841 41.727
O 63.25 33.61 42.054
O 68.107 32.652 39.275
O 63.748 37.969 35.67
O 62.042 32.627 37.389
O 67.213 37.377 36.114
O 67.605 37.375 33.344
O 65.972 38.991 29.927
O 64.824 29.121 37.259
O 65.853 31.055 35.642
O 62.839 36.673 27.854
O 65.066 40.585 34.809
O 64.228 35.454 33.531
O 68.423 36.015 39.495
O 64.879 34.391 36.554
O 66.037 35.953 32.324
H 68.031 35.177 39.771
H 67.814 36.341 38.821
H 66.67 38.614 29.376
H 65.513 39.596 29.332
H 63.835 38.802 35.191
H 63.282 37.395 35.049
H 63.07 31.227 35.828
H 63.638 32.249 34.859
H 63.932 31.438 40.684
H 63.842 32.606 39.718
H 66.675 33.397 33.872
H 65.337 32.827 33.437
H 67.726 32.901 41.613
H 68.853 33.217 39.036
H 68.501 31.774 39.355
H 67.926 36.702 33.957
H 68.401 37.658 32.877
H 63.458 34.971 33.854
H 64.63 35.809 34.334
H 61.99 31.745 37.778
H 62.475 33.154 38.073
H 62.672 33.029 41.543
H 64.138 33.314 41.818
H 66.505 31.566 35.146
H 65.275 30.694 34.958
H 64.574 29.223 38.186
H 64.081 29.506 36.778
H 62.05 37.395 30.675
H 59.507 34.237 38.314
H 60.929 34.746 38.161
H 64.431 40.987 35.414
H 69.368 37.064 35.592
H 63.76 39.449 32.644
H 65.056 39.897 31.991
H 63.469 32.911 44.129
H 64.543 36.866 29.232
H 63.905 38.147 29.738
H 64.269 34.23 35.823
H 65.73 34.09 36.213
H 65.717 36.478 31.58
H 66.698 35.372 31.927
H 65.874 35.601 41.452
H 63.283 36.792 37.47
H 65.385 32.789 38.156
H 66.494 31.874 37.667
H 65.477 30.367 41.891
H 65.808 31.848 41.851
H 65.897 35.355 39.263
H 66.635 34.6 38.171
H 65.402 34.563 43.387
H 65.34 38.066 33.744
H 66.425 38.904 34.397
H 62.966 39.946 36.885
H 62.046 39.986 35.677
