32
xyz format
O 53.93 51.905 51.539
O 50.19 53.992 53.244
O 49.286 50.822 51.315
N 52.353 53.934 53.978
N 51.761 52.453 51.079
C 52.791 51.562 51.129
C 51.406 53.938 52.972
C 50.386 53.922 48.435
C 51.942 53.806 55.355
C 51.302 56.212 48.639
C 51.361 54.801 49.194
C 52.523 50.115 50.631
C 51.894 53.827 51.502
C 51.055 54.819 50.684
H 52.985 54.119 51.425
H 49.343 54.303 48.555
H 50.641 53.926 47.347
H 51.127 54.581 55.525
H 50.294 56.66 48.817
H 51.278 55.837 51.105
H 49.964 54.621 50.859
H 51.494 56.201 47.539
H 50.852 52.155 50.786
H 53.315 53.824 53.762
H 52.533 52.166 47.484
H 51.419 49.877 50.77
H 52.402 54.402 49.034
H 52.07 56.86 49.126
H 50.418 52.866 48.792
H 48.927 52.406 54.021
H 52.726 52.754 45.787
H 47.941 53.268 52.003
