462
xyz format
Na 46.336 56.344 34.969
O 48.262 50.179 24.401
O 44.251 57.008 30.865
O 54.182 49.336 31.495
O 45.733 48.509 31.953
O 37.519 46.932 31.979
O 39.522 44.361 34.858
O 45.023 54.088 36.793
O 38.108 54.297 27.379
O 37.603 54.09 36.874
O 49.594 50.321 28.425
O 48.66 49.362 33.595
O 43.128 47.633 32.968
O 42.098 48.166 37.965
O 42.6 59.874 35.929
O 38.829 49.07 31.297
O 50.528 47.952 30.327
O 38.916 52.01 32.064
O 46.529 42.063 30.219
O 52.563 51.837 35.898
O 47.015 56.218 24.12
O 55.942 47.335 32.968
O 50.118 59.605 35.868
O 50.579 51.258 36.654
O 46.047 61.631 35.735
O 48.833 45.132 36.582
O 40.307 48.273 23.517
O 36.757 48.855 30.077
O 41.465 50.784 30.986
O 50.403 59.846 32.747
O 42.509 44.712 31.816
O 38.092 51.296 27.954
O 41.971 55.703 32.339
O 38.091 53.985 32.814
O 40.644 44.475 37.494
O 46.756 45.28 28.776
O 47.059 58.37 29.734
O 46.576 56.266 38.022
O 49.874 57.374 30.519
O 48.387 53.642 30.03
O 43.681 50.692 23.486
O 48.247 55.485 32.451
O 44.636 45.743 30.719
O 49.969 54.723 33.618
O 43.966 42.991 35.457
O 47.96 41.069 32.132
O 40.502 58.425 30.405
O 44.16 44.06 38.098
O 41.915 55.924 36.92
O 42.652 54.309 27.015
O 42.857 41.054 38.169
O 38.278 56.39 34.887
O 42.196 50.038 26.32
O 44.294 43.052 29.815
O 40.227 57.338 34.477
O 50.827 43.883 30.833
O 53.405 46.384 31.076
O 44.903 46.984 25.397
O 44.429 56.073 26.017
O 42.041 49.464 28.779
O 43.851 58.259 29.088
O 41.846 41.941 31.692
O 40.535 57.907 37.278
O 40.196 51.677 39.231
O 40.324 42.635 36.016
O 51.116 50.463 33.315
O 41.344 52.15 24.261
O 49.416 51.428 30.997
O 52.165 58.072 35.945
O 38.638 48.827 37.901
O 41.784 54.903 23.623
O 49.677 47.318 35.392
O 45.506 59.699 32.804
O 48.706 59.716 30.628
O 41.037 47.328 30.485
O 39.748 54.056 36.206
O 51.132 54.952 35.903
O 44.581 47.833 40.163
O 44.469 54.002 29.164
O 37.055 42.936 31.153
O 42.205 43.697 34.264
O 40.068 52.462 29.522
O 45.106 43.419 27.047
O 46.137 41.844 36.528
O 46.113 50.098 34.367
O 40.437 55.974 29.266
O 44.15 58.19 34.028
O 44.267 51.138 30.976
O 36.886 51.982 29.661
O 46.923 54.191 35.632
O 48.282 52.62 32.825
O 41.266 46.155 26.218
O 40.455 55.642 38.693
O 49.447 41.421 34.204
O 46.963 45.185 32.225
O 42.39 45.371 38.656
O 45.346 46.34 35.392
O 39.134 55.815 32.179
O 38.589 51.006 35.766
O 47.394 50.357 29.947
O 46.539 55.3 29.686
O 47.657 43.455 34.18
O 42.724 55.002 30.394
O 42.843 53.455 32.678
O 43.822 55.229 35.077
O 51.229 50.341 30.39
O 45.069 46.488 38.492
O 45.371 53.799 33.656
O 44.749 49.803 27.586
O 44.893 51.368 25.879
O 50.591 53.675 28.484
O 49.847 44.732 33.838
O 47.192 56.643 28.071
O 40.534 50.018 36.069
O 38.848 47.839 25.813
O 38.686 49.873 33.379
O 44.661 39.923 34.84
O 51.332 56.014 38.196
O 45.152 54.968 22.919
O 41.364 43.526 26.576
O 35.865 45.491 31.816
O 37.132 45.325 27.148
O 39.405 45.462 29.705
O 47.91 51.668 39.049
O 40.099 40.717 33.761
O 46.743 41.184 28.097
O 49.387 46.449 23.492
O 45.648 52.248 27.755
O 40.098 53.051 26.619
O 41.847 39.375 30.151
O 38.443 43.813 32.62
O 47.028 45.182 25.768
O 50.148 46.313 31.866
O 53.613 47.024 33.713
O 46.129 57.247 32.393
O 49.132 54.37 36.61
O 49.153 52.077 26.007
O 39.247 47.14 34.961
O 48.047 50.59 35.994
O 40.338 50.895 27.642
O 41.935 47.489 35.878
O 44.806 43.652 32.61
O 46.084 44.182 40.467
O 48.298 43.553 28.503
O 48.454 60.024 37.289
O 46.627 52.684 24.989
O 42.65 40.602 34.256
O 52.253 49.144 35.857
O 46.208 40.407 33.329
O 43.431 54.516 38.25
O 38.084 50.946 24.48
O 52.876 52.59 28.746
O 48.858 46.918 28.19
O 47.215 54.53 39.914
O 46.74 54.581 27.217
O 47.77 49.6 26.866
O 52.559 49.22 28.088
O 42.973 49.986 33.639
O 42.271 46.033 28.182
O 52.591 52.933 32.31
O 46.348 51.833 31.199
O 35.725 48.453 33.013
O 47.9 47.945 25.418
O 41.843 53.022 34.695
O 38.956 49.056 28.378
O 36.483 51.152 35.074
O 45.127 59.031 38.776
O 44.126 45.483 23.225
O 51.804 48.349 33.324
H 38.792 48.246 28.876
H 39.143 49.712 29.062
H 41.15 53.047 34.023
H 35.114 45.976 31.453
H 36.352 45.204 31.034
H 37.55 44.88 27.896
H 50.568 56.014 38.786
H 37.947 49.704 33.977
H 39.427 50.044 33.974
H 36.229 47.811 33.528
H 35.104 47.908 32.513
H 44.658 40.253 35.747
H 41.722 52.163 35.118
H 51.777 51.145 33.489
H 50.373 50.713 33.879
H 52.64 49.912 28.756
H 44.395 50.602 25.565
H 44.211 52.029 26.053
H 41.865 45.587 28.936
H 41.872 46.912 28.194
H 51.686 52.916 31.975
H 53.099 52.483 31.624
H 43.141 50.784 34.155
H 43.441 50.145 32.81
H 44.026 49.252 27.262
H 44.518 49.966 28.509
H 41.946 54.743 24.561
H 45.595 54.123 23.064
H 41.503 44.186 27.267
H 48.272 48.931 27.349
H 46.929 49.641 27.338
H 51.33 49.833 31.204
H 51.625 51.195 30.602
H 46.345 42.774 36.374
H 43.45 54.072 32.251
H 45.915 49.214 34.7
H 42.234 53.207 31.971
H 45.49 50.214 33.639
H 40.627 45.882 25.548
H 42.022 46.462 25.703
H 47.158 55.091 26.512
H 47.462 54.049 27.574
H 44.206 46.609 38.076
H 43.471 54.553 34.484
H 44.172 55.9 34.478
H 45.694 46.632 37.771
H 45.181 52.905 33.346
H 45.892 54.185 32.94
H 47.284 44.243 34.593
H 47.0 43.21 33.517
H 41.815 54.677 30.39
H 42.686 55.798 29.85
H 45.809 55.929 29.748
H 46.826 55.191 30.601
H 44.837 59.828 32.121
H 46.297 59.453 32.307
H 39.747 56.148 39.11
H 41.26 56.066 39.016
H 38.41 51.108 25.374
H 47.736 45.464 31.719
H 38.769 47.408 35.757
H 46.405 44.749 31.569
H 47.59 54.415 34.97
H 46.692 53.277 35.423
H 45.621 41.857 37.343
H 44.201 51.511 30.088
H 44.008 51.868 31.552
H 43.773 58.237 34.915
H 37.214 51.628 30.496
H 45.09 58.034 34.185
H 39.533 55.687 29.088
H 40.941 55.62 28.522
H 41.758 46.071 38.864
H 42.969 45.348 39.428
H 50.528 47.547 34.998
H 49.212 46.859 34.682
H 39.152 47.897 34.371
H 47.557 52.831 33.426
H 49.01 52.39 33.416
H 45.204 47.131 34.858
H 44.993 45.627 34.845
H 50.287 43.511 31.541
H 51.717 43.896 31.206
H 47.607 57.156 40.645
H 42.104 53.933 27.715
H 43.254 54.898 27.486
H 40.728 57.313 33.652
H 52.555 45.927 31.089
H 42.851 40.006 33.524
H 43.073 41.431 34.0
H 37.532 43.206 30.359
H 38.722 55.731 34.339
H 37.932 55.877 35.628
H 42.046 49.363 25.647
H 42.225 50.861 25.816
H 39.46 53.211 29.567
H 44.403 42.766 27.152
H 42.414 56.625 36.483
H 42.009 55.17 36.325
H 45.014 43.04 31.893
H 44.538 43.074 33.335
H 42.361 41.65 37.594
H 45.138 43.571 26.094
H 40.204 53.212 36.315
H 40.143 54.429 35.408
H 40.903 47.07 31.405
H 41.992 47.256 30.363
H 50.985 55.7 35.311
H 44.719 54.05 30.095
H 43.684 53.44 29.165
H 47.943 40.065 29.57
H 44.521 43.712 29.147
H 44.499 42.212 29.385
H 49.428 52.561 25.218
H 49.639 51.245 25.946
H 45.332 48.37 40.446
H 44.185 48.349 39.45
H 40.574 41.721 35.834
H 42.712 48.795 28.966
H 41.261 49.143 29.248
H 41.967 43.302 33.416
H 39.101 43.692 31.924
H 38.05 44.671 32.418
H 42.759 41.648 31.801
H 41.511 41.387 30.976
H 43.388 57.548 28.627
H 44.327 58.717 28.384
H 45.092 56.417 25.406
H 43.723 55.76 25.438
H 47.015 57.312 32.772
H 45.985 56.297 32.307
H 47.995 56.14 28.255
H 47.433 57.19 27.313
H 41.289 49.984 35.468
H 40.647 50.856 36.534
H 50.491 53.277 29.358
H 50.785 54.601 28.675
H 49.201 44.623 33.129
H 50.345 43.905 33.824
H 42.733 44.467 34.018
H 39.225 48.618 26.239
H 38.938 47.147 26.48
H 40.753 58.258 36.405
H 40.057 57.091 37.085
H 40.927 52.874 29.366
H 39.583 48.933 37.734
H 53.664 46.791 34.649
H 53.004 46.37 33.347
H 40.379 52.144 24.238
H 41.596 52.059 23.333
H 49.718 52.325 31.185
H 49.549 50.962 31.832
H 40.996 51.149 39.344
H 40.296 52.06 38.351
H 44.415 46.302 25.875
H 44.994 47.695 26.044
H 48.614 59.083 37.436
H 46.911 51.768 25.101
H 47.33 53.195 25.408
H 47.679 60.212 37.833
H 48.844 44.269 28.154
H 48.764 42.754 28.226
H 45.582 44.88 40.028
H 40.84 57.588 30.746
H 50.535 54.855 32.847
H 41.049 47.835 36.039
H 41.792 46.543 35.751
H 50.379 53.98 34.078
H 43.853 42.287 36.108
H 45.04 44.041 37.703
H 43.932 43.127 38.195
H 51.576 49.466 35.249
H 52.97 48.864 35.275
H 43.706 43.789 35.935
H 47.494 51.871 39.896
H 48.536 52.391 38.921
H 48.721 56.157 31.944
H 48.452 54.663 31.989
H 39.088 45.462 30.616
H 38.814 46.078 29.256
H 49.386 46.896 31.974
H 50.014 45.92 30.994
H 40.581 40.135 33.16
H 39.691 41.366 33.174
H 43.838 46.062 30.279
H 43.104 50.045 23.062
H 44.196 51.055 22.754
H 46.605 42.136 28.021
H 47.455 41.005 27.47
H 44.533 46.048 31.63
H 46.424 51.79 27.409
H 45.839 52.344 28.696
H 40.813 53.337 26.036
H 39.334 52.992 26.033
H 36.929 51.651 34.378
H 45.734 58.568 38.186
H 47.12 56.892 38.516
H 45.99 55.892 38.693
H 44.485 59.432 38.177
H 46.669 46.07 29.324
H 46.541 44.558 29.38
H 46.243 58.371 30.251
H 47.538 57.601 30.065
H 44.984 45.769 23.564
H 43.498 45.832 23.87
H 50.981 48.114 32.878
H 52.423 48.501 32.599
H 41.243 44.502 36.738
H 42.414 55.966 33.156
H 41.198 55.213 32.645
H 37.431 54.322 32.197
H 37.618 53.942 33.655
H 40.173 50.819 26.693
H 41.155 51.406 27.693
H 41.867 45.079 31.196
H 43.002 44.074 31.285
H 37.913 52.106 27.46
H 37.536 50.636 27.522
H 48.591 54.439 29.524
H 47.55 53.341 29.656
H 48.746 55.252 36.686
H 49.016 53.993 37.491
H 47.368 49.932 36.188
H 47.853 51.308 36.61
H 42.06 51.432 30.587
H 42.026 50.01 31.12
H 45.83 41.287 33.447
H 36.688 49.689 29.596
H 36.648 49.112 31.001
H 50.638 59.48 36.671
H 48.822 46.358 28.975
H 48.088 46.643 27.677
H 46.184 41.467 30.895
H 47.172 42.603 30.695
H 47.109 55.279 24.321
H 52.107 52.079 28.464
H 47.173 47.468 25.837
H 48.688 47.476 25.723
H 46.015 52.735 31.29
H 46.391 51.511 32.108
H 46.869 54.091 40.701
H 48.17 54.41 39.984
H 38.538 51.621 36.509
H 38.182 50.2 36.107
H 39.471 55.637 31.293
H 38.835 56.732 32.131
H 46.897 49.637 29.538
H 47.823 49.939 30.703
H 53.13 51.332 35.302
H 52.026 52.374 35.303
H 42.647 54.285 38.764
H 43.509 55.471 38.366
H 44.456 52.035 38.25
H 44.765 53.072 39.316
H 50.252 50.801 37.439
H 49.947 51.977 36.528
H 46.03 61.192 34.875
H 42.982 48.102 32.137
H 42.252 47.607 33.373
H 39.076 45.038 34.334
H 39.977 43.824 34.197
H 41.849 48.299 38.888
H 42.788 48.825 37.817
H 49.172 51.166 28.627
H 49.445 49.795 29.22
H 43.898 56.461 31.578
H 44.254 57.898 31.239
H 37.937 53.472 37.536
H 37.605 53.575 36.058
H 45.669 53.765 37.434
H 45.086 55.048 36.869
H 39.5 52.294 32.779
H 38.087 51.806 32.513
H 41.12 39.175 29.548
H 51.45 47.744 30.522
H 42.596 39.532 29.563
H 50.468 47.849 29.369
H 47.921 45.427 25.495
H 47.163 44.402 26.321
H 43.392 60.348 35.645
H 38.647 50.012 31.184
H 39.782 49.003 31.163
H 42.917 59.302 36.639
H 49.037 49.627 24.564
H 48.41 48.755 32.888
H 48.244 48.985 34.38
H 49.054 44.705 37.419
H 49.595 44.943 36.021
H 47.851 49.776 23.626
H 45.723 49.277 31.369
H 46.085 47.803 31.397
H 38.322 47.216 32.434
H 37.703 47.12 31.05
