819
xyz format
Cl 39.106 49.969 60.184
Cl 31.247 50.946 48.398
Na 35.918 45.033 51.34
Na 35.533 36.977 44.303
Na 36.045 52.744 54.029
O 34.03 51.908 48.431
O 32.484 39.866 55.898
O 30.247 50.397 57.83
O 37.458 38.603 54.247
O 40.864 56.219 58.793
O 33.547 55.93 43.381
O 41.908 39.813 54.857
O 34.624 42.468 47.144
O 39.645 51.124 52.771
O 38.806 41.967 52.515
O 31.718 50.328 50.467
O 30.885 47.152 58.49
O 33.544 49.568 62.046
O 42.228 51.872 52.946
O 30.798 55.98 50.701
O 36.137 54.707 47.034
O 32.848 56.56 52.79
O 32.229 48.197 51.93
O 31.491 59.184 57.652
O 45.343 58.568 57.018
O 39.083 52.778 54.927
O 36.801 54.519 43.989
O 26.166 52.854 46.693
O 25.545 57.242 53.404
O 30.128 53.045 49.088
O 35.998 54.064 51.222
O 38.11 53.8 52.342
O 29.555 46.662 46.322
O 35.84 42.538 57.24
O 37.77 49.323 42.741
O 34.909 40.162 40.192
O 26.051 54.568 53.65
O 38.685 57.888 54.719
O 36.685 59.221 51.626
O 29.172 50.2 48.425
O 33.462 42.924 54.583
O 39.93 54.031 60.539
O 29.263 57.353 47.75
O 27.97 51.193 54.054
O 36.242 36.632 49.531
O 45.201 45.167 57.601
O 39.375 60.307 55.966
O 32.809 39.934 49.526
O 43.014 57.352 50.28
O 33.267 49.089 41.3
O 42.303 51.756 47.762
O 40.166 45.084 54.475
O 36.115 47.947 57.122
O 37.603 39.466 51.337
O 40.484 46.959 63.032
O 29.977 50.025 55.681
O 38.696 57.437 57.182
O 33.794 56.833 46.106
O 37.775 60.29 59.145
O 34.983 47.227 55.413
O 43.308 37.862 53.827
O 33.548 46.777 43.633
O 37.008 46.736 44.303
O 29.781 43.309 53.897
O 39.834 55.328 46.991
O 32.254 53.515 45.469
O 39.64 39.576 56.348
O 42.458 57.269 53.963
O 31.879 55.375 48.019
O 34.737 41.613 60.558
O 42.547 54.312 57.931
O 43.801 59.878 48.48
O 35.795 40.644 50.88
O 33.429 56.825 48.595
O 32.823 52.029 52.37
O 29.856 46.113 56.703
O 38.688 48.38 45.352
O 39.724 51.06 46.718
O 30.114 49.385 53.351
O 32.252 49.193 47.517
O 37.448 52.083 65.074
O 36.91 40.031 58.631
O 36.817 37.38 51.675
O 31.308 41.03 53.868
O 37.155 38.97 40.989
O 33.878 56.475 59.72
O 27.815 49.028 59.144
O 31.547 56.696 55.17
O 42.424 48.02 61.262
O 46.216 56.588 52.637
O 28.487 47.652 53.572
O 33.453 54.701 51.781
O 37.778 52.699 61.682
O 42.588 50.596 60.018
O 33.645 39.909 52.16
O 36.04 57.475 57.67
O 33.386 46.348 50.318
O 43.288 60.914 51.7
O 29.931 55.761 44.616
O 35.803 57.681 53.654
O 36.678 46.875 40.602
O 38.784 44.157 50.705
O 29.647 42.765 50.736
O 32.256 46.71 56.603
O 35.473 47.645 62.085
O 36.313 55.225 62.82
O 34.184 48.452 59.501
O 35.825 45.508 61.706
O 32.081 47.191 54.461
O 35.934 45.985 42.469
O 43.783 41.766 57.34
O 42.331 51.399 63.601
O 31.602 42.544 45.783
O 39.199 39.015 43.964
O 36.399 47.621 52.922
O 34.587 38.378 54.556
O 41.643 43.515 61.298
O 39.372 47.593 53.489
O 33.308 41.152 41.522
O 39.298 50.135 64.821
O 38.772 59.287 62.177
O 32.843 62.11 56.765
O 28.001 55.325 50.766
O 37.791 47.788 64.487
O 33.708 43.194 58.924
O 27.758 47.873 57.275
O 39.99 39.534 51.904
O 40.673 37.651 44.885
O 44.357 38.187 51.577
O 30.816 47.124 43.877
O 34.353 42.37 49.495
O 34.092 44.254 44.32
O 39.839 44.713 60.639
O 26.647 49.718 47.157
O 31.815 57.263 45.075
O 40.293 57.193 52.427
O 39.605 58.243 60.413
O 34.687 59.579 60.557
O 41.462 60.503 49.131
O 29.118 46.178 59.329
O 36.973 43.195 62.621
O 42.88 56.545 56.125
O 41.098 59.129 57.18
O 36.032 56.502 49.186
O 27.725 46.583 48.447
O 38.01 56.638 51.62
O 40.838 40.131 41.614
O 36.959 55.005 57.413
O 33.894 43.538 40.384
O 25.714 49.599 55.099
O 33.56 58.405 51.13
O 38.604 51.744 41.346
O 38.568 53.967 50.198
O 36.566 48.865 45.684
O 44.112 57.961 52.243
O 35.002 50.37 53.825
O 33.74 53.775 62.964
O 39.528 47.063 40.557
O 45.496 40.102 58.895
O 34.865 50.637 46.801
O 39.239 49.041 51.133
O 32.846 50.038 56.493
O 42.262 60.957 56.794
O 36.904 54.586 41.793
O 40.983 49.07 48.041
O 38.094 50.989 49.754
O 31.257 44.358 51.092
O 40.461 51.484 50.229
O 26.397 50.49 49.722
O 34.066 53.885 49.408
O 26.615 54.378 57.226
O 38.04 44.595 39.198
O 35.034 50.578 40.027
O 34.119 50.603 65.335
O 36.277 45.16 58.973
O 29.503 53.396 43.912
O 40.225 56.434 62.301
O 29.309 49.506 45.239
O 30.982 59.397 51.281
O 45.512 56.47 48.907
O 34.394 52.84 46.177
O 27.948 43.245 48.572
O 37.205 51.46 46.884
O 36.101 39.456 43.033
O 30.955 54.379 56.495
O 34.107 60.949 58.473
O 28.495 54.48 53.532
O 40.517 45.963 51.754
O 45.96 40.537 54.742
O 30.996 43.925 48.06
O 45.91 45.331 62.631
O 35.656 53.484 58.677
O 36.171 58.634 61.883
O 39.52 41.949 40.861
O 37.91 49.795 57.98
O 39.422 54.221 45.107
O 36.446 54.914 54.061
O 36.941 52.18 56.464
O 42.049 57.107 45.768
O 35.709 42.973 52.475
O 42.267 41.582 63.243
O 33.973 58.652 63.702
O 27.037 51.918 43.553
O 29.399 52.358 46.08
O 31.515 45.151 53.129
O 35.791 57.384 44.901
O 38.559 49.318 40.297
O 30.695 53.439 53.104
O 38.189 41.608 43.127
O 47.311 44.784 59.723
O 34.463 48.203 38.824
O 37.175 44.512 56.397
O 35.203 50.261 44.664
O 34.023 53.09 43.91
O 47.13 38.15 52.712
O 34.279 58.0 56.305
O 35.492 58.963 47.841
O 41.558 54.762 51.557
O 35.19 41.251 55.002
O 44.277 43.052 60.919
O 35.964 42.155 43.105
O 30.592 46.561 48.669
O 46.363 47.688 49.017
O 37.94 49.073 67.089
O 37.411 49.635 61.542
O 39.733 52.288 62.804
O 41.005 43.105 47.516
O 32.52 45.173 45.866
O 41.164 55.004 53.881
O 35.976 50.126 56.944
O 37.669 56.619 40.494
O 40.52 56.216 56.62
O 26.679 52.413 55.351
O 40.748 49.866 63.123
O 38.213 45.197 46.694
O 38.171 43.125 54.991
O 31.733 59.795 54.694
O 26.254 53.848 50.583
O 36.632 47.66 50.624
O 37.526 45.597 52.84
O 40.443 52.733 48.418
O 38.862 54.0 40.963
O 33.772 47.17 47.384
O 30.721 49.255 42.815
O 31.383 42.308 56.561
O 41.915 43.483 39.942
O 35.656 48.968 42.243
O 28.997 45.557 52.378
O 33.372 60.588 52.768
O 38.803 56.633 44.769
O 38.043 57.227 62.013
O 45.53 42.914 54.845
O 30.204 48.041 61.625
O 36.908 47.584 47.915
O 46.244 37.977 55.297
O 38.712 52.742 57.567
O 29.809 57.686 52.617
O 37.263 50.647 53.136
O 41.481 52.655 56.237
O 30.92 51.039 60.645
O 28.119 58.058 51.151
O 33.494 44.757 56.3
O 38.747 46.415 48.462
O 36.398 50.531 63.789
O 32.384 41.162 47.373
O 40.689 60.948 52.072
O 34.262 46.965 52.847
O 35.371 50.464 60.959
O 37.87 56.507 47.514
O 44.177 41.072 53.102
O 32.8 48.774 45.137
O 42.752 44.261 52.878
O 32.19 51.182 42.566
O 33.689 45.502 38.67
O 33.05 46.901 62.086
O 40.71 45.32 41.849
O 37.492 54.612 60.328
O 36.74 60.665 55.989
O 43.377 43.717 58.569
O 38.523 46.114 42.817
O 26.018 45.269 48.0
O 35.062 50.156 51.212
O 37.765 49.304 54.806
O 33.943 44.592 49.112
O 37.774 43.969 44.9
O 40.618 48.928 58.161
O 28.73 51.543 51.349
O 28.403 39.977 49.484
O 32.35 53.405 61.08
O 27.274 56.449 55.15
O 48.851 49.071 45.41
O 31.732 42.196 51.333
O 42.06 44.904 57.285
N 47.582 49.311 51.473
N 47.255 47.449 45.656
N 47.749 49.355 48.296
N 47.151 45.013 48.815
C 48.957 45.954 50.29
C 44.622 43.983 46.852
C 45.26 44.81 45.927
C 48.16 48.371 50.547
C 48.154 46.94 51.113
C 46.527 44.474 45.431
C 46.467 52.748 44.96
C 45.238 42.808 47.286
C 47.799 48.687 45.956
C 47.138 43.291 45.869
C 46.353 51.272 45.295
C 47.358 48.43 49.217
C 47.997 46.502 44.861
C 48.149 44.729 49.876
C 47.076 49.542 47.028
C 48.205 50.485 51.84
C 47.085 51.016 46.603
C 46.498 42.464 46.792
C 44.896 50.866 45.352
C 46.223 53.463 53.307
C 47.172 45.301 44.376
H 44.024 42.132 60.772
H 45.103 43.143 60.428
H 37.544 45.37 56.153
H 37.584 44.321 57.251
H 40.055 48.731 51.544
H 39.253 48.632 50.259
H 46.615 38.773 53.24
H 35.943 50.747 44.28
H 34.426 50.687 44.28
H 36.003 42.399 44.038
H 35.896 43.002 42.648
H 46.634 44.163 48.564
H 35.706 41.815 54.412
H 34.861 40.552 54.423
H 31.498 46.231 48.628
H 30.071 45.776 48.881
H 34.931 53.129 43.585
H 33.49 53.268 43.125
H 32.695 40.39 58.473
H 46.43 44.647 59.353
H 32.291 44.825 53.602
H 38.848 51.921 42.263
H 30.898 45.384 53.834
H 36.12 52.629 56.226
H 37.64 51.705 41.368
H 47.62 45.375 47.967
H 37.133 51.629 55.694
H 38.003 54.412 59.534
H 36.734 55.108 59.993
H 30.335 52.209 46.263
H 28.948 51.757 46.686
H 37.253 55.153 54.533
H 35.792 54.81 54.764
H 34.85 43.391 52.336
H 42.386 54.555 52.01
H 41.371 53.965 51.047
H 35.941 59.571 48.441
H 40.08 48.255 58.596
H 41.103 49.338 58.888
H 35.045 58.346 48.433
H 34.222 58.802 56.839
H 33.928 57.313 56.884
H 42.573 56.542 46.35
H 41.572 57.683 46.378
H 36.027 42.8 51.581
H 33.249 46.317 61.343
H 32.44 47.549 61.71
H 34.721 49.736 50.412
H 39.907 46.938 39.678
H 40.031 47.803 40.92
H 28.316 43.886 49.193
H 35.332 52.755 46.392
H 34.124 53.641 46.644
H 30.041 49.453 45.866
H 29.304 50.434 44.971
H 31.593 59.294 52.022
H 45.417 57.425 49.012
H 44.606 56.163 48.773
H 31.561 59.566 50.528
H 38.266 49.035 57.503
H 38.099 50.541 57.398
H 34.253 53.092 62.515
H 38.719 41.813 40.338
H 39.548 42.905 40.992
H 45.019 40.807 52.711
H 43.528 40.527 52.641
H 35.825 57.749 61.713
H 39.763 53.414 44.703
H 38.743 53.903 45.716
H 33.967 50.691 46.451
H 34.847 49.85 47.359
H 33.829 54.491 48.694
H 34.362 47.513 52.059
H 33.562 46.345 52.608
H 33.219 53.519 49.69
H 34.97 51.213 61.417
H 35.802 50.867 60.195
H 31.496 53.928 55.834
H 30.228 54.75 55.98
H 45.637 40.85 58.301
H 37.678 51.003 47.592
H 37.512 52.372 46.955
H 36.187 39.043 43.901
H 35.35 40.053 43.136
H 35.606 50.88 50.877
H 35.604 45.583 59.521
H 36.952 44.888 59.608
H 44.122 58.893 51.99
H 44.404 57.97 53.163
H 32.783 41.632 48.116
H 31.439 41.185 47.569
H 34.623 51.159 53.418
H 35.356 50.691 54.664
H 26.395 49.146 47.893
H 33.113 53.67 60.55
H 39.358 43.904 60.851
H 40.098 44.59 59.717
H 26.965 50.52 47.59
H 39.666 38.844 52.496
H 46.373 45.688 43.682
H 40.334 40.208 52.503
H 31.605 56.699 45.83
H 40.145 58.063 52.036
H 40.361 56.607 51.663
H 31.635 53.961 60.745
H 40.071 58.592 59.643
H 38.684 58.209 60.128
H 46.49 45.733 49.144
H 44.101 38.287 50.652
H 30.68 57.406 52.927
H 29.313 57.834 53.432
H 44.715 42.134 47.983
H 32.973 49.305 57.108
H 32.698 50.798 57.069
H 44.74 45.706 45.551
H 38.918 57.525 44.417
H 38.751 56.08 43.98
H 43.611 44.238 47.21
H 45.045 38.854 51.698
H 46.97 41.517 47.098
H 41.165 51.824 55.86
H 42.43 52.639 56.063
H 48.118 42.997 45.462
H 40.875 53.387 48.981
H 40.031 53.264 47.725
H 30.621 45.073 50.97
H 31.79 44.386 50.287
H 38.366 50.997 50.681
H 37.723 51.87 49.617
H 31.253 43.262 56.625
H 32.07 42.126 57.214
H 28.245 46.072 52.061
H 28.604 44.939 53.007
H 40.394 50.799 49.551
H 33.936 43.348 44.025
H 34.805 44.562 43.748
H 41.413 51.595 50.349
H 35.195 42.772 49.247
H 34.193 42.704 50.387
H 26.803 51.363 49.655
H 36.354 54.959 41.093
H 36.685 53.646 41.78
H 26.291 50.359 50.672
H 38.871 54.372 40.072
H 41.139 48.517 47.266
H 40.024 49.176 48.059
H 39.259 53.371 50.512
H 35.973 50.796 39.986
H 30.619 52.512 53.364
H 30.101 53.514 52.347
H 46.003 49.2 47.141
H 46.609 51.625 47.418
H 48.577 49.893 48.452
H 37.751 49.496 39.8
H 39.244 49.774 39.792
H 47.86 44.657 43.762
H 29.713 45.435 59.166
H 36.135 43.381 62.18
H 37.597 43.09 61.892
H 30.772 59.786 54.785
H 31.921 59.004 54.174
H 38.163 42.44 42.638
H 37.725 40.989 42.55
H 33.817 58.675 50.24
H 36.375 55.472 56.802
H 37.454 55.713 57.843
H 46.863 50.678 44.484
H 36.172 56.566 45.245
H 36.558 57.881 44.591
H 44.793 49.761 45.467
H 48.15 51.357 46.487
H 37.329 43.305 54.555
H 38.829 43.35 54.322
H 34.579 43.721 41.039
H 47.539 53.054 44.901
H 44.378 51.365 46.206
H 44.382 51.166 44.406
H 28.513 46.157 58.577
H 32.827 57.794 50.982
H 41.254 49.545 62.366
H 41.226 49.514 63.884
H 39.943 39.851 41.387
H 28.47 47.187 48.338
H 38.015 57.433 52.167
H 38.375 56.936 50.778
H 38.878 54.239 49.325
H 40.479 59.616 57.739
H 41.561 58.553 57.801
H 38.1 49.088 61.937
H 42.125 60.65 49.817
H 34.231 59.196 59.797
H 35.314 60.197 60.16
H 45.319 52.89 53.627
H 45.964 53.365 45.744
H 37.568 50.51 61.918
H 36.566 57.216 49.556
H 36.083 55.808 49.856
H 31.937 45.279 46.629
H 36.011 48.132 45.979
H 45.981 52.96 43.978
H 36.863 49.273 46.506
H 48.342 47.059 43.932
H 33.385 45.005 46.26
H 42.498 57.431 56.156
H 43.628 56.596 56.734
H 41.386 42.999 60.524
H 42.007 44.326 60.922
H 36.328 48.213 48.361
H 36.547 46.724 48.165
H 33.798 41.816 42.023
H 32.995 43.844 58.953
H 34.51 43.731 58.954
H 27.349 47.255 56.656
H 28.022 48.615 56.717
H 44.908 43.624 55.046
H 39.944 48.344 53.693
H 39.282 47.136 54.334
H 46.152 42.939 55.583
H 42.444 51.441 60.462
H 43.089 50.834 59.228
H 37.662 50.033 52.507
H 36.804 51.284 52.575
H 33.305 60.795 51.827
H 38.415 50.12 65.21
H 33.345 61.452 53.196
H 37.711 56.548 61.413
H 37.732 56.938 62.88
H 39.885 50.056 65.583
H 31.763 51.255 61.062
H 30.962 50.082 60.525
H 35.176 45.493 62.42
H 36.655 45.713 62.155
H 38.415 48.306 63.963
H 37.039 48.383 64.6
H 38.828 53.699 57.606
H 38.133 52.55 58.315
H 31.465 47.934 54.47
H 32.929 47.593 54.684
H 44.494 42.189 56.842
H 43.04 41.768 56.725
H 35.176 46.504 42.173
H 35.947 45.232 41.865
H 34.526 46.575 47.292
H 36.098 48.538 52.913
H 37.237 47.66 53.401
H 34.836 38.32 55.487
H 35.354 38.023 54.09
H 33.969 47.886 46.767
H 27.664 55.654 51.609
H 28.608 56.018 50.476
H 42.129 52.192 63.088
H 42.9 50.885 63.013
H 32.528 42.808 45.852
H 27.677 58.605 51.812
H 27.996 58.549 50.329
H 29.659 42.28 49.901
H 29.035 42.26 51.285
H 40.306 43.731 47.29
H 40.539 42.266 47.618
H 33.187 46.908 56.767
H 31.836 47.579 56.588
H 39.557 44.299 50.144
H 36.273 47.394 39.895
H 37.444 46.469 40.178
H 38.215 44.911 50.507
H 30.601 56.925 50.707
H 30.488 55.676 51.563
H 41.656 52.63 52.774
H 42.731 52.136 53.726
H 35.472 55.266 47.455
H 36.415 54.11 47.739
H 32.687 40.521 50.282
H 33.485 39.313 49.824
H 39.064 45.216 46.24
H 31.072 49.863 51.014
H 32.567 50.082 50.855
H 38.193 44.325 47.108
H 31.355 46.868 59.284
H 30.417 47.947 58.773
H 28.129 48.462 53.956
H 29.286 47.487 54.087
H 35.831 50.638 57.749
H 35.085 49.892 56.657
H 36.84 52.571 61.492
H 38.211 52.492 60.845
H 34.244 39.272 52.57
H 33.274 40.39 52.91
H 36.382 58.188 58.224
H 35.6 56.889 58.297
H 33.536 47.094 49.723
H 32.467 46.457 50.593
H 32.63 54.894 51.315
H 34.117 55.202 51.29
H 40.33 55.489 53.83
H 36.935 54.568 62.484
H 35.712 55.372 62.079
H 40.058 55.421 56.914
H 40.095 56.43 55.779
H 27.259 53.169 55.504
H 26.016 52.488 56.049
H 41.209 54.723 54.803
H 39.499 51.489 62.316
H 34.306 49.18 58.879
H 34.027 47.688 58.932
H 39.952 51.961 63.686
H 35.786 58.569 54.032
H 35.948 57.109 54.418
H 34.856 47.953 62.761
H 36.339 47.873 62.444
H 37.426 39.846 40.688
H 37.912 38.41 40.776
H 42.159 48.042 60.334
H 31.805 41.479 54.562
H 31.911 56.412 56.018
H 30.613 56.848 55.361
H 28.247 48.241 59.498
H 28.384 49.752 59.434
H 32.155 54.341 45.958
H 31.484 53.501 44.886
H 29.676 51.4 51.477
H 28.36 50.652 51.365
H 29.444 46.8 56.165
H 30.198 45.487 56.053
H 31.043 40.197 54.278
H 33.149 55.999 60.135
H 34.18 57.08 60.409
H 36.19 37.018 52.314
H 37.643 37.435 52.171
H 27.701 56.614 54.3
H 37.257 40.697 59.238
H 36.107 39.719 59.069
H 27.911 56.781 55.795
H 38.17 52.241 65.694
H 31.497 48.593 47.463
H 32.735 48.884 48.294
H 32.119 42.614 52.112
H 31.17 41.503 51.7
H 38.842 47.977 46.215
H 39.529 48.807 45.145
H 40.367 50.501 46.264
H 30.347 50.32 53.297
H 29.616 49.225 52.54
H 39.347 51.597 46.009
H 41.341 44.26 57.259
H 42.349 44.961 56.366
H 32.618 57.281 48.853
H 33.839 56.592 49.437
H 39.211 38.641 43.074
H 38.346 39.465 44.013
H 44.073 48.918 63.377
H 41.707 54.201 58.393
H 42.289 54.643 57.062
H 35.355 41.646 59.817
H 31.129 55.958 47.847
H 31.733 55.074 48.924
H 43.184 60.036 47.754
H 44.416 59.227 48.119
H 36.083 40.909 49.998
H 35.449 39.752 50.751
H 42.181 57.907 53.293
H 42.713 56.493 53.448
H 33.205 45.976 43.217
H 33.945 46.458 44.453
H 37.62 46.484 45.005
H 36.154 46.412 44.615
H 39.273 40.351 55.904
H 35.128 48.58 42.952
H 35.235 49.822 42.084
H 32.788 52.766 52.993
H 32.386 51.309 52.842
H 30.073 43.576 54.777
H 29.567 42.373 54.0
H 42.472 37.388 53.734
H 43.927 37.181 54.119
H 40.419 55.745 46.347
H 40.021 55.801 47.811
H 33.201 50.367 62.467
H 30.47 46.917 46.494
H 35.339 40.502 40.986
H 37.878 50.175 43.182
H 37.559 48.716 43.462
H 36.395 42.325 58.001
H 36.4 42.328 56.482
H 38.937 58.316 56.863
H 39.014 57.43 58.093
H 33.774 55.872 46.184
H 34.508 57.097 46.7
H 39.561 53.435 55.449
H 39.158 51.971 55.452
H 33.515 43.922 56.783
H 32.69 44.695 55.769
H 30.875 53.096 48.479
H 36.444 53.262 50.922
H 35.897 53.928 52.173
H 36.667 54.355 44.931
H 37.657 54.112 43.805
H 25.833 54.781 54.566
H 25.67 53.69 53.522
H 38.956 58.362 53.923
H 38.244 57.1 54.377
H 29.367 52.925 48.506
H 37.928 40.373 51.272
H 37.557 39.172 50.419
H 38.122 46.88 42.387
H 38.07 45.362 42.417
H 45.412 44.405 57.047
H 44.759 45.775 56.996
H 38.888 61.13 56.094
H 39.854 60.451 55.14
H 40.797 61.56 51.333
H 40.119 60.256 51.714
H 40.451 47.46 63.857
H 29.099 50.414 55.776
H 29.797 49.094 55.5
H 37.657 60.541 60.07
H 38.196 61.064 58.75
H 35.203 48.062 54.98
H 35.235 46.559 54.763
H 37.796 56.088 46.647
H 35.99 53.102 59.499
H 35.028 54.154 58.974
H 37.837 55.765 48.13
H 34.194 43.554 54.589
H 33.568 42.457 53.745
H 32.606 49.713 45.027
H 33.673 48.672 44.737
H 29.052 55.22 53.26
H 28.95 54.123 54.305
H 39.613 46.269 51.606
H 41.014 46.779 51.895
H 46.882 40.823 54.719
H 45.742 40.543 55.683
H 30.058 43.837 47.85
H 31.192 43.132 48.575
H 33.723 61.786 58.762
H 34.669 61.199 57.728
H 28.536 51.852 53.635
H 27.407 50.882 53.334
H 32.481 51.351 43.471
H 32.977 51.359 42.036
H 38.511 46.777 49.325
H 39.547 45.904 48.638
H 38.33 52.865 52.441
H 35.764 59.128 51.899
H 36.653 59.111 50.668
H 35.9 51.346 63.646
H 35.932 49.88 63.25
H 38.881 54.256 52.7
H 28.597 50.209 49.2
H 29.206 49.268 48.175
H 39.677 54.028 61.471
H 29.339 56.964 48.63
H 29.119 58.291 47.926
H 42.502 43.745 52.101
H 43.674 44.02 53.027
H 33.314 49.683 61.116
H 32.666 55.886 53.458
H 33.076 57.341 53.309
H 26.977 53.523 50.032
H 43.554 44.337 59.288
H 42.992 42.952 59.015
H 29.616 51.118 57.944
H 30.986 50.647 58.398
H 38.569 41.421 53.276
H 38.049 42.557 52.412
H 38.264 45.43 53.439
H 35.773 47.343 50.316
H 36.749 45.525 53.409
H 37.057 46.867 50.973
H 30.901 58.516 57.281
H 31.708 59.743 56.896
H 32.564 48.625 52.728
H 31.552 47.593 52.261
H 36.591 59.928 56.595
H 33.226 44.868 48.527
H 34.741 44.842 48.631
H 37.299 44.178 44.086
H 38.015 43.041 44.793
H 42.504 50.942 47.283
H 42.767 52.437 47.26
H 38.512 49.69 55.279
H 37.184 48.992 55.511
H 33.879 48.44 40.931
H 43.334 57.919 49.567
H 42.094 57.181 50.043
H 36.273 48.147 58.053
H 36.41 47.032 57.03
H 41.017 45.015 54.024
H 40.383 44.911 55.4
H 34.706 51.801 49.111
H 33.457 51.141 48.554
H 34.102 55.289 43.842
H 41.95 39.658 53.905
H 42.62 40.444 55.019
H 34.616 43.202 46.516
H 34.381 41.704 46.606
H 40.083 55.86 59.234
H 39.952 45.044 41.319
H 41.459 45.215 41.249
H 40.449 50.625 52.579
H 39.393 50.821 53.652
