117
xyz format
Cl 39.106 49.969 60.184
O 31.491 59.184 57.652
O 39.93 54.031 60.539
O 39.375 60.307 55.966
O 38.696 57.437 57.182
O 37.775 60.29 59.145
O 33.878 56.475 59.72
O 31.547 56.696 55.17
O 37.778 52.699 61.682
O 31.427 60.912 59.062
O 36.04 57.475 57.67
O 36.313 55.225 62.82
O 32.843 62.11 56.765
O 32.129 64.169 59.621
O 34.687 59.579 60.557
O 36.959 55.005 57.413
O 35.314 65.152 59.461
O 33.74 53.775 62.964
O 37.019 62.904 56.579
O 34.107 60.949 58.473
O 35.656 53.484 58.677
O 36.171 58.634 61.883
O 34.377 62.425 61.472
O 36.382 62.745 59.865
O 36.446 54.914 54.061
O 36.941 52.18 56.464
O 34.831 63.241 53.989
O 34.279 58.0 56.305
O 39.733 52.288 62.804
O 30.114 62.254 55.04
O 31.733 59.795 54.694
O 38.043 57.227 62.013
O 38.712 52.742 57.567
O 37.492 54.612 60.328
O 36.74 60.665 55.989
O 32.35 53.405 61.08
H 32.675 63.613 53.753
H 34.804 62.462 54.558
H 34.685 63.975 54.599
H 36.12 52.629 56.226
H 38.003 54.412 59.534
H 36.734 55.108 59.993
H 37.253 55.153 54.533
H 35.792 54.81 54.764
H 37.165 63.032 59.378
H 35.791 62.417 59.176
H 34.222 58.802 56.839
H 33.928 57.313 56.884
H 33.975 61.552 61.382
H 34.188 62.854 60.628
H 34.253 53.092 62.515
H 35.825 57.749 61.713
H 36.752 58.801 61.131
H 34.97 51.213 61.417
H 35.802 50.867 60.195
H 36.339 63.389 57.065
H 37.611 62.584 57.271
H 33.113 53.67 60.55
H 31.635 53.961 60.745
H 40.071 58.592 59.643
H 38.684 58.209 60.128
H 31.706 63.5 60.173
H 37.394 62.019 61.679
H 30.772 59.786 54.785
H 31.921 59.004 54.174
H 36.375 55.472 56.802
H 37.454 55.713 57.843
H 34.861 64.574 58.835
H 34.231 59.196 59.797
H 35.314 60.197 60.16
H 37.568 50.51 61.918
H 33.281 61.758 55.981
H 32.153 62.682 56.405
H 33.345 61.452 53.196
H 37.711 56.548 61.413
H 37.732 56.938 62.88
H 38.828 53.699 57.606
H 38.133 52.55 58.315
H 35.831 50.638 57.749
H 36.84 52.571 61.492
H 38.211 52.492 60.845
H 36.382 58.188 58.224
H 35.6 56.889 58.297
H 36.935 54.568 62.484
H 35.712 55.372 62.079
H 40.058 55.421 56.914
H 30.001 62.64 55.917
H 39.499 51.489 62.316
H 30.398 63.0 54.496
H 35.786 58.569 54.032
H 35.948 57.109 54.418
H 31.148 61.79 58.776
H 29.286 61.008 57.661
H 31.902 61.078 59.885
H 31.911 56.412 56.018
H 30.613 56.848 55.361
H 33.149 55.999 60.135
H 34.18 57.08 60.409
H 35.864 56.289 64.692
H 35.864 53.546 64.169
H 38.937 58.316 56.863
H 39.014 57.43 58.093
H 38.888 61.13 56.094
H 37.657 60.541 60.07
H 38.196 61.064 58.75
H 31.529 65.022 54.994
H 35.99 53.102 59.499
H 35.028 54.154 58.974
H 33.723 61.786 58.762
H 34.669 61.199 57.728
H 39.677 54.028 61.471
H 40.867 53.801 60.555
H 30.901 58.516 57.281
H 31.708 59.743 56.896
H 36.591 59.928 56.595
H 35.864 61.058 55.887
H 40.083 55.86 59.234
