346
xyz format
Cl 47.816 30.708 60.247
O 61.102 36.683 55.334
O 63.38 32.816 56.995
O 60.137 24.217 52.632
O 62.767 29.328 54.957
O 63.448 36.398 59.761
O 60.196 35.981 57.618
O 64.14 35.152 56.3
O 57.743 30.466 65.999
O 58.247 35.569 61.606
O 47.946 32.282 56.353
O 53.19 36.105 58.391
O 50.558 26.197 60.281
O 52.727 30.364 56.437
O 47.845 28.102 61.283
O 50.454 25.739 52.124
O 62.639 28.236 52.425
O 62.098 31.907 51.568
O 62.904 31.666 54.133
O 51.802 36.488 56.136
O 54.066 29.649 51.982
O 56.165 27.563 59.504
O 49.908 34.975 58.2
O 57.624 35.185 56.593
O 51.709 23.13 55.892
O 52.099 25.274 58.968
O 53.936 29.521 54.794
O 51.408 38.624 57.022
O 50.286 29.566 63.09
O 55.002 31.796 55.372
O 53.795 28.205 57.145
O 56.513 29.937 53.846
O 54.953 32.002 51.887
O 60.705 26.403 60.437
O 60.551 33.734 49.626
O 60.829 28.336 57.964
O 51.061 31.956 54.321
O 63.755 33.909 52.547
O 49.581 27.309 55.104
O 63.183 34.26 59.274
O 58.67 28.235 55.142
O 55.782 32.223 65.02
O 53.977 28.683 59.902
O 66.119 29.495 53.873
O 60.977 37.685 58.77
O 55.794 25.778 50.403
O 57.171 27.537 63.006
O 60.142 29.779 62.808
O 66.274 30.527 58.281
O 56.097 28.534 65.701
O 58.683 30.544 58.511
O 56.747 40.431 57.061
O 56.685 35.957 49.083
O 60.895 35.423 60.618
O 54.134 23.479 57.417
O 53.981 39.841 56.11
O 60.918 28.971 65.293
O 59.092 34.199 59.255
O 52.827 32.964 57.245
O 57.952 31.834 54.264
O 59.234 28.691 48.974
O 48.257 27.486 58.081
O 51.875 28.909 52.896
O 62.748 38.229 57.524
O 56.144 35.509 52.173
O 51.853 26.252 55.552
O 47.945 31.018 63.198
O 58.739 38.574 54.443
O 56.86 30.496 57.245
O 56.956 30.53 51.335
O 58.887 27.167 58.899
O 63.146 26.079 54.305
O 50.431 32.206 56.932
O 60.027 29.357 52.167
O 54.205 25.838 61.621
O 60.809 30.629 56.69
O 48.118 33.442 58.998
O 55.46 34.327 55.566
O 48.973 30.032 54.848
O 56.327 38.29 51.963
O 49.115 29.342 52.206
O 59.266 36.379 51.227
O 53.015 37.777 52.292
O 59.054 26.879 52.516
O 60.38 26.866 56.319
O 55.908 23.656 56.092
O 56.491 24.947 58.055
O 56.768 37.691 59.228
O 56.932 33.895 50.321
O 53.99 33.576 63.828
O 57.726 23.294 53.087
O 55.198 29.287 61.777
O 52.397 26.998 63.252
O 55.6 28.51 49.681
O 53.958 38.329 59.97
O 59.477 32.586 51.539
O 64.577 30.162 51.188
O 50.973 27.435 57.634
O 54.483 37.411 49.577
O 57.708 34.175 53.621
O 49.64 29.997 58.461
O 59.258 32.547 63.306
O 55.297 24.187 60.209
O 53.953 30.128 64.256
O 60.293 33.608 56.385
O 55.251 26.093 64.669
O 57.039 30.149 60.749
O 55.195 26.889 52.277
O 52.751 26.909 50.263
O 55.573 31.175 47.996
O 54.926 38.322 54.83
O 59.013 39.325 57.048
O 59.597 30.668 50.29
O 48.268 24.82 57.904
O 52.912 30.404 61.352
O 56.672 34.39 62.816
O 55.178 36.925 57.186
O 54.099 35.935 53.144
O 52.092 33.938 60.397
O 50.354 29.0 50.421
O 55.535 32.102 58.886
O 57.242 30.701 62.901
O 56.712 36.168 54.569
O 55.253 32.071 61.658
O 62.579 30.466 49.483
H 52.229 26.425 54.68
H 52.438 26.731 56.153
H 55.686 22.736 55.902
H 56.133 24.021 55.227
H 56.1 38.345 59.467
H 57.025 37.942 58.332
H 51.47 34.373 60.993
H 57.0 31.636 62.922
H 57.371 30.477 63.831
H 57.055 25.177 57.307
H 55.597 25.1 57.724
H 52.714 33.502 60.993
H 55.845 32.865 58.383
H 54.633 31.97 58.569
H 50.552 29.928 50.597
H 58.99 36.77 52.064
H 60.12 35.978 51.432
H 62.42 26.103 54.942
H 48.55 29.733 51.527
H 49.02 28.392 52.065
H 63.878 25.701 54.807
H 52.551 38.331 51.652
H 52.309 37.266 52.707
H 51.9 29.349 53.754
H 51.964 27.973 53.115
H 49.718 29.823 54.27
H 48.284 30.321 54.237
H 59.555 28.983 52.921
H 60.694 29.925 52.572
H 55.957 35.847 51.288
H 56.984 35.924 52.404
H 56.155 38.031 51.049
H 55.81 39.098 52.074
H 47.342 27.605 58.366
H 48.611 26.842 58.708
H 59.432 39.224 54.615
H 59.463 38.471 57.069
H 60.925 30.897 57.61
H 61.699 30.685 56.321
H 56.597 35.234 63.278
H 52.904 30.585 60.403
H 52.039 30.027 61.52
H 56.227 34.55 61.974
H 58.09 38.741 55.137
H 56.093 31.973 48.154
H 50.305 32.227 57.889
H 50.508 31.265 56.732
H 55.28 27.767 51.883
H 55.034 27.071 53.211
H 54.07 26.722 61.257
H 54.855 25.974 62.321
H 50.592 27.822 58.433
H 50.419 26.663 57.467
H 59.342 30.368 59.195
H 58.577 31.504 58.538
H 54.758 24.838 59.741
H 54.981 23.341 59.867
H 52.986 26.258 63.446
H 52.154 26.86 62.328
H 55.409 28.58 65.025
H 56.918 28.551 65.193
H 53.264 30.211 63.584
H 54.671 30.676 63.917
H 57.575 30.651 56.614
H 56.61 29.577 57.087
H 57.637 29.862 51.186
H 56.763 30.863 50.45
H 58.387 27.502 59.654
H 58.611 26.244 58.833
H 48.721 29.702 58.431
H 49.782 30.212 59.391
H 54.273 36.637 50.114
H 60.008 26.177 55.753
H 60.82 27.46 55.698
H 58.743 28.365 49.739
H 60.158 28.594 49.237
H 60.017 32.267 62.779
H 53.142 38.071 60.416
H 53.652 38.812 59.192
H 58.564 27.059 51.704
H 58.378 26.564 53.128
H 52.626 33.425 56.421
H 52.2 33.338 57.876
H 58.939 35.152 59.222
H 59.682 34.036 58.508
H 60.332 28.713 66.016
H 61.251 29.835 65.565
H 61.142 34.778 61.292
H 60.454 36.12 61.119
H 58.698 33.012 62.671
H 53.903 39.054 56.662
H 55.955 35.762 48.482
H 56.737 39.515 56.757
H 57.412 36.192 48.493
H 58.456 31.958 55.077
H 57.036 31.958 54.54
H 53.419 23.354 58.054
H 53.8 24.17 56.831
H 56.346 26.086 49.673
H 55.001 25.444 49.966
H 65.585 31.166 58.058
H 57.322 28.484 62.899
H 56.245 27.481 63.272
H 60.341 33.801 55.441
H 60.048 32.675 56.416
H 60.216 30.254 63.645
H 60.145 28.85 63.071
H 48.958 26.974 54.447
H 50.311 27.654 54.574
H 60.048 37.666 59.032
H 61.431 37.246 59.5
H 62.659 34.351 58.469
H 58.24 27.47 55.545
H 58.045 28.955 55.293
H 54.013 33.419 62.875
H 54.784 34.099 63.993
H 57.73 34.436 50.28
H 56.703 33.753 49.394
H 58.905 33.112 52.112
H 59.791 31.879 52.116
H 63.466 34.666 55.807
H 64.202 35.994 55.833
H 59.769 35.717 56.793
H 61.07 35.574 57.564
H 49.409 29.231 63.317
H 63.53 33.361 59.221
H 64.389 33.46 51.975
H 64.269 34.124 53.336
H 54.409 28.934 62.207
H 55.636 28.504 61.421
H 55.505 32.014 65.921
H 56.576 32.757 65.142
H 65.349 29.176 53.387
H 66.857 29.313 53.278
H 55.721 28.518 48.723
H 56.493 28.385 50.024
H 54.331 29.329 59.278
H 53.492 28.065 59.341
H 51.532 31.255 54.789
H 51.633 32.726 54.426
H 60.964 26.769 59.582
H 60.398 27.173 60.932
H 60.062 32.924 49.433
H 59.86 34.4 49.73
H 61.53 28.672 57.391
H 60.043 28.813 57.669
H 54.505 28.742 56.771
H 54.212 27.348 57.296
H 55.266 30.976 55.807
H 54.564 32.296 56.072
H 57.289 29.652 53.348
H 56.095 29.108 54.112
H 55.435 31.979 52.722
H 55.523 32.522 51.307
H 56.759 33.997 53.647
H 57.935 34.339 54.545
H 55.695 32.639 61.015
H 54.878 31.363 61.12
H 52.085 26.787 50.951
H 53.584 26.932 50.751
H 48.384 33.01 56.811
H 48.027 32.516 55.42
H 55.998 26.252 65.26
H 54.513 25.933 65.27
H 49.973 26.864 60.66
H 50.792 25.642 61.036
H 53.938 28.707 54.276
H 53.997 30.217 54.128
H 52.303 25.259 58.024
H 52.515 26.087 59.28
H 52.324 36.437 55.326
H 52.0 35.658 56.588
H 58.053 34.34 56.773
H 57.607 35.621 57.455
H 54.164 38.089 54.285
H 55.62 38.51 54.185
H 51.577 23.678 56.676
H 53.424 30.676 57.028
H 52.2 29.777 56.994
H 47.972 28.522 60.423
H 55.254 34.72 56.423
H 56.198 33.734 55.757
H 60.412 30.714 49.774
H 58.901 30.765 49.628
H 48.713 25.265 57.172
H 62.027 28.409 51.698
H 63.51 28.323 52.018
H 57.461 29.333 60.452
H 56.515 30.426 59.987
H 53.329 35.15 58.404
H 52.653 36.269 59.176
H 61.852 32.648 52.136
H 50.4 26.051 53.036
H 62.115 32.293 50.683
H 58.055 31.377 66.057
H 57.744 30.165 66.916
H 59.881 24.904 52.005
H 60.361 23.465 52.07
H 54.405 36.738 56.639
H 54.83 37.484 57.891
H 54.366 35.146 53.633
H 53.692 35.581 52.344
H 64.737 30.839 51.856
H 57.665 36.007 60.973
H 58.309 34.666 61.273
H 62.845 32.628 54.099
H 61.991 31.375 54.013
H 50.497 35.722 58.368
H 50.188 34.652 57.334
H 53.311 29.605 51.382
H 54.808 29.861 51.402
H 55.809 26.72 59.196
H 56.469 27.993 58.695
H 57.53 36.641 54.768
H 56.09 36.498 55.229
H 60.784 36.135 54.606
H 62.015 36.395 55.456
H 63.642 32.358 56.187
H 62.857 32.159 57.472
H 62.981 28.725 55.679
H 63.628 29.658 54.671
