135
xyz format
O 64.961 57.25 42.373
O 60.258 62.351 44.827
O 62.669 64.641 48.644
O 63.295 61.531 47.233
O 62.338 57.138 48.277
O 63.151 60.448 44.556
O 56.88 62.65 46.852
O 61.142 53.905 45.971
O 59.636 59.017 43.739
O 60.166 63.13 48.356
O 66.396 54.325 47.205
O 65.881 55.703 44.679
O 61.709 60.919 41.897
O 61.429 55.038 49.535
O 68.359 53.757 45.048
O 63.49 55.359 47.456
O 62.006 60.388 51.019
O 61.442 63.842 40.095
O 60.669 56.231 44.009
O 64.234 61.409 40.625
O 63.563 64.117 45.351
O 59.147 61.043 41.328
O 65.279 59.385 41.949
O 65.579 62.947 47.108
O 57.98 62.374 44.277
O 66.467 60.627 44.161
O 59.155 59.939 46.995
O 58.982 56.631 48.513
O 61.57 60.496 48.121
O 59.263 57.36 45.539
O 66.093 59.887 46.896
O 63.249 59.123 47.069
O 61.363 59.047 39.451
O 59.512 62.897 39.624
O 64.323 61.316 50.204
O 61.639 60.701 38.026
O 67.743 57.848 43.522
O 65.786 57.431 48.191
O 63.018 55.393 43.819
O 63.256 52.89 42.31
O 62.679 58.307 44.734
O 69.412 55.868 48.363
O 63.082 62.891 42.486
H 62.807 58.007 43.825
H 61.742 58.535 44.771
H 56.439 61.089 45.182
H 63.691 55.651 44.461
H 63.53 55.069 43.067
H 62.318 61.369 38.182
H 62.342 58.862 46.866
H 63.779 58.392 46.729
H 59.31 56.52 49.414
H 60.791 60.857 48.563
H 58.074 56.936 48.635
H 62.228 60.444 48.825
H 60.478 59.42 39.545
H 61.903 59.587 40.041
H 64.473 60.546 50.767
H 64.681 63.297 47.061
H 61.227 56.57 43.297
H 59.789 56.198 43.614
H 58.271 61.505 43.971
H 58.469 62.989 43.716
H 63.079 64.818 44.897
H 65.513 62.234 47.755
H 64.199 63.813 44.692
H 65.102 59.13 41.035
H 65.854 60.156 41.864
H 65.763 61.184 43.807
H 66.606 60.972 45.052
H 58.197 60.875 41.302
H 59.241 61.723 42.006
H 64.143 52.951 42.687
H 62.731 52.501 43.02
H 65.311 57.809 48.942
H 66.507 58.054 48.039
H 63.867 60.984 41.411
H 63.532 62.007 40.339
H 56.436 59.469 42.804
H 57.469 58.799 41.916
H 61.634 63.67 41.025
H 61.707 63.026 39.652
H 62.456 58.249 51.244
H 62.146 61.339 51.104
H 57.022 62.73 41.134
H 64.278 54.917 47.116
H 63.149 55.84 46.691
H 57.555 56.096 41.881
H 60.754 62.956 47.609
H 59.292 62.901 48.017
H 60.202 53.476 43.045
H 61.359 54.412 42.745
H 69.717 55.183 47.754
H 63.676 62.41 43.076
H 69.087 56.565 47.78
H 67.569 53.342 44.681
H 68.109 54.685 45.14
H 62.501 63.372 43.088
H 61.003 55.303 48.71
H 62.279 54.681 49.25
H 61.075 60.197 41.986
H 61.297 61.508 41.253
H 68.247 57.277 44.115
H 67.241 58.414 44.121
H 66.321 56.539 44.879
H 66.389 55.348 43.939
H 66.12 53.904 46.382
H 66.861 55.119 46.911
H 61.437 54.354 46.773
H 58.999 62.131 39.336
H 58.896 63.388 40.183
H 59.191 61.5 49.941
H 60.237 58.534 43.159
H 59.279 59.712 43.172
H 65.307 59.801 47.45
H 66.771 60.2 47.508
H 58.818 59.533 47.803
H 59.075 60.886 47.163
H 60.067 57.447 46.066
H 58.662 56.871 46.115
H 56.642 61.805 47.254
H 63.841 60.121 43.965
H 62.477 60.788 43.954
H 62.781 57.003 49.124
H 61.537 57.624 48.512
H 59.887 62.816 45.587
H 61.017 61.881 45.193
H 58.05 62.847 37.254
H 65.42 56.448 42.095
H 64.853 57.134 43.326
H 68.374 53.404 47.611
H 58.101 64.612 46.287
H 63.835 61.172 46.518
H 62.547 61.934 46.774
H 62.563 63.746 48.99
