415
xyz format
Cl 31.247 50.946 48.398
Na 35.918 45.033 51.34
Na 37.083 30.36 63.863
Na 35.533 36.977 44.303
Na 36.045 52.744 54.029
O 32.484 39.866 55.898
O 32.884 35.448 43.982
O 37.458 38.603 54.247
O 34.624 42.468 47.144
O 38.806 41.967 52.515
O 31.718 50.328 50.467
O 28.95 36.009 59.347
O 30.368 38.434 58.002
O 30.314 34.677 60.446
O 32.229 48.197 51.93
O 35.84 42.538 57.24
O 38.584 33.255 44.327
O 33.462 42.924 54.583
O 32.703 37.109 58.739
O 36.242 36.632 49.531
O 33.466 28.099 53.863
O 34.633 35.421 54.0
O 32.809 39.934 49.526
O 40.166 45.084 54.475
O 36.115 47.947 57.122
O 37.603 39.466 51.337
O 35.382 34.223 58.415
O 34.495 31.565 59.76
O 39.486 34.653 58.813
O 28.291 36.537 56.804
O 34.983 47.227 55.413
O 37.205 34.002 50.022
O 29.781 43.309 53.897
O 26.565 39.48 61.241
O 35.795 40.644 50.88
O 29.856 46.113 56.703
O 32.252 49.193 47.517
O 25.214 40.246 50.134
O 34.114 35.713 46.515
O 36.817 37.38 51.675
O 29.547 31.1 45.338
O 31.308 41.03 53.868
O 29.915 38.172 61.749
O 37.56 35.072 53.085
O 31.457 32.241 62.707
O 26.827 38.754 48.106
O 33.645 39.909 52.16
O 33.386 46.348 50.318
O 38.784 44.157 50.705
O 29.647 42.765 50.736
O 38.103 30.039 55.727
O 25.713 41.786 60.598
O 32.256 46.71 56.603
O 32.081 47.191 54.461
O 22.627 41.651 50.167
O 36.399 47.621 52.922
O 34.587 38.378 54.556
O 39.372 47.593 53.489
O 34.491 30.77 46.735
O 33.708 43.194 58.924
O 39.99 39.534 51.904
O 33.023 29.487 44.649
O 39.361 30.466 53.336
O 34.368 33.378 45.237
O 34.353 42.37 49.495
O 32.374 37.163 51.355
O 36.116 32.709 54.784
O 31.158 37.572 45.994
O 33.464 31.615 55.099
O 28.158 36.581 61.319
O 37.52 35.164 45.707
O 33.097 33.851 52.257
O 38.552 36.003 47.437
O 35.002 50.37 53.825
O 39.239 49.041 51.133
O 27.874 33.464 47.384
O 35.294 34.979 60.513
O 28.559 39.59 60.319
O 37.159 30.547 46.724
O 29.986 41.428 58.399
O 30.351 31.204 49.225
O 38.094 50.989 49.754
O 31.257 44.358 51.092
O 39.147 33.436 51.778
O 29.853 39.773 46.989
O 30.588 35.023 63.795
O 31.661 28.49 49.029
O 30.169 36.239 49.156
O 37.61 34.905 56.095
O 34.204 35.282 49.475
O 27.948 43.245 48.572
O 33.268 38.49 45.026
O 28.663 34.746 54.875
O 40.517 45.963 51.754
O 30.996 43.925 48.06
O 32.216 30.69 52.555
O 28.056 40.158 54.292
O 36.704 32.63 52.673
O 26.206 38.955 54.038
O 35.709 42.973 52.475
O 31.515 45.151 53.129
O 31.072 33.585 50.361
O 30.345 37.97 52.972
O 37.175 44.512 56.397
O 35.203 50.261 44.664
O 32.819 40.019 59.355
O 32.979 35.87 60.593
O 35.19 41.251 55.002
O 36.324 31.597 57.694
O 26.32 37.055 60.013
O 30.592 46.561 48.669
O 31.743 32.566 46.89
O 41.005 43.105 47.516
O 32.52 45.173 45.866
O 27.734 41.323 57.598
O 31.288 34.605 56.578
O 38.213 45.197 46.694
O 38.171 43.125 54.991
O 36.632 47.66 50.624
O 37.526 45.597 52.84
O 35.058 36.646 57.021
O 28.559 37.394 64.127
O 38.327 32.878 54.35
O 33.772 47.17 47.384
O 35.27 29.077 56.845
O 32.627 38.001 53.376
O 31.383 42.308 56.561
O 28.997 45.557 52.378
O 36.908 47.584 47.915
O 37.263 50.647 53.136
O 32.41 38.728 47.709
O 28.732 36.286 46.575
O 33.494 44.757 56.3
O 38.747 46.415 48.462
O 23.374 40.105 52.492
O 32.384 41.162 47.373
O 34.262 46.965 52.847
O 34.172 30.657 49.549
O 27.338 33.136 53.951
O 32.852 29.488 55.893
O 34.308 33.121 47.957
O 42.752 44.261 52.878
O 37.524 35.336 60.016
O 30.787 35.311 54.379
O 30.572 34.36 46.412
O 36.144 34.572 47.31
O 35.062 50.156 51.212
O 37.765 49.304 54.806
O 33.943 44.592 49.112
O 28.403 39.977 49.484
O 36.833 30.582 59.644
O 31.732 42.196 51.333
H 35.571 31.726 57.103
H 37.068 31.469 57.093
H 37.544 45.37 56.153
H 37.584 44.321 57.251
H 40.055 48.731 51.544
H 39.253 48.632 50.259
H 26.181 37.735 59.341
H 26.786 36.356 59.539
H 35.706 41.815 54.412
H 34.861 40.552 54.423
H 31.498 46.231 48.628
H 28.587 33.421 46.735
H 35.257 35.905 60.786
H 35.122 34.493 61.329
H 30.986 28.628 48.352
H 32.695 40.39 58.473
H 31.938 39.708 59.599
H 29.849 38.465 52.308
H 29.849 38.121 53.787
H 33.859 36.734 42.482
H 32.291 44.825 53.602
H 30.898 45.384 53.834
H 30.335 52.209 46.263
H 28.948 51.757 46.686
H 26.724 38.146 54.134
H 25.538 38.883 54.732
H 34.85 43.391 52.336
H 30.324 34.029 45.54
H 30.743 35.298 46.261
H 39.492 35.856 47.604
H 38.142 35.865 48.299
H 36.027 42.8 51.581
H 33.222 36.713 60.996
H 32.875 35.278 61.348
H 34.721 49.736 50.412
H 37.202 36.222 59.808
H 37.339 34.831 59.214
H 28.906 40.156 53.835
H 28.221 40.692 55.079
H 27.613 42.541 49.142
H 30.041 49.453 45.866
H 29.092 40.275 47.309
H 30.21 39.364 47.787
H 29.769 34.555 63.587
H 30.605 35.749 63.16
H 37.012 32.678 51.759
H 35.766 32.422 52.588
H 34.362 47.513 52.059
H 33.562 46.345 52.608
H 28.567 34.588 55.823
H 28.666 35.709 54.802
H 35.606 50.88 50.877
H 31.164 28.513 49.856
H 33.747 38.3 44.21
H 32.669 39.206 44.78
H 34.703 35.12 50.286
H 33.283 35.267 49.765
H 38.323 35.168 55.5
H 36.9 34.637 55.498
H 31.132 36.311 49.144
H 29.877 37.113 49.444
H 32.783 41.632 48.116
H 31.439 41.185 47.569
H 34.623 51.159 53.418
H 35.356 50.691 54.664
H 39.956 33.892 52.039
H 39.203 32.588 52.236
H 36.225 31.774 54.999
H 35.345 32.975 55.3
H 40.334 40.208 52.503
H 32.236 36.213 51.457
H 32.632 37.259 50.43
H 38.573 30.483 52.779
H 32.642 37.072 53.638
H 32.413 38.466 54.194
H 28.421 39.351 59.394
H 28.292 40.517 60.358
H 30.621 45.073 50.97
H 31.79 44.386 50.287
H 31.253 43.262 56.625
H 32.07 42.126 57.214
H 28.245 46.072 52.061
H 28.604 44.939 53.007
H 29.451 37.754 64.05
H 35.195 42.772 49.247
H 34.193 42.704 50.387
H 33.541 33.329 45.733
H 34.088 33.638 44.35
H 28.676 36.451 63.952
H 30.473 42.192 58.732
H 30.079 40.773 59.101
H 29.959 30.325 49.304
H 39.035 33.522 54.22
H 38.648 32.328 55.075
H 30.72 31.37 50.101
H 40.024 49.176 48.059
H 37.329 43.305 54.555
H 38.829 43.35 54.322
H 31.252 34.53 50.451
H 31.72 33.29 49.709
H 33.629 33.051 52.158
H 33.741 34.566 52.179
H 31.995 37.15 46.223
H 30.613 37.442 46.781
H 27.153 40.84 56.997
H 28.315 41.817 57.007
H 38.17 35.354 45.019
H 36.675 35.372 45.288
H 30.584 33.949 56.496
H 32.004 34.121 57.009
H 27.713 37.177 61.934
H 28.388 35.819 61.865
H 34.017 31.524 54.313
H 32.973 32.431 54.941
H 31.937 45.279 46.629
H 36.011 48.132 45.979
H 33.385 45.005 46.26
H 36.328 48.213 48.361
H 36.547 46.724 48.165
H 32.995 43.844 58.953
H 34.51 43.731 58.954
H 39.944 48.344 53.693
H 39.282 47.136 54.334
H 26.708 39.658 47.79
H 26.406 38.216 47.424
H 37.662 50.033 52.507
H 36.804 51.284 52.575
H 32.929 47.593 54.684
H 34.526 46.575 47.292
H 36.098 48.538 52.913
H 37.237 47.66 53.401
H 34.836 38.32 55.487
H 35.354 38.023 54.09
H 35.544 29.726 56.185
H 33.969 47.886 46.767
H 23.588 41.731 50.119
H 22.312 42.54 49.961
H 35.069 30.964 45.986
H 28.91 35.815 47.398
H 28.59 35.579 45.933
H 33.64 31.142 46.47
H 33.37 38.796 47.629
H 32.285 38.076 48.409
H 26.446 41.846 59.973
H 29.659 42.28 49.901
H 29.035 42.26 51.285
H 40.306 43.731 47.29
H 33.187 46.908 56.767
H 38.588 29.448 55.137
H 31.836 47.579 56.588
H 32.076 33.199 47.538
H 39.557 44.299 50.144
H 31.553 31.779 47.416
H 38.215 44.911 50.507
H 29.994 39.205 57.558
H 31.068 38.142 57.405
H 32.687 40.521 50.282
H 33.485 39.313 49.824
H 38.193 44.325 47.108
H 28.647 35.358 58.702
H 29.162 36.782 58.81
H 31.415 33.18 62.926
H 30.786 32.135 62.021
H 37.5 35.232 52.134
H 36.66 34.825 53.332
H 34.244 39.272 52.57
H 33.274 40.39 52.91
H 33.536 47.094 49.723
H 32.467 46.457 50.593
H 31.805 41.479 54.562
H 29.837 38.983 62.267
H 30.344 38.461 60.934
H 30.198 45.487 56.053
H 28.659 39.068 49.281
H 28.978 40.217 50.222
H 29.26 31.97 45.036
H 31.043 40.197 54.278
H 36.19 37.018 52.314
H 37.643 37.435 52.171
H 33.22 35.352 46.548
H 34.378 35.59 45.595
H 24.605 39.752 49.572
H 25.682 40.821 49.516
H 32.735 48.884 48.294
H 32.119 42.614 52.112
H 31.17 41.503 51.7
H 36.083 40.909 49.998
H 35.449 39.752 50.751
H 26.042 38.697 61.452
H 26.88 39.784 62.101
H 39.273 40.351 55.904
H 30.073 43.576 54.777
H 29.567 42.373 54.0
H 37.575 33.174 49.691
H 37.97 34.587 50.083
H 34.881 30.396 48.949
H 33.48 30.982 48.959
H 36.395 42.325 58.001
H 36.4 42.328 56.482
H 27.053 33.246 54.867
H 28.225 32.762 54.03
H 33.515 43.922 56.783
H 32.69 44.695 55.769
H 37.928 40.373 51.272
H 37.557 39.172 50.419
H 39.213 35.029 57.967
H 28.298 37.501 56.754
H 27.362 36.322 56.953
H 35.739 35.222 47.898
H 36.543 33.934 47.913
H 35.952 33.788 57.769
H 34.517 34.233 57.987
H 35.203 48.062 54.98
H 35.235 46.559 54.763
H 23.504 40.051 51.537
H 31.359 30.875 52.151
H 32.794 30.526 51.8
H 34.194 43.554 54.589
H 33.568 42.457 53.745
H 32.021 36.477 58.479
H 33.527 36.626 58.601
H 39.613 46.269 51.606
H 41.014 46.779 51.895
H 30.058 43.837 47.85
H 31.192 43.132 48.575
H 32.861 28.632 56.338
H 32.815 30.124 56.618
H 38.511 46.777 49.325
H 39.547 45.904 48.638
H 23.388 39.183 52.778
H 42.502 43.745 52.101
H 35.487 37.056 49.103
H 36.938 37.299 49.483
H 43.674 44.02 53.027
H 34.957 32.422 48.103
H 33.87 33.209 48.813
H 33.017 39.205 56.356
H 31.751 40.03 56.504
H 38.569 41.421 53.276
H 38.049 42.557 52.412
H 38.264 45.43 53.439
H 35.773 47.343 50.316
H 36.749 45.525 53.409
H 34.26 36.462 56.511
H 35.655 35.927 56.78
H 37.057 46.867 50.973
H 32.564 48.625 52.728
H 31.552 47.593 52.261
H 30.452 34.385 61.356
H 30.82 35.496 60.389
H 33.226 44.868 48.527
H 34.741 44.842 48.631
H 33.991 34.969 54.562
H 35.22 35.859 54.628
H 38.512 49.69 55.279
H 33.122 28.865 53.387
H 41.017 45.015 54.024
H 40.383 44.911 55.4
H 34.616 43.202 46.516
H 30.822 35.834 53.568
H 31.595 34.784 54.347
H 37.109 39.27 54.851
H 37.779 37.907 54.834
