105
xyz format
Cl 61.242 67.541 41.063
O 59.892 64.597 44.045
O 62.267 63.912 49.325
O 67.504 68.334 48.91
O 66.081 64.437 51.062
O 60.951 62.205 43.16
O 57.793 65.457 45.373
O 70.146 65.692 44.416
O 62.79 61.89 41.071
O 63.446 63.312 46.768
O 63.74 64.362 40.428
O 65.951 61.95 43.321
O 67.719 68.723 45.768
O 57.659 64.519 48.088
O 61.67 60.589 49.077
O 65.069 66.505 49.189
O 60.085 65.541 47.945
O 65.593 68.66 46.358
O 67.714 67.655 42.698
O 62.932 65.063 51.091
O 69.016 64.218 45.603
O 64.667 68.385 43.334
O 67.362 65.095 43.669
O 64.806 66.687 44.858
O 62.618 64.824 43.263
O 68.644 62.422 42.981
O 63.598 66.9 42.117
O 63.845 62.107 44.969
O 59.605 66.027 50.135
O 62.888 60.417 46.224
O 64.72 61.502 47.32
O 62.414 65.692 45.616
O 65.453 66.525 51.355
O 65.837 64.717 46.944
O 63.435 67.588 46.967
O 64.951 64.335 43.018
H 66.117 65.556 46.557
H 65.798 64.117 46.189
H 64.137 69.148 43.599
H 66.774 64.647 44.29
H 67.602 64.402 43.041
H 65.576 68.695 43.425
H 62.082 65.622 43.184
H 62.155 64.302 43.93
H 65.964 63.257 39.895
H 63.284 65.606 46.025
H 61.875 66.096 46.307
H 64.035 61.994 50.076
H 64.858 62.132 48.038
H 64.365 66.198 44.152
H 65.728 66.722 44.572
H 67.621 67.41 43.627
H 59.754 66.913 50.49
H 60.83 62.184 50.338
H 60.021 60.909 50.498
H 62.597 64.243 51.474
H 64.026 62.832 44.358
H 69.62 64.473 46.311
H 68.141 64.332 45.996
H 66.394 66.738 51.357
H 60.412 64.945 41.92
H 65.031 70.162 41.849
H 66.016 61.558 45.542
H 61.219 60.522 48.226
H 62.54 60.938 48.848
H 65.18 69.258 46.993
H 65.06 68.767 45.561
H 68.918 65.879 42.078
H 63.627 71.605 47.599
H 60.455 64.814 47.429
H 59.909 66.224 47.285
H 64.283 66.428 48.634
H 65.763 66.09 48.661
H 68.324 61.743 42.373
H 69.181 62.996 42.421
H 66.763 68.485 48.31
H 58.17 62.629 46.28
H 65.724 68.638 50.243
H 63.114 67.902 46.112
H 63.182 68.29 47.579
H 65.473 64.901 42.436
H 64.478 63.754 42.41
H 67.782 67.857 46.191
H 67.774 69.343 46.506
H 65.497 61.328 42.74
H 66.326 62.6 42.714
H 63.526 61.396 41.454
H 69.46 66.352 44.254
H 68.37 62.07 46.063
H 64.562 67.26 39.469
H 63.481 63.787 39.697
H 64.027 65.173 39.991
H 63.819 63.957 47.382
H 62.532 63.604 46.657
H 62.635 61.268 46.604
H 65.89 64.252 50.133
H 64.421 66.674 41.668
H 63.334 67.733 41.708
H 58.264 64.795 45.895
H 60.173 62.444 43.68
H 61.659 62.161 43.814
H 59.98 65.558 44.07
H 60.181 64.318 44.923
H 62.249 64.682 48.742
H 62.001 63.183 48.75
