310
xyz format
Na 46.336 56.344 34.969
O 48.637 63.626 27.633
O 48.262 50.179 24.401
O 44.251 57.008 30.865
O 34.331 51.095 28.381
O 43.167 63.664 30.895
O 40.343 65.535 28.373
O 47.057 60.214 27.955
O 49.36 58.68 25.953
O 38.108 54.297 27.379
O 37.534 56.033 29.941
O 49.496 57.744 28.383
O 49.594 50.321 28.425
O 43.128 47.633 32.968
O 38.829 49.07 31.297
O 38.916 52.01 32.064
O 47.015 56.218 24.12
O 43.266 61.36 31.959
O 40.307 48.273 23.517
O 36.757 48.855 30.077
O 51.38 53.206 23.962
O 41.465 50.784 30.986
O 38.092 51.296 27.954
O 41.971 55.703 32.339
O 38.091 53.985 32.814
O 47.059 58.37 29.734
O 49.874 57.374 30.519
O 48.387 53.642 30.03
O 43.681 50.692 23.486
O 48.247 55.485 32.451
O 45.616 58.072 22.814
O 51.96 57.512 23.057
O 39.563 62.225 31.07
O 42.253 57.387 25.26
O 40.502 58.425 30.405
O 49.702 57.878 23.027
O 42.652 54.309 27.015
O 38.927 54.71 24.712
O 38.278 56.39 34.887
O 42.196 50.038 26.32
O 51.35 55.173 22.684
O 40.227 57.338 34.477
O 35.277 59.994 30.358
O 44.903 46.984 25.397
O 44.429 56.073 26.017
O 42.041 49.464 28.779
O 33.687 53.546 30.518
O 43.851 58.259 29.088
O 41.24 62.051 28.177
O 51.25 56.499 26.035
O 48.498 54.113 21.474
O 41.344 52.15 24.261
O 45.759 60.767 25.944
O 41.784 54.903 23.623
O 39.495 59.998 27.26
O 45.506 59.699 32.804
O 48.706 59.716 30.628
O 32.397 53.663 28.188
O 45.524 62.925 28.119
O 35.683 51.386 26.597
O 41.037 47.328 30.485
O 44.469 54.002 29.164
O 40.068 52.462 29.522
O 45.106 43.419 27.047
O 40.437 55.974 29.266
O 44.15 58.19 34.028
O 44.267 51.138 30.976
O 36.886 51.982 29.661
O 41.266 46.155 26.218
O 35.44 54.642 28.067
O 53.069 59.277 25.674
O 39.134 55.815 32.179
O 47.394 50.357 29.947
O 46.539 55.3 29.686
O 42.724 55.002 30.394
O 42.843 53.455 32.678
O 43.822 55.229 35.077
O 45.371 53.799 33.656
O 44.749 49.803 27.586
O 39.988 57.619 27.493
O 44.893 51.368 25.879
O 47.192 56.643 28.071
O 38.848 47.839 25.813
O 49.239 55.616 23.884
O 43.197 60.591 29.351
O 45.152 54.968 22.919
O 33.038 56.375 30.754
O 49.387 46.449 23.492
O 45.648 52.248 27.755
O 40.098 53.051 26.619
O 35.059 57.15 28.243
O 47.028 45.182 25.768
O 46.129 57.247 32.393
O 49.153 52.077 26.007
O 35.275 54.96 31.084
O 40.338 50.895 27.642
O 49.451 60.881 26.037
O 46.627 52.684 24.989
O 43.399 62.901 25.854
O 38.084 50.946 24.48
O 48.858 46.918 28.19
O 39.422 58.85 32.292
O 46.74 54.581 27.217
O 47.77 49.6 26.866
O 42.973 49.986 33.639
O 42.271 46.033 28.182
O 46.348 51.833 31.199
O 47.9 47.945 25.418
O 51.981 58.893 29.032
O 38.956 49.056 28.378
O 36.132 57.776 33.006
O 42.38 58.904 26.848
O 44.126 45.483 23.225
H 38.792 48.246 28.876
H 39.143 49.712 29.062
H 32.141 54.501 27.784
H 33.219 53.433 27.738
H 46.171 62.228 27.957
H 49.558 54.738 24.128
H 49.736 56.208 24.461
H 44.395 50.602 25.565
H 44.211 52.029 26.053
H 41.872 46.912 28.194
H 39.138 57.662 27.947
H 40.625 57.873 28.172
H 43.141 50.784 34.155
H 43.441 50.145 32.81
H 44.026 49.252 27.262
H 44.518 49.966 28.509
H 42.513 60.266 29.951
H 43.138 61.551 29.435
H 42.256 54.185 23.183
H 41.946 54.743 24.561
H 44.762 54.875 22.041
H 45.595 54.123 23.064
H 48.272 48.931 27.349
H 46.929 49.641 27.338
H 40.697 62.613 27.609
H 40.671 61.877 28.937
H 43.45 54.072 32.251
H 42.234 53.207 31.971
H 40.287 60.022 27.812
H 38.83 60.449 27.794
H 42.022 46.462 25.703
H 47.158 55.091 26.512
H 47.462 54.049 27.574
H 41.815 54.677 30.39
H 42.686 55.798 29.85
H 45.809 55.929 29.748
H 46.826 55.191 30.601
H 44.837 59.828 32.121
H 46.297 59.453 32.307
H 34.966 54.698 27.228
H 35.317 53.725 28.34
H 48.285 60.189 29.899
H 49.543 60.183 30.751
H 37.815 50.019 24.498
H 38.41 51.108 25.374
H 44.201 51.511 30.088
H 44.008 51.868 31.552
H 43.773 58.237 34.915
H 37.214 51.628 30.496
H 36.002 52.304 29.88
H 39.533 55.687 29.088
H 40.941 55.62 28.522
H 49.269 60.976 25.093
H 49.815 61.739 26.287
H 42.104 53.933 27.715
H 43.254 54.898 27.486
H 40.728 57.313 33.652
H 51.979 55.457 22.009
H 51.821 55.32 23.514
H 35.26 59.762 29.421
H 38.722 55.731 34.339
H 37.932 55.877 35.628
H 42.046 49.363 25.647
H 42.225 50.861 25.816
H 39.01 54.873 23.764
H 39.46 53.211 29.567
H 39.769 55.017 25.072
H 35.009 51.063 25.986
H 36.228 51.967 26.052
H 40.903 47.07 31.405
H 41.992 47.256 30.363
H 44.719 54.05 30.095
H 43.684 53.44 29.165
H 49.428 52.561 25.218
H 49.639 51.245 25.946
H 42.712 48.795 28.966
H 41.261 49.143 29.248
H 43.388 57.548 28.627
H 44.327 58.717 28.384
H 49.146 54.697 21.887
H 47.772 54.089 22.11
H 33.616 52.858 29.845
H 45.092 56.417 25.406
H 43.723 55.76 25.438
H 47.015 57.312 32.772
H 45.985 56.297 32.307
H 47.995 56.14 28.255
H 47.433 57.19 27.313
H 39.225 48.618 26.239
H 38.938 47.147 26.48
H 46.309 60.648 25.16
H 44.858 60.701 25.605
H 48.498 46.796 23.639
H 51.812 55.815 26.419
H 40.927 52.874 29.366
H 51.737 56.783 25.251
H 40.379 52.144 24.238
H 41.596 52.059 23.333
H 44.415 46.302 25.875
H 44.994 47.695 26.044
H 41.646 56.983 24.627
H 42.913 57.817 24.701
H 49.006 58.533 22.892
H 49.858 57.522 22.143
H 46.911 51.768 25.101
H 47.33 53.195 25.408
H 43.843 62.601 25.051
H 43.006 62.096 26.214
H 39.584 58.228 30.182
H 40.84 57.588 30.746
H 45.65 58.069 23.779
H 44.87 57.494 22.61
H 40.114 62.96 30.772
H 48.721 56.157 31.944
H 48.452 54.663 31.989
H 50.058 57.37 27.694
H 49.453 58.683 28.159
H 37.333 55.72 29.05
H 37.838 56.939 29.803
H 43.104 50.045 23.062
H 44.196 51.055 22.754
H 46.424 51.79 27.409
H 45.839 52.344 28.696
H 40.813 53.337 26.036
H 39.334 52.992 26.033
H 36.929 51.651 34.378
H 50.371 58.184 30.353
H 50.553 56.687 30.536
H 36.921 57.769 32.449
H 46.243 58.371 30.251
H 47.538 57.601 30.065
H 41.719 59.3 26.266
H 42.427 59.517 27.592
H 44.984 45.769 23.564
H 43.498 45.832 23.87
H 42.414 55.966 33.156
H 41.198 55.213 32.645
H 37.431 54.322 32.197
H 37.618 53.942 33.655
H 40.173 50.819 26.693
H 41.155 51.406 27.693
H 37.913 52.106 27.46
H 37.536 50.636 27.522
H 35.772 54.471 30.416
H 35.877 55.667 31.346
H 48.591 54.439 29.524
H 47.55 53.341 29.656
H 52.533 57.703 22.304
H 51.897 58.359 23.517
H 42.06 51.432 30.587
H 42.026 50.01 31.12
H 36.688 49.689 29.596
H 50.628 52.948 23.414
H 52.133 53.147 23.361
H 48.822 46.358 28.975
H 48.088 46.643 27.677
H 47.109 55.279 24.321
H 47.533 56.652 24.81
H 47.173 47.468 25.837
H 48.688 47.476 25.723
H 39.694 48.928 23.872
H 42.439 61.713 31.606
H 43.108 61.313 32.91
H 46.015 52.735 31.29
H 46.391 51.511 32.108
H 40.296 59.232 32.442
H 38.817 59.525 32.626
H 39.471 55.637 31.293
H 38.835 56.732 32.131
H 46.897 49.637 29.538
H 47.823 49.939 30.703
H 49.172 51.166 28.627
H 49.445 49.795 29.22
H 35.851 56.79 27.825
H 35.227 57.038 29.187
H 43.898 56.461 31.578
H 44.254 57.898 31.239
H 38.89 54.823 27.17
H 37.377 54.828 27.039
H 49.121 58.268 25.113
H 50.307 58.846 25.865
H 39.5 52.294 32.779
H 38.087 51.806 32.513
H 47.921 45.427 25.495
H 47.163 44.402 26.321
H 38.647 50.012 31.184
H 39.782 49.003 31.163
H 49.037 49.627 24.564
H 34.958 50.362 28.405
H 40.729 64.652 28.435
H 47.851 49.776 23.626
H 48.311 62.723 27.738
H 32.178 56.106 31.099
H 42.364 63.905 31.373
H 42.919 63.762 29.967
H 47.409 59.36 27.676
H 46.127 60.03 28.137
