440
xyz format
Na 35.533 36.977 44.303
O 32.33 43.493 36.27
O 43.478 37.536 32.884
O 46.433 36.815 32.932
O 42.524 34.909 32.465
O 45.733 48.509 31.953
O 37.519 46.932 31.979
O 39.522 44.361 34.858
O 34.648 36.102 33.564
O 32.586 46.087 34.72
O 35.646 45.563 28.761
O 43.128 47.633 32.968
O 42.098 48.166 37.965
O 38.829 49.07 31.297
O 46.529 42.063 30.219
O 34.33 47.058 35.839
O 31.442 49.918 38.638
O 35.8 40.266 38.185
O 34.909 40.162 40.192
O 37.329 43.272 36.635
O 36.424 39.783 33.249
O 31.622 39.946 31.332
O 33.267 49.089 41.3
O 38.961 38.536 35.998
O 37.747 40.213 34.957
O 34.715 43.491 26.406
O 36.757 48.855 30.077
O 41.465 50.784 30.986
O 32.903 48.551 33.609
O 31.749 47.537 40.849
O 31.358 39.252 36.585
O 31.487 44.811 29.285
O 42.509 44.712 31.816
O 40.644 44.475 37.494
O 41.526 35.03 30.015
O 35.692 41.76 34.177
O 37.155 38.97 40.989
O 46.756 45.28 28.776
O 31.269 44.941 32.984
O 35.142 40.518 27.148
O 36.678 46.875 40.602
O 36.405 46.299 37.519
O 35.244 44.44 37.319
O 44.636 45.743 30.719
O 44.369 38.201 36.674
O 35.934 45.985 42.469
O 43.966 42.991 35.457
O 39.199 39.015 43.964
O 47.96 41.069 32.132
O 35.47 37.49 31.572
O 34.058 37.958 34.719
O 33.308 41.152 41.522
O 43.067 37.444 28.31
O 44.16 44.06 38.098
O 42.857 41.054 38.169
O 30.109 48.309 36.131
O 33.06 37.526 31.225
O 32.668 41.843 39.067
O 44.294 43.052 29.815
O 35.399 33.823 37.601
O 45.549 38.002 39.053
O 38.41 35.733 29.344
O 42.041 49.464 28.779
O 41.846 41.941 31.692
O 34.695 40.461 31.599
O 40.196 51.677 39.231
O 38.483 38.741 32.313
O 40.838 40.131 41.614
O 40.324 42.635 36.016
O 33.894 43.538 40.384
O 38.638 48.827 37.901
O 38.251 41.413 37.661
O 39.528 47.063 40.557
O 39.485 34.394 34.115
O 41.28 38.824 37.499
O 41.037 47.328 30.485
O 43.201 34.415 36.909
O 36.516 44.034 34.174
O 44.581 47.833 40.163
O 37.816 35.908 32.996
O 48.183 38.292 34.342
O 48.646 40.269 30.2
O 37.055 42.936 31.153
O 42.205 43.697 34.264
O 45.106 43.419 27.047
O 34.693 38.832 29.193
O 46.137 41.844 36.528
O 46.113 50.098 34.367
O 38.04 44.595 39.198
O 35.034 50.578 40.027
O 41.266 46.155 26.218
O 49.447 41.421 34.204
O 46.963 45.185 32.225
O 33.187 42.709 33.562
O 42.39 45.371 38.656
O 47.291 39.979 35.984
O 45.346 46.34 35.392
O 36.101 39.456 43.033
O 38.589 51.006 35.766
O 32.701 38.598 42.214
O 47.657 43.455 34.18
O 40.877 36.138 36.382
O 34.922 43.384 29.488
O 43.35 36.09 35.489
O 39.52 41.949 40.861
O 34.01 39.061 36.96
O 45.069 46.488 38.492
O 35.6 37.071 36.932
O 33.465 40.527 35.041
O 33.293 43.719 31.61
O 49.847 44.732 33.838
O 38.559 49.318 40.297
O 40.534 50.018 36.069
O 38.189 41.608 43.127
O 38.686 49.873 33.379
O 34.463 48.203 38.824
O 44.661 39.923 34.84
O 30.272 42.39 37.595
O 40.346 41.032 38.222
O 32.083 36.132 34.879
O 41.364 43.526 26.576
O 35.865 45.491 31.816
O 37.132 45.325 27.148
O 35.964 42.155 43.105
O 39.405 45.462 29.705
O 38.868 36.834 38.438
O 40.099 40.717 33.761
O 29.133 42.04 35.199
O 46.743 41.184 28.097
O 41.847 39.375 30.151
O 38.443 43.813 32.62
O 36.251 49.122 35.91
O 33.21 36.684 39.705
O 50.148 46.313 31.866
O 31.657 38.845 38.964
O 33.145 46.774 29.52
O 41.915 43.483 39.942
O 35.656 48.968 42.243
O 39.247 47.14 34.961
O 41.935 47.489 35.878
O 44.806 43.652 32.61
O 40.063 36.819 33.649
O 46.084 44.182 40.467
O 42.65 40.602 34.256
O 46.994 38.6 31.771
O 46.208 40.407 33.329
O 33.689 45.502 38.67
O 40.71 45.32 41.849
O 40.67 37.559 30.971
O 42.271 46.033 28.182
O 33.872 50.523 36.959
O 38.523 46.114 42.817
O 35.725 48.453 33.013
O 34.641 36.168 42.457
O 34.196 51.64 34.002
O 38.956 49.056 28.378
O 36.483 51.152 35.074
O 44.328 40.414 39.675
O 30.609 45.454 35.664
H 38.792 48.246 28.876
H 34.46 50.762 34.303
H 29.725 41.82 38.149
H 30.544 41.812 36.871
H 39.143 49.712 29.062
H 36.003 42.399 44.038
H 35.114 45.976 31.453
H 36.352 45.204 31.034
H 37.55 44.88 27.896
H 38.939 44.363 39.461
H 37.713 43.796 38.768
H 40.265 34.53 34.667
H 40.624 38.31 37.986
H 42.116 38.58 37.913
H 32.388 36.743 35.561
H 31.134 36.3 34.827
H 37.947 49.704 33.977
H 39.427 50.044 33.974
H 33.815 47.679 38.335
H 35.196 48.297 38.203
H 36.229 47.811 33.528
H 38.77 34.277 34.753
H 40.529 41.777 38.809
H 40.191 40.296 38.827
H 35.104 47.908 32.513
H 34.831 50.518 36.85
H 44.658 40.253 35.747
H 45.254 39.162 34.875
H 33.686 49.679 37.39
H 36.187 37.673 36.456
H 35.808 37.235 37.86
H 41.865 45.587 28.936
H 41.872 46.912 28.194
H 32.933 44.123 30.811
H 34.227 43.963 31.59
H 40.498 38.324 31.534
H 40.862 36.851 31.598
H 38.213 40.449 37.7
H 41.503 44.186 27.267
H 33.732 40.652 34.122
H 32.668 41.065 35.123
H 37.475 41.694 38.161
H 46.345 42.774 36.374
H 39.907 46.938 39.678
H 40.031 47.803 40.92
H 34.199 43.833 29.034
H 34.758 42.449 29.313
H 45.915 49.214 34.7
H 40.627 45.882 25.548
H 42.022 46.462 25.703
H 44.206 46.609 38.076
H 45.694 46.632 37.771
H 42.577 35.751 35.021
H 44.083 35.898 34.891
H 38.719 41.813 40.338
H 39.548 42.905 40.992
H 33.569 38.245 37.226
H 33.398 39.754 37.237
H 33.569 38.85 41.876
H 47.284 44.243 34.593
H 47.0 43.21 33.517
H 32.138 39.348 41.985
H 41.517 36.814 36.638
H 40.701 35.665 37.204
H 36.187 39.043 43.901
H 35.35 40.053 43.136
H 48.653 41.374 34.751
H 32.577 43.399 33.85
H 34.055 43.126 33.635
H 47.736 45.464 31.719
H 38.769 47.408 35.757
H 46.405 44.749 31.569
H 45.621 41.857 37.343
H 41.758 46.071 38.864
H 42.969 45.348 39.428
H 39.152 47.897 34.371
H 47.855 40.472 36.593
H 46.603 39.614 36.554
H 45.204 47.131 34.858
H 44.993 45.627 34.845
H 40.661 37.531 33.908
H 39.586 36.613 34.463
H 31.05 48.136 36.002
H 45.908 37.144 38.796
H 45.783 38.58 38.316
H 42.851 40.006 33.524
H 43.073 41.431 34.0
H 37.532 43.206 30.359
H 36.363 42.352 30.818
H 44.403 42.766 27.152
H 45.014 43.04 31.893
H 44.538 43.074 33.335
H 42.361 41.65 37.594
H 43.325 40.478 37.552
H 32.962 38.273 31.829
H 45.138 43.571 26.094
H 37.057 36.497 32.899
H 38.16 35.827 32.098
H 47.322 38.686 34.153
H 40.903 47.07 31.405
H 41.992 47.256 30.363
H 32.229 38.867 39.741
H 36.076 34.215 37.036
H 32.851 40.944 39.365
H 33.516 42.147 38.722
H 44.521 43.712 29.147
H 44.499 42.212 29.385
H 35.723 44.247 34.681
H 36.182 43.88 33.281
H 31.8 37.964 38.598
H 40.574 41.721 35.834
H 39.373 42.586 36.174
H 35.973 50.796 39.986
H 34.759 50.573 39.101
H 42.712 48.795 28.966
H 41.261 49.143 29.248
H 41.967 43.302 33.416
H 39.101 43.692 31.924
H 33.705 37.318 40.238
H 37.751 49.496 39.8
H 39.244 49.774 39.792
H 33.834 36.426 39.016
H 35.446 39.414 29.031
H 38.05 44.671 32.418
H 42.759 41.648 31.801
H 41.511 41.387 30.976
H 38.163 42.44 42.638
H 37.725 40.989 42.55
H 41.289 49.984 35.468
H 40.647 50.856 36.534
H 49.201 44.623 33.129
H 42.733 44.467 34.018
H 34.579 43.721 41.039
H 33.075 43.562 40.895
H 33.928 39.408 29.075
H 36.89 48.524 35.503
H 35.499 49.101 35.305
H 41.197 40.45 40.777
H 39.943 39.851 41.387
H 38.343 38.266 33.141
H 38.145 38.135 31.641
H 34.73 40.704 30.665
H 34.552 41.302 32.05
H 39.583 48.933 37.734
H 38.565 47.928 38.243
H 38.656 36.467 29.921
H 38.058 37.253 38.12
H 38.754 35.906 38.2
H 33.766 38.329 33.877
H 32.425 41.532 41.439
H 33.798 41.816 42.023
H 34.802 38.519 34.971
H 35.165 36.814 30.954
H 35.782 38.201 30.998
H 45.582 44.88 40.028
H 33.412 45.846 29.53
H 44.529 37.28 36.916
H 43.517 38.174 36.221
H 35.176 46.504 42.173
H 35.947 45.232 41.865
H 41.049 47.835 36.039
H 41.792 46.543 35.751
H 48.493 40.315 32.415
H 48.556 41.821 32.232
H 43.853 42.287 36.108
H 47.777 38.067 31.583
H 46.67 38.849 30.896
H 42.261 37.395 28.838
H 43.614 36.73 28.658
H 45.04 44.041 37.703
H 43.932 43.127 38.195
H 43.706 43.789 35.935
H 39.088 45.462 30.616
H 38.814 46.078 29.256
H 36.273 47.394 39.895
H 37.444 46.469 40.178
H 49.386 46.896 31.974
H 36.187 51.834 35.69
H 40.581 40.135 33.16
H 39.691 41.366 33.174
H 43.838 46.062 30.279
H 46.605 42.136 28.021
H 47.455 41.005 27.47
H 44.533 46.048 31.63
H 29.791 42.721 35.014
H 34.913 43.577 37.04
H 34.736 45.064 36.786
H 37.092 45.621 37.498
H 36.845 47.081 37.164
H 36.929 51.651 34.378
H 31.092 45.958 36.331
H 30.423 44.614 36.101
H 37.426 39.846 40.688
H 37.912 38.41 40.776
H 34.408 40.961 27.592
H 46.669 46.07 29.324
H 46.541 44.558 29.38
H 31.727 45.315 32.221
H 30.351 44.878 32.692
H 44.777 39.932 40.379
H 43.923 41.163 40.131
H 42.298 35.153 29.449
H 40.912 35.712 29.717
H 35.667 41.239 34.99
H 36.634 41.845 33.988
H 39.768 44.549 37.095
H 41.243 44.502 36.738
H 30.813 38.465 36.704
H 31.253 39.464 35.649
H 41.867 45.079 31.196
H 43.002 44.074 31.285
H 32.056 46.755 40.374
H 39.211 38.641 43.074
H 31.178 45.424 28.606
H 31.138 45.183 30.105
H 33.011 48.58 32.65
H 32.737 49.471 33.849
H 42.026 50.01 31.12
H 45.83 41.287 33.447
H 45.565 39.953 32.77
H 34.079 43.049 26.982
H 35.383 43.826 27.017
H 41.733 42.664 40.42
H 41.048 43.756 39.617
H 36.688 49.689 29.596
H 36.648 49.112 31.001
H 35.021 39.206 40.262
H 35.339 40.502 40.986
H 46.184 41.467 30.895
H 47.172 42.603 30.695
H 33.753 47.768 35.531
H 34.964 46.949 35.119
H 38.388 40.667 35.518
H 37.176 39.754 35.585
H 38.122 46.88 42.387
H 38.07 45.362 42.417
H 36.555 51.476 37.83
H 38.465 37.708 36.006
H 39.879 38.252 35.902
H 33.873 45.615 39.611
H 32.736 45.639 38.605
H 38.538 51.621 36.509
H 38.182 50.2 36.107
H 36.036 39.422 37.781
H 35.35 40.742 37.476
H 37.16 42.566 35.999
H 37.606 44.015 36.085
H 35.811 39.058 33.079
H 36.715 40.05 32.368
H 42.982 48.102 32.137
H 42.252 47.607 33.373
H 39.076 45.038 34.334
H 39.977 43.824 34.197
H 41.849 48.299 38.888
H 42.788 48.825 37.817
H 35.111 45.781 27.987
H 35.562 46.342 29.325
H 43.587 37.82 33.8
H 42.632 37.071 32.887
H 35.068 35.663 34.314
H 34.99 35.625 32.798
H 31.993 46.634 34.189
H 33.304 45.87 34.112
H 41.12 39.175 29.548
H 42.596 39.532 29.563
H 38.647 50.012 31.184
H 39.782 49.003 31.163
H 43.124 34.662 33.181
H 41.649 34.701 32.818
H 31.619 40.824 30.931
H 33.096 49.687 40.562
H 33.879 48.44 40.931
H 45.945 36.067 32.566
H 45.742 37.399 33.267
H 32.307 43.099 37.15
H 32.673 44.382 36.425
H 46.085 47.803 31.397
H 39.952 45.044 41.319
H 41.459 45.215 41.249
H 38.322 47.216 32.434
H 37.703 47.12 31.05
