42
xyz format
O 43.478 37.536 32.884
O 42.524 34.909 32.465
O 40.376 33.695 31.332
O 41.313 35.804 27.555
O 38.904 37.534 26.455
O 41.526 35.03 30.015
O 43.067 37.444 28.31
O 38.41 35.733 29.344
O 41.846 41.941 31.692
O 38.483 38.741 32.313
O 41.847 39.375 30.151
O 44.234 33.826 30.943
O 40.063 36.819 33.649
O 40.67 37.559 30.971
H 40.498 38.324 31.534
H 40.862 36.851 31.598
H 41.847 32.18 32.775
H 40.661 37.531 33.908
H 43.098 32.596 28.793
H 38.16 35.827 32.098
H 42.759 41.648 31.801
H 41.511 41.387 30.976
H 38.343 38.266 33.141
H 38.145 38.135 31.641
H 38.656 36.467 29.921
H 37.993 35.101 29.942
H 42.261 37.395 28.838
H 43.614 36.73 28.658
H 40.581 40.135 33.16
H 39.691 41.366 33.174
H 42.298 35.153 29.449
H 40.912 35.712 29.717
H 38.265 37.461 27.175
H 39.497 36.785 26.597
H 40.854 33.075 30.768
H 39.546 33.842 30.861
H 42.632 37.071 32.887
H 41.649 36.45 26.922
H 40.895 35.134 27.0
H 41.12 39.175 29.548
H 42.596 39.532 29.563
H 41.649 34.701 32.818
