269
xyz format
Na 47.489 37.29 62.212
O 41.517 38.638 48.602
O 44.313 31.574 52.484
O 41.417 32.357 57.638
O 41.908 39.813 54.857
O 50.817 40.569 51.66
O 47.417 45.262 53.914
O 48.262 32.311 52.325
O 47.782 37.364 66.119
O 52.158 39.247 55.029
O 47.946 32.282 56.353
O 41.967 35.9 58.181
O 53.19 36.105 58.391
O 45.137 32.146 55.159
O 54.276 40.381 53.43
O 45.201 45.167 57.601
O 51.802 36.488 56.136
O 40.595 39.112 59.971
O 49.908 34.975 58.2
O 42.071 34.804 48.565
O 39.486 34.653 58.813
O 51.408 38.624 57.022
O 43.308 37.862 53.827
O 39.64 39.576 56.348
O 47.316 35.252 55.793
O 49.815 36.065 55.292
O 50.233 42.399 59.323
O 50.47 40.888 56.059
O 50.982 37.216 62.935
O 53.087 40.794 50.971
O 43.859 36.695 49.147
O 44.026 34.047 50.12
O 43.783 41.766 57.34
O 38.841 33.212 60.586
O 41.565 31.817 54.306
O 50.461 40.554 64.247
O 54.379 42.676 54.149
O 43.337 37.651 56.205
O 44.357 38.187 51.577
O 56.461 40.54 54.051
O 56.747 40.431 57.061
O 53.981 39.841 56.11
O 49.299 37.749 52.394
O 44.171 35.509 60.377
O 43.991 33.441 61.356
O 47.968 41.509 59.92
O 52.827 32.964 57.245
O 53.432 41.067 61.428
O 52.072 42.394 57.726
O 56.144 35.509 52.173
O 45.496 40.102 58.895
O 51.472 40.468 59.169
O 52.748 42.888 50.036
O 49.128 39.582 53.633
O 50.431 32.206 56.932
O 46.049 33.798 50.949
O 48.118 33.442 58.998
O 49.193 35.31 61.363
O 55.46 34.327 55.566
O 45.96 40.537 54.742
O 56.327 38.29 51.963
O 53.015 37.777 52.292
O 42.649 37.545 64.368
O 48.289 35.566 64.494
O 44.021 30.799 56.917
O 47.13 38.15 52.712
O 56.768 37.691 59.228
O 42.12 39.148 62.0
O 44.969 37.1 62.414
O 53.612 39.21 48.135
O 45.207 35.375 56.94
O 53.958 38.329 59.97
O 44.737 35.929 65.741
O 45.865 40.33 61.551
O 48.643 38.698 57.426
O 54.483 37.411 49.577
O 50.762 35.421 65.634
O 41.801 34.548 56.395
O 45.196 38.262 66.439
O 45.53 42.914 54.845
O 46.244 37.977 55.297
O 41.886 32.097 51.535
O 44.495 36.267 46.086
O 47.722 42.596 57.509
O 54.926 38.322 54.83
O 44.481 39.194 63.317
O 44.177 41.072 53.102
O 43.622 35.211 53.103
O 37.524 35.336 60.016
O 45.502 35.93 50.495
O 47.348 39.235 63.286
O 49.787 33.289 62.008
O 55.178 36.925 57.186
O 54.099 35.935 53.144
O 56.712 36.168 54.569
O 47.192 36.49 59.657
O 50.201 38.684 61.455
O 42.502 38.243 59.304
H 56.1 38.345 59.467
H 46.615 38.773 53.24
H 46.681 37.307 52.849
H 54.087 39.864 48.662
H 52.735 39.184 48.539
H 47.891 44.3 59.121
H 47.872 35.259 65.308
H 48.046 34.895 63.844
H 42.595 39.779 61.443
H 45.245 36.179 62.327
H 44.616 37.317 61.542
H 52.551 38.331 51.652
H 52.309 37.266 52.707
H 51.384 43.011 57.447
H 52.887 42.798 57.405
H 44.827 35.805 51.174
H 46.055 36.637 50.849
H 37.339 34.831 59.214
H 48.284 30.321 54.237
H 55.957 35.847 51.288
H 56.984 35.924 52.404
H 45.019 40.807 52.711
H 43.528 40.527 52.641
H 55.81 39.098 52.074
H 45.359 39.357 58.297
H 47.844 32.516 58.998
H 48.968 33.429 59.455
H 45.637 40.85 58.301
H 50.305 32.227 57.889
H 50.508 31.265 56.732
H 48.915 40.467 53.956
H 48.591 39.001 54.185
H 45.995 33.882 51.909
H 46.62 33.032 50.817
H 49.672 44.386 61.25
H 40.334 40.208 52.503
H 45.513 38.357 55.799
H 47.027 38.244 55.795
H 52.137 43.801 55.389
H 51.593 42.329 61.416
H 44.101 38.287 50.652
H 43.561 38.249 56.929
H 42.431 37.896 55.978
H 45.045 38.854 51.698
H 45.942 39.231 69.182
H 51.05 39.992 59.895
H 52.007 41.137 59.615
H 56.976 40.622 54.864
H 54.273 36.637 50.114
H 51.241 45.097 58.725
H 54.008 38.129 50.014
H 48.034 42.636 65.776
H 53.507 43.174 50.56
H 53.14 42.61 49.199
H 45.05 35.113 60.411
H 44.181 36.018 59.556
H 48.426 38.737 58.366
H 49.195 37.15 51.644
H 50.128 38.208 52.208
H 48.289 39.524 57.074
H 53.646 40.315 60.862
H 53.142 38.071 60.416
H 53.652 38.812 59.192
H 45.173 36.512 65.107
H 52.626 33.425 56.421
H 52.2 33.338 57.876
H 48.691 41.07 60.387
H 47.557 40.797 59.414
H 45.662 36.1 57.386
H 45.165 35.663 56.019
H 53.903 39.054 56.662
H 56.359 40.384 57.943
H 56.737 39.515 56.757
H 54.594 40.404 56.598
H 44.908 43.624 55.046
H 53.998 42.077 54.804
H 46.152 42.939 55.583
H 44.494 42.189 56.842
H 43.04 41.768 56.725
H 47.269 40.328 67.592
H 50.749 36.722 63.731
H 47.61 32.601 52.975
H 48.538 33.131 51.896
H 46.838 44.605 54.319
H 52.5 40.556 50.243
H 53.92 41.01 50.532
H 43.853 33.221 49.653
H 43.437 34.007 50.884
H 43.228 36.263 49.736
H 44.27 35.962 48.673
H 40.907 34.263 60.791
H 50.092 40.012 55.911
H 49.742 41.39 56.446
H 51.633 32.726 54.426
H 49.814 43.268 59.361
H 49.786 41.961 58.588
H 42.618 39.181 59.111
H 49.334 36.725 54.778
H 50.034 35.384 54.644
H 43.044 38.102 60.091
H 42.65 34.306 56.004
H 41.201 34.581 55.639
H 45.832 38.767 66.961
H 54.564 32.296 56.072
H 42.133 31.417 54.976
H 40.855 32.223 54.819
H 49.526 38.172 60.992
H 49.77 39.531 61.624
H 48.035 35.373 56.426
H 47.766 34.968 54.987
H 39.971 39.032 55.623
H 42.472 37.388 53.734
H 47.035 37.138 58.959
H 47.471 35.7 59.177
H 43.927 37.181 54.119
H 41.917 34.205 49.307
H 42.82 34.407 48.103
H 48.384 33.01 56.811
H 48.027 32.516 55.42
H 41.21 36.493 58.099
H 42.723 36.461 57.965
H 45.589 32.64 54.463
H 44.217 32.129 54.868
H 39.213 35.029 57.967
H 39.746 35.424 59.333
H 45.412 44.405 57.047
H 52.324 36.437 55.326
H 52.0 35.658 56.588
H 54.164 38.089 54.285
H 55.62 38.51 54.185
H 51.997 38.881 57.743
H 50.821 37.973 57.427
H 43.075 34.891 53.832
H 55.254 34.72 56.423
H 44.709 38.651 64.082
H 48.236 35.426 61.313
H 49.452 35.86 62.113
H 46.882 40.823 54.719
H 45.742 40.543 55.683
H 54.711 40.957 52.79
H 47.586 41.817 56.957
H 48.223 43.195 56.941
H 53.798 39.747 52.881
H 53.329 35.15 58.404
H 52.653 36.269 59.176
H 43.674 44.02 53.027
H 47.207 37.603 65.381
H 51.856 38.544 54.44
H 51.875 40.056 54.584
H 42.992 42.952 59.015
H 54.405 36.738 56.639
H 54.83 37.484 57.891
H 54.366 35.146 53.633
H 53.692 35.581 52.344
H 45.156 39.746 61.255
H 41.88 37.812 48.944
H 50.497 35.722 58.368
H 50.188 34.652 57.334
H 40.341 39.909 59.488
H 39.814 38.905 60.499
H 56.09 36.498 55.229
H 47.713 39.466 62.423
H 48.074 38.776 63.727
H 41.95 39.658 53.905
H 42.62 40.444 55.019
H 44.29 32.511 52.252
H 43.462 31.424 52.914
H 40.868 32.842 58.267
H 50.094 40.96 52.165
H 51.357 40.134 52.331
H 44.524 35.057 53.409
