110
xyz format
O 66.077 51.943 48.352
O 69.971 57.602 40.999
O 72.199 57.22 40.709
O 67.809 53.637 41.01
O 65.141 55.078 45.493
O 65.816 54.329 48.2
O 68.807 50.74 45.586
O 65.525 52.671 44.585
O 62.787 52.349 46.174
O 71.488 52.678 41.931
O 70.108 53.36 39.458
O 70.575 57.224 38.166
O 67.53 55.478 44.629
O 66.635 59.354 41.847
O 70.148 55.109 49.272
O 63.951 57.903 46.767
O 69.945 53.596 43.675
O 62.31 52.908 43.54
O 66.758 58.695 39.359
O 61.818 53.825 48.639
O 68.911 55.426 42.911
O 70.116 53.973 46.542
O 70.22 59.972 41.714
O 69.646 59.53 39.567
O 63.68 50.758 43.388
O 66.182 51.454 42.628
O 70.58 60.278 37.239
O 67.033 59.107 48.538
O 61.716 55.792 45.973
O 71.345 58.403 44.585
O 71.952 52.018 39.092
O 66.894 57.467 45.327
O 67.213 49.441 44.803
O 67.769 53.237 47.772
H 63.975 50.553 44.284
H 64.068 51.625 43.212
H 68.832 59.428 40.075
H 69.572 60.416 39.19
H 71.036 53.802 46.303
H 70.036 54.932 46.47
H 66.678 59.608 39.662
H 66.446 58.729 38.446
H 71.542 50.578 41.266
H 69.825 51.744 48.029
H 69.766 52.788 44.173
H 62.5 53.147 48.548
H 60.993 53.336 48.529
H 70.089 54.26 44.36
H 69.447 58.775 46.765
H 68.25 55.805 42.318
H 69.426 56.19 43.198
H 66.596 49.919 45.37
H 68.549 49.239 43.066
H 72.865 54.392 42.255
H 70.452 54.417 48.671
H 69.555 55.641 48.727
H 64.643 58.221 47.36
H 66.576 59.367 47.728
H 70.015 59.638 36.788
H 72.746 52.346 39.532
H 70.104 60.829 41.284
H 71.103 59.695 41.44
H 62.806 53.46 44.157
H 63.651 50.978 47.854
H 62.068 52.136 44.067
H 66.941 57.538 46.289
H 67.686 55.121 45.512
H 67.005 54.794 44.195
H 66.613 58.346 45.046
H 67.252 59.645 42.53
H 66.29 50.784 43.315
H 66.857 51.225 41.977
H 68.324 61.743 42.373
H 70.226 53.454 38.504
H 70.874 53.813 39.83
H 70.546 52.757 41.733
H 71.504 52.297 42.818
H 70.809 57.708 38.967
H 64.615 56.175 48.167
H 63.699 54.986 48.4
H 67.32 54.294 37.655
H 61.866 52.299 46.461
H 63.056 53.242 46.421
H 62.126 55.729 46.845
H 62.006 54.987 45.525
H 70.627 58.359 43.942
H 72.109 58.669 44.058
H 72.227 56.435 40.147
H 72.626 56.932 41.526
H 68.548 53.672 41.63
H 67.944 54.413 40.45
H 64.24 51.139 40.691
H 62.01 54.729 41.698
H 66.176 49.185 41.511
H 65.448 53.984 47.377
H 69.201 51.56 45.909
H 69.015 50.741 44.643
H 64.823 52.659 45.248
H 66.269 52.248 45.031
H 67.841 60.294 37.776
H 65.298 55.949 45.878
H 64.193 55.076 45.309
H 66.452 54.994 47.907
H 68.082 53.198 46.86
H 68.379 53.852 48.198
H 63.679 57.865 44.584
H 66.084 51.876 47.389
H 66.789 51.354 48.629
H 70.383 57.661 41.87
H 69.028 57.54 41.195
