291
xyz format
O 64.909 40.94 43.163
O 70.062 31.75 41.894
O 71.236 40.427 49.196
O 64.17 33.117 48.956
O 69.456 35.353 54.513
O 72.082 35.177 40.463
O 70.084 34.179 42.561
O 64.14 35.152 56.3
O 67.561 37.754 41.403
O 63.509 35.883 46.965
O 71.902 37.543 42.603
O 72.754 38.695 44.273
O 62.639 28.236 52.425
O 67.316 36.873 45.045
O 66.266 39.062 38.048
O 62.098 31.907 51.568
O 62.904 31.666 54.133
O 67.296 31.438 55.417
O 62.03 26.854 49.778
O 69.998 38.521 46.452
O 63.055 26.42 46.743
O 60.264 31.615 47.188
O 66.164 30.998 42.14
O 69.742 33.516 53.337
O 65.915 35.229 38.306
O 65.584 36.578 46.605
O 60.551 33.734 49.626
O 66.572 35.879 42.058
O 64.024 32.977 44.916
O 66.843 29.96 45.926
O 63.943 37.252 50.03
O 63.755 33.909 52.547
O 62.591 35.002 50.5
O 62.966 35.992 41.161
O 70.231 31.588 56.036
O 66.119 29.495 53.873
O 72.318 38.561 47.268
O 67.957 29.996 50.551
O 65.82 31.95 38.353
O 60.473 36.334 47.206
O 68.683 34.041 48.925
O 64.471 31.977 40.092
O 68.973 30.499 53.348
O 73.4 37.316 49.901
O 64.221 38.518 40.79
O 58.4 34.241 47.166
O 64.435 39.502 50.039
O 66.349 33.769 46.959
O 69.784 35.492 51.381
O 66.7 32.576 50.147
O 66.581 36.905 53.668
O 64.844 28.325 42.499
O 59.234 28.691 48.974
O 69.046 35.921 46.022
O 67.153 39.17 51.721
O 66.173 26.413 46.132
O 71.505 31.613 53.708
O 69.876 40.911 44.022
O 67.536 33.841 41.727
O 63.25 33.61 42.054
O 68.107 32.652 39.275
O 66.965 32.37 52.918
O 62.042 32.627 37.389
O 67.213 37.377 36.114
O 69.76 30.467 45.815
O 60.027 29.357 52.167
O 70.151 37.013 44.08
O 61.435 34.115 47.557
O 71.148 30.531 50.699
O 66.43 35.696 51.309
O 69.867 37.018 41.266
O 73.341 33.543 50.234
O 67.926 40.622 43.046
O 68.274 30.779 47.532
O 69.764 37.35 38.359
O 61.358 35.36 43.722
O 63.587 31.934 46.821
O 64.824 29.121 37.259
O 64.679 37.913 45.103
O 72.584 34.022 52.243
O 70.68 38.392 52.51
O 64.562 27.664 48.159
O 58.732 32.014 45.041
O 66.476 35.428 49.127
O 64.577 30.162 51.188
O 70.384 41.215 47.306
O 61.191 37.962 45.881
O 73.845 36.116 44.6
O 67.555 37.264 48.467
O 69.57 38.454 49.617
O 67.077 39.77 48.91
O 64.673 34.846 43.952
O 65.652 39.855 45.902
O 62.634 36.921 52.631
O 67.198 29.65 40.719
O 65.962 30.659 49.346
O 68.423 36.015 39.495
O 61.704 28.221 44.85
O 72.581 34.149 46.699
O 59.597 30.668 50.29
O 63.839 26.819 44.277
O 66.282 34.326 55.018
O 61.724 31.721 45.545
O 60.237 32.311 39.688
O 67.634 32.752 44.674
O 63.326 29.334 46.836
O 62.579 30.466 49.483
O 64.499 30.83 44.951
O 70.797 34.651 48.911
H 71.217 30.759 53.364
H 71.663 32.139 52.914
H 58.527 32.469 45.868
H 59.141 31.189 45.329
H 66.193 33.58 55.624
H 67.167 34.219 54.649
H 62.149 35.668 44.182
H 68.212 36.816 49.014
H 65.561 27.987 43.05
H 64.254 28.756 43.13
H 64.53 31.997 47.018
H 63.232 31.423 47.56
H 64.315 27.829 49.077
H 64.271 27.166 45.068
H 64.287 25.978 44.123
H 69.625 31.343 45.432
H 70.197 29.973 45.11
H 68.031 35.177 39.771
H 67.212 40.133 43.472
H 67.73 40.542 42.104
H 72.472 33.197 49.994
H 73.78 33.669 49.383
H 71.809 33.791 47.156
H 70.078 36.543 37.933
H 69.582 37.944 37.62
H 67.814 36.341 38.821
H 73.326 33.724 47.14
H 68.92 31.495 47.57
H 68.793 29.991 47.737
H 65.06 28.452 47.909
H 62.05 33.523 47.106
H 61.99 34.581 48.194
H 66.426 26.78 45.276
H 66.378 27.12 46.755
H 69.437 36.386 43.907
H 70.917 36.449 44.241
H 66.339 31.044 48.545
H 65.102 30.328 49.058
H 68.004 29.789 40.206
H 66.649 29.107 40.141
H 68.917 31.353 52.903
H 68.888 29.86 52.63
H 62.976 29.752 48.968
H 62.531 30.104 50.377
H 66.715 38.682 51.012
H 69.448 40.53 44.799
H 63.932 31.438 40.684
H 63.842 32.606 39.718
H 67.387 33.932 42.676
H 67.726 32.901 41.613
H 66.618 31.568 53.328
H 70.941 41.247 46.518
H 69.633 40.672 47.034
H 68.853 33.217 39.036
H 68.501 31.774 39.355
H 66.26 33.017 53.045
H 69.377 38.704 50.529
H 70.269 37.794 49.704
H 62.518 29.586 46.372
H 63.923 29.063 46.128
H 61.99 31.745 37.778
H 62.475 33.154 38.073
H 62.672 33.029 41.543
H 64.138 33.314 41.818
H 66.476 34.467 49.042
H 65.565 35.676 48.926
H 58.66 33.719 47.934
H 60.158 28.594 49.237
H 63.966 37.594 44.535
H 65.423 38.021 44.498
H 66.907 37.586 49.106
H 72.26 34.859 51.888
H 70.428 37.562 52.087
H 69.237 34.867 50.889
H 70.388 35.842 50.715
H 66.609 32.913 47.322
H 65.959 33.547 46.105
H 69.458 35.081 46.261
H 68.719 36.264 46.863
H 72.67 36.702 50.046
H 65.852 32.467 50.596
H 67.267 32.969 50.822
H 67.286 36.436 53.204
H 65.786 36.671 53.174
H 60.032 35.849 47.915
H 61.322 36.583 47.591
H 69.051 33.152 49.011
H 68.406 34.086 48.002
H 68.724 29.945 49.967
H 67.995 30.894 50.902
H 72.538 37.67 46.971
H 73.148 39.046 47.173
H 70.303 32.427 55.564
H 62.79 36.147 42.097
H 63.85 36.359 41.03
H 70.874 34.714 42.709
H 69.403 34.83 42.352
H 71.688 34.524 39.871
H 72.474 35.823 39.862
H 64.389 33.46 51.975
H 64.269 34.124 53.336
H 63.204 35.464 51.085
H 61.949 34.61 51.105
H 65.349 29.176 53.387
H 66.857 29.313 53.278
H 64.721 36.984 50.534
H 63.379 37.679 50.688
H 63.469 32.911 44.129
H 63.587 33.653 45.449
H 66.963 29.278 46.599
H 66.336 30.644 46.381
H 65.874 35.601 41.452
H 66.15 36.56 42.597
H 60.062 32.924 49.433
H 59.86 34.4 49.73
H 66.305 35.962 46.785
H 65.641 37.216 47.328
H 63.709 30.727 44.405
H 65.119 30.19 44.579
H 70.406 35.225 48.241
H 71.683 35.013 49.035
H 65.385 32.789 38.156
H 66.494 31.874 37.667
H 60.959 31.65 47.857
H 59.449 31.678 47.702
H 65.477 30.367 41.891
H 65.808 31.848 41.851
H 65.897 35.355 39.263
H 66.635 34.6 38.171
H 69.085 33.53 52.63
H 70.49 34.0 52.964
H 62.763 26.389 47.663
H 62.327 26.012 46.258
H 67.686 39.449 48.234
H 66.339 40.13 48.402
H 63.58 26.348 40.563
H 65.402 34.563 43.387
H 64.376 35.671 43.548
H 66.558 39.828 46.234
H 65.137 39.448 46.611
H 61.581 31.117 44.805
H 61.554 32.592 45.166
H 70.171 36.215 40.825
H 69.576 37.583 40.538
H 62.461 28.615 44.398
H 60.412 30.714 49.774
H 70.375 30.71 51.249
H 71.745 31.263 50.898
H 66.908 36.49 51.038
H 67.131 35.059 51.495
H 61.052 28.933 44.868
H 62.027 28.409 51.698
H 63.51 28.323 52.018
H 67.525 37.412 44.272
H 66.901 36.086 44.671
H 66.221 38.741 38.958
H 62.848 35.635 46.306
H 63.928 35.044 47.195
H 71.542 38.227 42.024
H 71.922 36.756 42.044
H 61.852 32.648 52.136
H 62.115 32.293 50.683
H 70.772 32.007 42.495
H 69.301 31.631 42.476
H 64.737 30.839 51.856
H 65.365 29.607 51.23
H 68.888 35.479 55.284
H 69.507 36.233 54.119
H 64.297 33.779 49.647
H 63.933 32.319 49.444
H 67.134 38.421 41.956
H 66.918 37.594 40.7
H 62.845 32.628 54.099
H 61.991 31.375 54.013
H 67.582 30.553 55.158
H 68.043 31.781 55.924
H 70.622 39.044 45.934
H 69.139 38.753 46.079
H 61.127 26.825 50.118
H 62.175 27.79 49.592
H 67.034 32.279 44.084
H 67.614 32.233 45.487
