62
xyz format
O 31.276 45.424 62.335
O 29.194 43.419 62.652
O 28.95 36.009 59.347
O 30.368 38.434 58.002
O 30.252 41.001 61.495
O 26.565 39.48 61.241
O 25.907 42.907 64.135
O 29.915 38.172 61.749
O 25.713 41.786 60.598
O 33.341 39.729 62.026
O 26.63 45.558 65.002
O 28.158 36.581 61.319
O 28.559 39.59 60.319
O 31.98 42.344 64.056
O 29.986 41.428 58.399
O 31.525 37.855 63.279
O 32.819 40.019 59.355
O 26.32 37.055 60.013
O 27.734 41.323 57.598
O 28.559 37.394 64.127
H 26.181 37.735 59.341
H 26.786 36.356 59.539
H 32.695 40.39 58.473
H 31.938 39.708 59.599
H 30.605 35.749 63.16
H 27.469 45.352 65.433
H 33.114 40.575 61.62
H 26.06 44.817 65.246
H 31.758 42.889 63.291
H 28.421 39.351 59.394
H 28.292 40.517 60.358
H 29.451 37.754 64.05
H 28.676 36.451 63.952
H 30.473 42.192 58.732
H 30.079 40.773 59.101
H 32.157 37.275 62.837
H 31.642 37.65 64.215
H 28.315 41.817 57.007
H 27.713 37.177 61.934
H 28.388 35.819 61.865
H 27.576 46.433 62.974
H 26.07 46.242 62.932
H 26.446 41.846 59.973
H 26.148 41.757 61.459
H 29.994 39.205 57.558
H 28.913 44.214 62.181
H 28.363 42.995 62.902
H 28.647 35.358 58.702
H 29.162 36.782 58.81
H 29.837 38.983 62.267
H 30.344 38.461 60.934
H 25.478 43.514 63.519
H 25.986 42.087 63.633
H 26.042 38.697 61.452
H 26.88 39.784 62.101
H 27.362 36.322 56.953
H 31.351 44.888 61.536
H 30.41 45.842 62.249
H 28.699 40.261 64.697
H 30.116 39.834 64.355
H 31.055 41.279 61.954
H 29.541 41.323 62.064
