243
xyz format
O 58.357 42.165 32.213
O 55.05 29.987 34.027
O 49.76 32.907 36.399
O 60.857 42.33 27.258
O 66.687 42.664 35.601
O 62.081 40.221 36.613
O 50.527 39.15 25.125
O 52.3 31.798 35.173
O 65.857 38.14 34.556
O 53.874 28.182 34.482
O 57.072 33.539 31.857
O 62.061 43.908 37.631
O 52.045 39.375 30.216
O 50.118 37.717 31.113
O 55.723 41.84 36.029
O 57.266 30.748 33.858
O 67.857 40.342 36.176
O 51.575 36.828 28.335
O 54.64 43.574 28.561
O 62.508 37.306 37.731
O 54.477 39.43 31.777
O 56.584 37.734 36.1
O 56.201 37.356 33.457
O 57.742 36.64 38.365
O 64.431 37.393 30.032
O 49.397 39.75 27.915
O 51.147 34.915 30.093
O 55.405 31.812 29.065
O 55.162 34.673 29.893
O 54.054 28.79 31.82
O 58.175 43.39 27.245
O 69.296 36.144 35.877
O 58.09 35.819 32.365
O 54.967 41.777 33.958
O 59.797 40.005 31.602
O 62.176 42.232 29.016
O 63.152 31.415 34.885
O 54.612 33.24 33.528
O 65.785 33.664 33.61
O 60.145 38.919 37.668
O 51.131 41.219 32.423
O 60.518 37.566 29.042
O 58.843 39.409 28.54
O 52.194 29.312 37.925
O 58.715 31.094 30.035
O 55.965 34.98 26.51
O 51.857 36.584 25.087
O 61.483 38.114 30.98
O 54.767 42.662 30.575
O 48.646 40.269 30.2
O 63.748 37.969 35.67
O 60.14 41.978 34.969
O 67.213 37.377 36.114
O 67.605 37.375 33.344
O 51.196 29.812 33.687
O 65.53 42.804 37.469
O 65.972 38.991 29.927
O 53.813 34.429 26.364
O 52.624 41.258 36.235
O 60.189 41.505 24.371
O 60.682 35.39 32.682
O 58.026 32.11 37.053
O 53.987 37.131 25.152
O 53.759 44.779 36.904
O 54.628 39.041 26.229
O 49.57 30.11 35.451
O 51.156 42.059 28.588
O 55.609 38.781 38.286
O 56.121 33.819 37.964
O 60.701 34.87 28.626
O 51.379 33.053 28.417
O 61.243 44.699 26.709
O 53.658 34.319 37.575
O 59.258 33.618 30.495
O 64.148 39.647 31.782
O 54.949 31.345 31.683
O 56.961 38.662 30.581
O 54.151 34.301 35.4
O 62.839 36.673 27.854
O 52.134 35.937 34.778
O 65.066 40.585 34.809
O 64.228 35.454 33.531
O 57.972 36.134 28.287
O 57.805 42.605 36.97
O 64.879 34.391 36.554
O 66.037 35.953 32.324
O 63.671 43.581 35.382
H 66.588 36.649 36.217
H 60.193 34.306 28.03
H 61.344 34.268 29.02
H 55.533 39.743 38.265
H 54.9 38.482 37.703
H 51.593 42.395 29.38
H 50.918 41.154 28.824
H 53.668 39.076 26.316
H 54.832 39.785 25.648
H 56.462 34.452 37.321
H 55.764 34.377 38.667
H 57.503 32.698 36.494
H 57.478 31.318 37.128
H 51.446 29.172 34.365
H 52.002 29.924 33.168
H 57.145 36.626 28.214
H 58.359 36.205 27.405
H 51.296 39.825 35.118
H 54.813 36.69 25.387
H 54.24 37.722 24.431
H 61.229 35.951 32.117
H 60.146 34.888 32.057
H 66.67 38.614 29.376
H 65.513 39.596 29.332
H 67.501 37.562 37.017
H 58.793 38.927 29.375
H 57.925 39.645 28.358
H 52.707 36.655 35.077
H 63.835 38.802 35.191
H 62.214 37.251 27.397
H 62.409 36.494 28.7
H 63.282 37.395 35.049
H 52.046 35.375 35.558
H 53.221 33.527 37.237
H 63.638 32.249 34.859
H 53.57 34.239 38.533
H 62.1 41.302 28.768
H 62.892 42.56 28.458
H 59.839 32.99 30.047
H 58.861 34.119 29.771
H 66.675 33.397 33.872
H 65.337 32.827 33.437
H 54.129 35.009 34.744
H 55.088 34.22 35.618
H 60.22 37.025 28.3
H 67.926 36.702 33.957
H 60.793 38.393 28.627
H 59.608 38.269 37.197
H 51.567 40.729 33.131
H 51.717 41.972 32.272
H 68.401 37.658 32.877
H 60.83 42.447 35.455
H 59.477 41.782 35.643
H 55.038 33.313 32.665
H 54.25 32.346 33.53
H 63.458 34.971 33.854
H 64.63 35.809 34.334
H 55.526 30.629 31.978
H 54.06 30.99 31.808
H 51.755 37.098 25.898
H 52.239 35.751 25.39
H 55.474 42.056 30.321
H 54.938 42.835 31.509
H 62.05 37.395 30.675
H 62.1 38.733 31.39
H 52.441 29.91 37.208
H 59.406 30.782 30.633
H 58.003 31.362 30.628
H 56.639 35.587 26.18
H 56.4 34.53 27.244
H 60.349 44.877 26.389
H 61.114 44.489 27.643
H 60.353 39.994 30.813
H 58.902 40.087 31.251
H 54.998 34.016 30.58
H 55.717 35.33 30.331
H 56.724 38.148 29.799
H 56.486 39.493 30.462
H 64.431 40.987 35.414
H 58.343 36.625 32.832
H 54.16 41.795 33.428
H 55.673 41.745 33.3
H 57.418 35.425 32.936
H 65.453 41.34 34.348
H 51.203 32.68 27.544
H 50.969 32.423 29.022
H 60.199 42.626 26.617
H 61.512 41.87 26.717
H 63.76 39.449 32.644
H 65.056 39.897 31.991
H 54.53 31.738 29.468
H 56.002 31.863 29.822
H 53.543 27.982 31.682
H 58.001 42.606 26.709
H 58.305 44.089 26.592
H 54.867 28.635 31.323
H 49.061 38.865 28.104
H 50.121 39.593 27.296
H 55.524 37.566 32.801
H 56.797 38.114 33.423
H 56.892 36.373 38.737
H 58.057 35.845 37.918
H 64.543 36.866 29.232
H 63.905 38.147 29.738
H 51.894 34.977 29.485
H 57.414 37.873 36.573
H 56.244 36.91 36.47
H 64.269 34.23 35.823
H 65.73 34.09 36.213
H 56.883 31.539 34.258
H 58.048 30.576 34.397
H 65.717 36.478 31.58
H 66.698 35.372 31.927
H 54.016 38.605 31.582
H 54.388 39.94 30.962
H 63.283 36.792 37.47
H 62.884 38.108 38.113
H 54.092 44.364 28.644
H 53.998 42.854 28.516
H 52.427 37.28 28.391
H 50.987 37.494 27.959
H 66.915 40.527 36.071
H 68.123 40.009 35.311
H 63.242 42.805 35.763
H 63.141 43.774 34.599
H 54.954 42.365 36.287
H 55.563 40.982 36.44
H 50.037 38.419 31.77
H 49.607 38.044 30.362
H 61.213 43.592 37.294
H 51.501 38.866 29.602
H 52.596 39.918 29.639
H 53.379 40.863 36.687
H 60.844 40.963 24.828
H 51.942 41.295 36.917
H 59.402 41.43 24.925
H 53.632 34.943 27.16
H 53.023 33.885 26.257
H 52.696 32.675 35.088
H 51.581 31.807 34.53
H 65.34 38.066 33.744
H 66.425 38.904 34.397
H 62.966 39.946 36.885
H 62.046 39.986 35.677
H 67.112 42.849 34.754
H 67.395 42.789 36.245
H 58.493 42.296 37.572
H 57.11 42.923 37.56
H 57.491 41.793 32.003
H 58.697 41.578 32.9
H 49.562 33.672 36.953
H 50.649 33.087 36.068
H 54.428 30.438 34.612
H 55.625 29.504 34.634
H 57.098 33.439 30.897
H 57.731 32.907 32.171
