137
xyz format
O 69.039 44.121 31.613
O 66.687 42.664 35.601
O 69.707 53.004 35.096
O 73.451 42.217 35.634
O 72.564 43.314 37.78
O 70.952 45.473 40.043
O 65.861 53.496 29.931
O 66.045 49.349 32.194
O 68.661 54.588 29.39
O 69.679 46.657 34.673
O 70.193 47.655 29.788
O 70.551 50.08 31.041
O 73.702 51.787 42.779
O 71.678 50.996 32.939
O 70.973 55.472 36.151
O 71.488 52.678 41.931
O 70.108 53.36 39.458
O 69.825 43.099 38.317
O 65.331 49.893 29.792
O 72.137 46.081 33.254
O 76.358 46.786 39.045
O 65.088 45.87 34.132
O 69.305 52.469 30.53
O 76.504 56.359 40.716
O 74.328 51.162 38.153
O 65.514 48.418 35.6
O 70.372 42.151 35.518
O 65.53 42.804 37.469
O 73.983 46.165 39.976
O 67.39 45.465 35.564
O 72.648 50.152 35.389
O 74.704 55.139 41.297
O 71.048 48.164 38.908
O 71.728 55.394 33.185
O 67.743 50.348 36.169
O 68.599 50.251 38.54
O 72.325 48.476 33.692
O 73.904 48.505 39.58
O 70.683 50.986 36.535
O 72.557 53.274 33.777
O 73.779 48.14 35.829
O 71.557 44.209 35.465
O 71.952 52.018 39.092
O 67.061 43.58 29.222
O 71.009 45.974 37.319
O 71.976 49.716 41.266
O 76.871 52.568 39.797
O 67.305 50.844 30.686
O 66.205 46.987 28.342
H 73.104 48.619 33.14
H 71.626 48.281 33.056
H 67.939 50.061 39.219
H 69.428 50.296 39.032
H 67.394 50.84 35.415
H 68.439 49.801 35.783
H 73.196 50.234 36.179
H 72.001 49.477 35.627
H 73.282 48.068 38.985
H 73.765 49.444 39.407
H 69.922 51.233 37.075
H 71.44 51.267 37.063
H 69.988 41.552 36.17
H 70.107 41.769 34.672
H 71.198 49.022 39.324
H 70.341 48.338 38.273
H 71.542 50.578 41.266
H 72.096 49.52 42.203
H 66.705 44.851 35.855
H 67.015 46.334 35.753
H 71.578 46.203 38.064
H 70.13 46.249 37.608
H 65.203 43.666 37.183
H 67.605 43.63 30.018
H 66.315 44.16 29.417
H 65.84 48.064 36.436
H 66.272 48.343 35.007
H 73.797 51.776 37.63
H 74.889 50.728 37.497
H 65.238 48.935 29.721
H 64.686 50.138 30.467
H 74.118 48.08 36.73
H 73.031 47.53 35.823
H 71.416 56.249 32.863
H 72.142 54.995 32.409
H 72.746 52.346 39.532
H 72.024 51.059 39.174
H 63.889 46.489 27.554
H 76.568 55.545 40.2
H 64.578 45.354 33.495
H 76.031 47.681 39.202
H 65.616 46.459 33.579
H 72.504 46.213 34.137
H 72.803 46.463 32.669
H 69.021 52.048 31.351
H 69.794 53.246 30.828
H 71.667 54.801 36.155
H 70.226 53.454 38.504
H 70.874 53.813 39.83
H 69.516 43.688 37.618
H 70.546 52.757 41.733
H 71.504 52.297 42.818
H 72.56 50.857 33.306
H 71.122 50.388 33.441
H 73.659 51.524 41.852
H 69.807 49.487 31.202
H 71.322 49.551 31.283
H 70.627 44.329 35.695
H 71.563 44.257 34.501
H 69.501 47.127 30.205
H 70.966 47.501 30.346
H 70.602 44.833 40.674
H 72.548 44.271 37.654
H 71.789 43.006 37.293
H 71.444 46.094 40.595
H 68.659 55.374 28.83
H 69.103 53.922 28.849
H 69.269 46.078 34.019
H 69.445 46.251 35.517
H 74.575 46.654 40.561
H 73.581 45.506 40.555
H 66.572 53.777 30.519
H 67.112 42.849 34.754
H 67.395 42.789 36.245
H 72.867 52.895 34.609
H 71.621 53.04 33.753
H 69.295 53.033 35.969
H 69.993 53.913 34.947
H 72.62 41.726 35.673
H 74.006 41.78 36.292
H 69.78 44.555 31.172
H 68.838 44.705 32.355
H 67.639 50.595 29.815
H 66.64 51.517 30.493
H 65.728 48.731 32.865
H 66.486 50.038 32.707
H 76.627 53.345 40.316
H 76.042 52.081 39.711
