226
xyz format
Na 37.083 30.36 63.863
O 35.394 36.402 63.467
O 37.458 38.603 54.247
O 41.417 32.357 57.638
O 42.322 26.668 57.849
O 43.578 31.445 62.935
O 35.157 26.844 52.851
O 32.703 37.109 58.739
O 33.466 28.099 53.863
O 34.633 35.421 54.0
O 35.382 34.223 58.415
O 34.495 31.565 59.76
O 39.486 34.653 58.813
O 34.547 28.544 47.565
O 37.205 34.002 50.022
O 36.863 27.526 57.835
O 36.524 26.872 49.286
O 37.25 27.481 60.692
O 39.114 25.438 59.867
O 36.817 37.38 51.675
O 38.22 29.507 49.033
O 37.56 35.072 53.085
O 31.457 32.241 62.707
O 38.103 30.039 55.727
O 40.034 33.806 65.611
O 40.527 28.843 66.644
O 38.841 33.212 60.586
O 41.565 31.817 54.306
O 34.587 38.378 54.556
O 34.491 30.77 46.735
O 39.361 30.466 53.336
O 32.374 37.163 51.355
O 36.116 32.709 54.784
O 33.464 31.615 55.099
O 41.856 27.655 60.228
O 33.097 33.851 52.257
O 35.294 34.979 60.513
O 37.159 30.547 46.724
O 30.351 31.204 49.225
O 40.033 31.071 63.284
O 39.147 33.436 51.778
O 31.661 28.49 49.029
O 37.61 34.905 56.095
O 34.204 35.282 49.475
O 36.433 33.152 65.915
O 36.3 32.58 61.624
O 38.576 28.029 51.764
O 28.663 34.746 54.875
O 40.933 30.223 57.005
O 32.216 30.69 52.555
O 39.505 27.216 58.129
O 36.704 32.63 52.673
O 37.642 35.601 63.734
O 31.072 33.585 50.361
O 37.609 25.714 51.631
O 30.345 37.97 52.972
O 44.021 30.799 56.917
O 37.958 37.179 61.732
O 33.747 32.487 63.103
O 32.979 35.87 60.593
O 36.324 31.597 57.694
O 31.743 32.566 46.89
O 39.719 29.182 61.997
O 31.288 34.605 56.578
O 33.02 35.139 64.608
O 35.058 36.646 57.021
O 38.327 32.878 54.35
O 35.27 29.077 56.845
O 32.627 38.001 53.376
O 41.801 34.548 56.395
O 41.886 32.097 51.535
O 40.623 27.388 64.392
O 41.656 30.611 61.007
O 34.172 30.657 49.549
O 32.852 29.488 55.893
O 34.308 33.121 47.957
O 37.524 35.336 60.016
O 30.787 35.311 54.379
O 36.833 30.582 59.644
O 42.909 28.724 55.5
O 41.42 33.649 61.33
H 35.571 31.726 57.103
H 37.068 31.469 57.093
H 35.257 35.905 60.786
H 35.122 34.493 61.329
H 30.986 28.628 48.352
H 37.955 37.869 61.058
H 38.768 36.685 61.552
H 33.743 31.688 63.645
H 29.849 38.465 52.308
H 29.849 38.121 53.787
H 43.11 30.532 56.744
H 33.469 33.18 63.714
H 33.222 36.713 60.996
H 32.875 35.278 61.348
H 37.202 36.222 59.808
H 37.339 34.831 59.214
H 35.379 32.294 61.64
H 36.662 32.235 62.45
H 36.407 33.866 65.267
H 37.083 32.537 65.554
H 39.199 27.719 57.364
H 39.415 26.297 57.849
H 37.012 32.678 51.759
H 35.766 32.422 52.588
H 38.995 28.324 52.582
H 37.747 28.522 51.74
H 28.567 34.588 55.823
H 28.666 35.709 54.802
H 31.164 28.513 49.856
H 34.703 35.12 50.286
H 33.283 35.267 49.765
H 38.323 35.168 55.5
H 36.9 34.637 55.498
H 41.732 31.202 61.766
H 42.247 29.88 61.225
H 39.956 33.892 52.039
H 39.203 32.588 52.236
H 36.225 31.774 54.999
H 35.345 32.975 55.3
H 40.431 30.327 63.752
H 32.236 36.213 51.457
H 41.579 31.266 51.153
H 39.46 31.478 63.946
H 41.213 27.508 63.638
H 40.089 30.554 52.708
H 38.573 30.483 52.779
H 40.255 28.268 64.538
H 32.642 37.072 53.638
H 36.783 30.366 47.594
H 29.959 30.325 49.304
H 39.035 33.522 54.22
H 38.648 32.328 55.075
H 30.72 31.37 50.101
H 37.736 35.523 64.691
H 38.526 35.402 63.4
H 41.204 28.15 59.717
H 41.472 27.616 61.113
H 37.946 25.026 52.217
H 37.219 26.359 52.234
H 31.252 34.53 50.451
H 31.72 33.29 49.709
H 39.562 28.341 62.445
H 39.632 28.961 61.061
H 33.629 33.051 52.158
H 33.741 34.566 52.179
H 30.584 33.949 56.496
H 32.004 34.121 57.009
H 34.017 31.524 54.313
H 32.973 32.431 54.941
H 39.908 29.566 66.807
H 41.209 28.969 67.316
H 34.836 38.32 55.487
H 35.354 38.023 54.09
H 35.544 29.726 56.185
H 35.191 28.257 56.341
H 35.069 30.964 45.986
H 33.64 31.142 46.47
H 38.748 33.656 61.438
H 39.191 32.343 60.818
H 38.588 29.448 55.137
H 38.217 29.638 56.598
H 32.076 33.199 47.538
H 31.553 31.779 47.416
H 37.5 35.232 52.134
H 36.66 34.825 53.332
H 37.896 29.777 49.901
H 39.739 34.537 65.054
H 39.367 33.124 65.468
H 37.103 29.969 58.949
H 37.628 31.106 59.808
H 41.913 33.131 60.682
H 40.907 34.263 60.791
H 36.19 37.018 52.314
H 37.643 37.435 52.171
H 40.009 25.325 60.212
H 38.604 25.714 60.638
H 37.779 28.089 60.16
H 37.59 27.604 61.587
H 36.039 27.362 49.962
H 37.394 26.737 49.681
H 41.201 34.581 55.639
H 36.299 27.977 58.476
H 37.327 26.865 58.364
H 42.133 31.417 54.976
H 40.855 32.223 54.819
H 42.186 28.313 55.991
H 42.525 28.901 54.632
H 37.575 33.174 49.691
H 37.97 34.587 50.083
H 34.881 30.396 48.949
H 33.48 30.982 48.959
H 34.609 31.035 58.962
H 34.044 30.967 60.37
H 35.134 25.913 53.103
H 34.429 26.929 52.222
H 39.213 35.029 57.967
H 39.746 35.424 59.333
H 35.952 33.788 57.769
H 34.517 34.233 57.987
H 33.899 28.545 48.281
H 35.204 27.897 47.852
H 40.309 30.369 56.284
H 40.656 29.378 57.381
H 31.359 30.875 52.151
H 32.794 30.526 51.8
H 32.021 36.477 58.479
H 33.527 36.626 58.601
H 32.861 28.632 56.338
H 32.815 30.124 56.618
H 34.957 32.422 48.103
H 33.87 33.209 48.813
H 34.26 36.462 56.511
H 35.655 35.927 56.78
H 33.991 34.969 54.562
H 35.22 35.859 54.628
H 32.693 27.753 54.328
H 33.122 28.865 53.387
H 34.652 36.118 62.918
H 34.971 36.741 64.266
H 42.083 26.09 57.114
H 43.242 26.439 58.031
H 30.822 35.834 53.568
H 31.595 34.784 54.347
H 41.971 31.801 58.2
H 40.868 32.842 58.267
