118
xyz format
O 41.834 69.645 59.551
O 44.544 69.498 54.368
O 44.439 61.737 54.351
O 41.376 64.83 58.256
O 43.983 64.926 61.101
O 46.719 72.536 55.898
O 41.645 65.357 60.377
O 42.7 66.81 51.56
O 44.145 66.322 55.699
O 49.436 65.964 51.511
O 47.457 65.997 56.091
O 43.485 63.394 56.677
O 47.662 68.301 55.971
O 51.532 69.267 56.597
O 46.604 71.79 52.932
O 48.334 69.772 54.208
O 42.262 60.957 56.794
O 42.977 69.149 57.488
O 43.83 66.339 58.582
O 49.8 68.0 55.179
O 43.634 67.596 53.742
O 46.061 73.681 54.138
O 41.672 65.82 55.48
O 45.654 62.323 59.04
O 50.798 67.973 52.906
O 44.499 64.204 53.591
O 46.19 64.401 57.621
O 47.129 60.991 55.846
O 40.191 69.018 55.291
O 38.105 64.816 56.457
O 50.216 64.356 56.489
O 46.644 68.847 52.456
O 46.554 63.974 55.049
O 43.944 71.675 52.405
O 49.013 70.417 51.058
O 47.396 65.304 52.568
O 47.472 63.353 60.031
O 45.936 66.161 60.452
H 48.913 71.058 56.855
H 49.515 64.756 57.018
H 38.742 65.061 57.14
H 47.484 65.666 53.458
H 46.544 65.642 52.266
H 46.838 65.028 57.966
H 45.738 64.896 56.927
H 44.432 63.459 52.981
H 44.58 64.97 53.01
H 43.173 68.226 53.175
H 49.916 72.436 52.638
H 43.064 66.817 53.729
H 40.221 66.626 59.28
H 44.598 71.665 51.695
H 45.257 73.338 53.729
H 46.608 73.942 53.387
H 41.484 65.54 54.575
H 41.425 66.753 55.488
H 45.091 63.107 59.027
H 45.991 62.268 58.137
H 50.252 67.172 55.383
H 49.229 67.773 54.435
H 42.193 61.076 55.838
H 43.158 60.619 56.919
H 45.859 67.44 50.262
H 45.103 66.193 50.687
H 43.404 69.298 56.635
H 43.713 68.945 58.079
H 46.761 71.459 52.039
H 48.023 68.256 56.865
H 46.725 68.488 56.111
H 46.658 70.999 53.483
H 38.796 65.421 53.708
H 44.214 65.47 58.411
H 45.817 68.84 51.958
H 46.798 67.916 52.657
H 48.598 73.036 53.098
H 39.384 68.564 55.019
H 47.452 60.45 56.577
H 46.262 61.291 56.148
H 51.852 68.481 56.136
H 40.289 68.447 57.632
H 51.513 69.742 54.01
H 48.784 70.064 53.405
H 48.371 70.545 54.786
H 44.565 66.948 58.436
H 43.654 64.068 56.006
H 42.522 63.356 56.726
H 43.313 60.878 52.665
H 47.204 64.28 60.002
H 46.623 66.59 59.927
H 46.816 66.334 55.452
H 48.31 66.182 55.679
H 49.258 66.485 52.304
H 44.669 65.966 54.97
H 44.798 66.768 56.253
H 43.039 65.92 51.397
H 43.279 67.375 51.033
H 41.689 64.541 60.89
H 46.731 72.001 56.702
H 46.038 58.488 56.352
H 45.811 69.788 49.948
H 41.918 65.467 57.774
H 40.81 64.448 57.574
H 45.208 61.177 54.183
H 44.26 61.605 55.29
H 43.779 65.785 60.71
H 43.833 64.304 60.378
H 39.647 64.193 60.148
H 43.237 72.641 54.25
H 50.13 68.548 52.511
H 44.458 63.29 50.787
H 44.888 70.363 54.624
H 45.311 68.917 54.439
H 47.35 63.445 54.914
H 45.859 63.315 55.171
H 48.192 69.965 51.288
H 48.72 71.282 50.748
H 42.129 68.727 59.59
H 41.648 68.914 51.476
