365
xyz format
Cl 47.816 30.708 60.247
Na 47.489 37.29 62.212
O 54.575 43.013 67.823
O 47.762 42.709 62.717
O 50.681 38.287 70.734
O 47.72 27.35 63.94
O 43.578 31.445 62.935
O 50.845 32.383 67.979
O 55.378 40.424 69.073
O 52.341 36.905 65.243
O 50.543 34.192 69.4
O 56.277 43.541 70.46
O 45.9 31.848 71.012
O 47.782 37.364 66.119
O 55.757 39.152 67.204
O 57.743 30.466 65.999
O 58.247 35.569 61.606
O 47.946 32.282 56.353
O 41.967 35.9 58.181
O 53.19 36.105 58.391
O 50.558 26.197 60.281
O 48.148 36.832 72.522
O 50.085 42.824 68.915
O 44.277 36.009 68.583
O 59.913 34.417 65.395
O 52.727 30.364 56.437
O 47.845 28.102 61.283
O 51.802 36.488 56.136
O 49.908 34.975 58.2
O 53.036 35.388 62.771
O 51.643 43.428 71.237
O 51.408 38.624 57.022
O 50.286 29.566 63.09
O 47.316 35.252 55.793
O 55.002 31.796 55.372
O 51.061 31.956 54.321
O 51.588 39.224 68.646
O 52.012 41.385 68.688
O 50.889 33.83 72.315
O 50.982 37.216 62.935
O 55.782 32.223 65.02
O 53.977 28.683 59.902
O 55.442 37.586 73.44
O 47.172 40.967 68.31
O 53.641 33.982 72.375
O 48.891 40.778 69.726
O 53.238 39.604 64.257
O 50.461 40.554 64.247
O 56.097 28.534 65.701
O 51.524 32.665 64.318
O 55.207 36.551 65.795
O 49.349 33.687 65.75
O 53.39 32.551 66.205
O 44.171 35.509 60.377
O 56.806 42.436 65.682
O 43.991 33.441 61.356
O 47.968 41.509 59.92
O 52.827 32.964 57.245
O 43.497 40.364 66.479
O 42.353 36.063 66.932
O 62.869 34.55 68.12
O 48.415 31.171 65.467
O 53.432 41.067 61.428
O 53.484 27.803 66.732
O 48.257 27.486 58.081
O 45.496 40.102 58.895
O 47.945 31.018 63.198
O 51.472 40.468 59.169
O 56.145 35.469 68.343
O 47.252 42.258 65.355
O 44.837 41.826 64.612
O 50.076 27.539 66.014
O 50.431 32.206 56.932
O 62.04 34.867 65.062
O 56.197 39.221 61.485
O 57.788 41.35 72.185
O 48.118 33.442 58.998
O 54.289 33.527 70.004
O 49.193 35.31 61.363
O 55.46 34.327 55.566
O 47.896 34.388 72.314
O 49.629 40.119 67.086
O 51.214 45.017 66.751
O 57.834 39.373 65.035
O 54.771 36.225 71.526
O 42.649 37.545 64.368
O 48.289 35.566 64.494
O 61.007 36.409 67.457
O 56.768 37.691 59.228
O 42.12 39.148 62.0
O 59.362 40.431 69.088
O 44.969 37.1 62.414
O 53.773 38.205 67.29
O 58.55 37.607 67.065
O 61.113 32.967 68.549
O 53.99 33.576 63.828
O 47.199 28.08 66.238
O 47.963 30.795 69.007
O 55.198 29.287 61.777
O 52.397 26.998 63.252
O 45.207 35.375 56.94
O 53.958 38.329 59.97
O 44.737 35.929 65.741
O 55.714 36.678 61.742
O 45.865 40.33 61.551
O 48.643 38.698 57.426
O 45.988 33.491 68.871
O 49.64 29.997 58.461
O 50.762 35.421 65.634
O 45.519 31.339 64.045
O 59.258 32.547 63.306
O 45.196 38.262 66.439
O 53.953 30.128 64.256
O 57.452 37.525 70.293
O 45.516 37.064 70.952
O 41.656 30.611 61.007
O 57.039 30.149 60.749
O 60.214 38.647 70.545
O 47.545 24.985 61.083
O 52.395 35.805 68.419
O 48.66 36.122 67.8
O 44.481 39.194 63.317
O 56.777 34.943 65.455
O 52.912 30.404 61.352
O 56.672 34.39 62.816
O 47.348 39.235 63.286
O 49.787 33.289 62.008
O 55.178 36.925 57.186
O 52.092 33.938 60.397
O 55.535 32.102 58.886
O 57.242 30.701 62.901
O 44.227 31.157 68.262
O 47.192 36.49 59.657
O 53.394 41.588 65.588
O 55.253 32.071 61.658
O 50.201 38.684 61.455
O 42.502 38.243 59.304
H 56.1 38.345 59.467
H 57.025 37.942 58.332
H 53.591 39.031 67.757
H 53.964 37.579 67.999
H 57.957 37.187 67.701
H 59.057 38.229 67.601
H 60.416 36.074 66.772
H 61.335 37.24 67.091
H 51.47 34.373 60.993
H 57.0 31.636 62.922
H 57.371 30.477 63.831
H 52.714 33.502 60.993
H 47.776 44.976 64.038
H 55.845 32.865 58.383
H 54.633 31.97 58.569
H 47.872 35.259 65.308
H 48.046 34.895 63.844
H 58.095 39.04 64.167
H 58.331 40.196 65.124
H 58.559 40.156 68.629
H 42.595 39.779 61.443
H 45.245 36.179 62.327
H 44.616 37.317 61.542
H 47.833 31.934 63.482
H 48.406 31.094 62.353
H 49.904 32.808 62.836
H 48.849 33.178 61.809
H 62.05 35.534 64.365
H 62.086 34.031 64.58
H 45.359 39.357 58.297
H 47.844 32.516 58.998
H 48.968 33.429 59.455
H 45.637 40.85 58.301
H 48.208 25.551 60.669
H 56.597 35.234 63.278
H 52.904 30.585 60.403
H 52.039 30.027 61.52
H 56.227 34.55 61.974
H 55.492 39.304 62.139
H 57.003 39.215 62.015
H 50.305 32.227 57.889
H 50.508 31.265 56.732
H 57.205 41.612 71.461
H 53.575 33.178 69.457
H 54.912 33.891 69.363
H 50.827 27.477 65.411
H 49.82 32.925 66.111
H 49.622 33.708 64.825
H 49.316 27.633 65.426
H 52.53 32.303 66.566
H 53.42 33.509 66.321
H 57.442 36.584 70.506
H 56.963 37.931 71.019
H 50.968 31.906 64.534
H 52.2 32.296 63.737
H 52.986 26.258 63.446
H 55.409 28.58 65.025
H 53.264 30.211 63.584
H 54.671 30.676 63.917
H 53.913 41.632 64.775
H 53.498 42.467 65.974
H 51.05 39.992 59.895
H 56.033 36.416 68.494
H 56.957 35.255 68.819
H 55.885 37.096 66.214
H 54.988 35.897 66.47
H 48.721 29.702 58.431
H 49.782 30.212 59.391
H 45.05 35.113 60.411
H 44.592 32.997 60.745
H 44.571 33.751 62.063
H 56.039 41.872 65.516
H 44.181 36.018 59.556
H 48.426 38.737 58.366
H 60.017 32.267 62.779
H 53.953 36.739 71.522
H 55.259 36.565 70.766
H 42.492 38.443 64.05
H 42.161 36.992 63.745
H 54.85 36.491 62.13
H 56.153 37.221 62.409
H 53.142 38.071 60.416
H 53.652 38.812 59.192
H 45.413 35.775 66.413
H 45.173 36.512 65.107
H 60.423 33.577 68.26
H 52.626 33.425 56.421
H 52.2 33.338 57.876
H 48.691 41.07 60.387
H 47.557 40.797 59.414
H 45.662 36.1 57.386
H 47.89 31.934 65.741
H 48.703 30.78 66.301
H 58.698 33.012 62.671
H 53.513 28.761 66.618
H 62.227 34.534 67.4
H 42.204 36.869 66.423
H 41.973 35.369 66.38
H 53.533 40.716 62.322
H 49.419 41.194 70.419
H 48.249 40.248 70.214
H 50.837 40.251 63.411
H 49.553 40.791 64.018
H 55.321 38.348 74.019
H 55.429 36.834 74.045
H 51.148 34.834 66.296
H 49.974 35.771 66.07
H 54.573 33.828 72.175
H 52.521 39.243 64.793
H 53.39 38.923 63.589
H 47.269 40.328 67.592
H 47.312 41.819 67.879
H 53.649 34.799 72.888
H 54.013 33.419 62.875
H 54.784 34.099 63.993
H 52.765 41.037 68.195
H 52.245 42.309 68.841
H 51.929 37.373 63.031
H 50.749 36.722 63.731
H 51.212 33.412 71.506
H 50.598 34.702 72.021
H 46.189 32.325 71.8
H 46.678 31.859 70.44
H 50.767 28.777 62.81
H 49.409 29.231 63.317
H 47.324 27.213 66.643
H 46.755 28.592 66.925
H 51.019 34.888 69.87
H 49.821 34.662 68.965
H 56.366 42.934 69.715
H 47.241 30.174 68.85
H 47.913 31.399 68.255
H 54.409 28.934 62.207
H 55.636 28.504 61.421
H 55.505 32.014 65.921
H 56.576 32.757 65.142
H 54.331 29.329 59.278
H 53.492 28.065 59.341
H 52.129 39.32 69.44
H 51.363 38.285 68.634
H 43.044 38.102 60.091
H 45.832 38.767 66.961
H 44.469 38.102 67.054
H 54.564 32.296 56.072
H 45.48 32.297 63.935
H 45.759 31.017 63.167
H 49.526 38.172 60.992
H 49.77 39.531 61.624
H 48.035 35.373 56.426
H 55.695 32.639 61.015
H 54.878 31.363 61.12
H 47.035 37.138 58.959
H 47.471 35.7 59.177
H 53.013 36.68 65.899
H 49.02 37.241 72.594
H 47.682 37.395 71.891
H 52.112 35.179 62.96
H 53.352 35.79 63.59
H 48.384 33.01 56.811
H 48.027 32.516 55.42
H 41.21 36.493 58.099
H 49.34 42.5 68.394
H 50.423 43.564 68.395
H 49.973 26.864 60.66
H 52.324 36.437 55.326
H 52.0 35.658 56.588
H 53.073 35.545 67.782
H 51.732 36.252 67.878
H 53.424 30.676 57.028
H 52.2 29.777 56.994
H 47.972 28.522 60.423
H 47.772 28.846 61.893
H 50.399 40.626 67.374
H 47.797 35.702 67.91
H 48.57 36.957 68.276
H 49.345 39.66 67.886
H 57.332 35.717 65.296
H 56.898 34.764 66.396
H 55.254 34.72 56.423
H 44.052 39.967 63.705
H 44.709 38.651 64.082
H 48.59 34.673 72.922
H 47.285 33.897 72.878
H 48.236 35.426 61.313
H 49.452 35.86 62.113
H 57.461 29.333 60.452
H 56.515 30.426 59.987
H 53.329 35.15 58.404
H 52.653 36.269 59.176
H 59.073 34.445 65.871
H 60.005 33.488 65.149
H 44.381 35.112 68.241
H 43.726 35.893 69.367
H 45.761 36.165 71.205
H 47.207 37.603 65.381
H 48.108 38.213 66.44
H 55.803 39.296 66.25
H 56.669 38.954 67.45
H 58.055 31.377 66.057
H 57.744 30.165 66.916
H 47.158 41.964 62.824
H 54.405 36.738 56.639
H 54.83 37.484 57.891
H 49.931 38.85 70.502
H 50.969 38.629 71.589
H 55.046 40.983 69.787
H 55.417 41.02 68.315
H 45.897 32.649 68.407
H 46.329 34.09 68.195
H 51.704 37.434 65.739
H 51.326 32.17 68.789
H 49.923 32.415 68.262
H 45.911 41.003 60.86
H 45.156 39.746 61.255
H 57.665 36.007 60.973
H 58.309 34.666 61.273
H 47.465 26.934 63.107
H 47.084 28.068 64.042
H 43.63 30.419 68.086
H 44.152 31.289 69.216
H 50.497 35.722 58.368
H 50.188 34.652 57.334
H 54.362 42.899 68.757
H 54.12 43.83 67.582
H 47.713 39.466 62.423
H 48.074 38.776 63.727
H 43.912 31.371 62.032
H 43.618 30.541 63.269
