51
xyz format
O 55.282 69.903 61.529
O 48.127 70.555 66.133
O 49.134 68.801 64.594
O 49.25 73.189 64.786
O 50.124 71.066 62.912
O 51.441 73.722 65.643
O 56.02 70.466 65.296
O 48.548 71.202 59.898
O 52.154 68.613 63.906
O 54.666 67.197 63.153
O 47.029 71.051 63.464
O 52.356 71.258 64.071
O 51.519 74.229 62.427
O 49.961 72.902 59.884
O 50.457 68.681 61.555
O 53.651 66.875 65.295
O 51.672 68.261 59.316
H 52.734 66.987 65.575
H 50.777 67.808 61.295
H 49.644 68.789 61.046
H 50.888 72.654 59.994
H 46.866 70.1 63.435
H 46.968 71.265 64.403
H 54.647 68.0 63.688
H 53.738 66.938 63.097
H 51.576 73.349 62.034
H 53.04 70.641 64.358
H 51.574 70.98 64.564
H 52.665 68.858 63.124
H 51.627 67.862 63.608
H 56.43 71.189 64.805
H 55.074 70.628 65.196
H 49.267 70.565 59.803
H 48.146 70.97 60.744
H 49.083 70.443 66.059
H 47.788 69.651 66.113
H 54.8 73.438 66.14
H 52.177 73.706 65.018
H 51.226 72.789 65.767
H 46.372 67.988 65.39
H 49.326 68.968 63.663
H 49.913 68.325 64.907
H 51.13 68.268 58.517
H 52.245 69.031 59.21
H 49.272 73.961 65.365
H 48.499 72.678 65.115
H 48.142 71.829 67.926
H 50.769 70.739 62.272
H 49.499 71.566 62.373
H 55.43 70.853 61.437
H 55.388 69.745 62.475
