240
xyz format
O 33.994 67.104 54.839
O 40.58 71.96 51.324
O 41.834 69.645 59.551
O 33.588 72.568 49.856
O 30.685 62.111 51.835
O 32.708 61.385 63.482
O 44.78 72.802 57.887
O 37.82 65.132 59.359
O 37.013 71.187 63.435
O 39.582 63.43 60.735
O 35.527 64.484 62.437
O 39.239 72.091 57.694
O 41.376 64.83 58.256
O 37.736 73.589 59.468
O 39.841 71.263 61.205
O 37.775 60.29 59.145
O 32.782 67.915 58.422
O 39.659 72.374 53.94
O 41.645 65.357 60.377
O 35.516 72.018 57.872
O 31.427 60.912 59.062
O 36.026 71.251 53.232
O 42.154 71.945 60.486
O 40.217 74.827 57.991
O 39.046 75.707 55.203
O 40.433 75.629 51.747
O 36.625 68.739 52.341
O 30.054 65.574 59.418
O 32.843 62.11 56.765
O 29.895 70.243 51.165
O 38.35 61.942 61.796
O 38.248 67.756 61.842
O 32.129 64.169 59.621
O 34.687 59.579 60.557
O 30.135 65.473 56.644
O 29.409 64.522 61.444
O 35.314 65.152 59.461
O 37.86 65.411 53.471
O 29.75 66.513 51.072
O 39.761 69.231 57.438
O 37.459 63.726 63.168
O 34.204 69.5 60.717
O 32.718 71.191 58.814
O 32.416 70.089 49.615
O 42.977 69.149 57.488
O 35.955 69.295 58.382
O 36.687 71.866 49.769
O 37.313 73.439 56.155
O 34.639 70.179 56.839
O 41.672 65.82 55.48
O 43.588 75.185 57.835
O 34.127 65.404 56.244
O 44.778 74.834 55.99
O 32.798 64.958 50.387
O 37.019 62.904 56.579
O 39.893 67.174 52.309
O 34.107 60.949 58.473
O 40.951 70.726 63.494
O 42.982 73.392 53.7
O 27.82 67.286 56.005
O 28.553 66.023 53.282
O 36.171 58.634 61.883
O 34.377 62.425 61.472
O 36.382 62.745 59.865
O 33.973 58.652 63.702
O 27.203 64.702 56.516
O 35.882 67.647 66.446
O 39.358 65.408 61.99
O 35.522 60.678 62.854
O 40.191 69.018 55.291
O 37.406 67.172 63.96
O 34.831 63.241 53.989
O 38.105 64.816 56.457
O 32.056 63.298 53.082
O 33.695 66.003 62.934
O 30.114 62.254 55.04
O 34.128 64.994 52.731
O 32.643 70.762 53.145
O 34.86 72.365 55.699
O 31.202 67.111 60.721
O 32.728 63.924 62.354
O 41.049 76.021 56.058
O 30.183 62.742 64.217
O 37.832 70.091 54.695
O 41.966 73.232 56.525
O 30.045 68.417 54.438
O 39.716 67.168 59.899
O 31.771 65.823 54.513
O 35.559 67.152 51.233
O 31.841 68.853 61.903
O 27.706 62.051 61.204
O 27.628 63.755 58.981
H 32.406 63.661 52.259
H 32.675 63.613 53.753
H 38.742 65.061 57.14
H 37.724 65.66 56.185
H 34.804 62.462 54.558
H 34.685 63.975 54.599
H 32.22 70.367 58.748
H 33.015 71.206 59.733
H 33.146 66.758 63.179
H 35.636 68.397 65.891
H 36.744 67.381 66.102
H 27.444 65.183 57.318
H 37.165 63.032 59.378
H 35.791 62.417 59.176
H 33.703 66.029 61.969
H 34.642 70.333 60.931
H 34.933 68.873 60.632
H 34.813 67.242 50.627
H 36.262 66.79 50.68
H 33.975 61.552 61.382
H 34.188 62.854 60.628
H 36.453 73.853 56.297
H 29.175 65.286 53.228
H 39.072 67.617 59.338
H 40.221 66.626 59.28
H 36.339 63.389 57.065
H 37.611 62.584 57.271
H 34.971 65.48 56.706
H 33.478 65.672 56.907
H 43.135 74.352 58.015
H 44.189 74.387 55.368
H 36.85 63.194 63.695
H 35.393 70.153 56.237
H 37.26 72.62 56.663
H 37.963 64.218 63.828
H 41.425 66.753 55.488
H 31.938 65.247 50.717
H 32.578 64.417 49.618
H 34.24 69.305 56.745
H 35.662 72.094 55.234
H 34.194 72.408 55.001
H 33.184 69.989 52.94
H 32.208 70.524 53.973
H 37.701 68.07 61.112
H 39.072 68.248 61.74
H 29.98 63.546 63.722
H 30.659 62.195 63.579
H 31.706 63.5 60.173
H 32.828 64.524 60.185
H 37.394 62.019 61.679
H 38.447 61.684 62.721
H 31.108 67.518 59.851
H 31.932 66.489 60.605
H 32.541 69.463 62.168
H 31.679 68.331 62.698
H 38.445 70.545 54.104
H 37.445 70.805 55.217
H 32.612 70.661 50.367
H 37.481 66.12 54.005
H 38.426 65.586 62.168
H 39.807 66.203 62.302
H 36.376 60.877 63.258
H 34.899 61.215 63.359
H 35.32 66.01 59.018
H 36.125 71.78 50.549
H 39.384 68.564 55.019
H 40.39 69.599 54.546
H 34.861 64.574 58.835
H 37.308 66.269 64.288
H 36.59 67.327 63.469
H 35.666 70.045 58.918
H 38.851 68.923 57.532
H 29.825 63.652 61.476
H 28.516 64.362 61.774
H 40.289 68.447 57.632
H 36.445 68.744 59.005
H 29.499 64.75 56.577
H 29.791 66.138 56.034
H 34.231 59.196 59.797
H 35.314 60.197 60.16
H 29.239 65.564 58.902
H 30.747 65.647 58.75
H 30.047 70.755 51.969
H 41.434 76.781 55.604
H 41.775 75.684 56.597
H 38.644 75.024 54.652
H 39.303 76.39 54.571
H 40.659 73.98 58.129
H 39.705 74.69 57.184
H 35.828 72.175 53.035
H 30.398 63.0 54.496
H 42.766 71.387 60.982
H 41.695 72.447 61.171
H 31.148 61.79 58.776
H 35.158 70.861 53.398
H 31.902 61.078 59.885
H 27.455 64.121 59.857
H 27.686 62.804 59.137
H 36.207 72.143 58.535
H 34.699 72.047 58.384
H 31.988 64.03 62.965
H 33.491 63.811 62.936
H 41.689 64.541 60.89
H 37.408 69.092 52.781
H 35.931 68.824 53.007
H 40.153 76.046 52.572
H 41.609 66.049 61.049
H 40.362 72.142 54.559
H 39.028 72.864 54.482
H 28.327 62.052 61.944
H 27.092 61.339 61.421
H 39.47 71.074 60.334
H 40.444 70.525 61.362
H 37.664 70.582 63.059
H 40.81 64.448 57.574
H 38.722 71.277 57.657
H 39.444 72.275 56.769
H 30.643 67.838 53.949
H 38.579 73.954 59.171
H 37.079 74.11 58.99
H 37.657 60.541 60.07
H 38.196 61.064 58.75
H 32.447 68.451 57.692
H 33.544 68.413 58.741
H 31.529 65.022 54.994
H 31.281 65.75 53.685
H 39.647 64.193 60.148
H 39.591 62.676 60.132
H 43.237 72.641 54.25
H 42.115 73.644 54.043
H 39.806 68.132 52.396
H 33.723 61.786 58.762
H 35.698 65.117 63.146
H 35.637 65.007 61.633
H 44.458 72.812 56.977
H 41.193 73.543 56.038
H 42.145 72.365 56.14
H 32.692 60.565 63.992
H 32.906 62.061 64.142
H 34.573 67.535 55.48
H 33.65 67.836 54.312
H 40.053 72.667 50.93
H 37.423 65.225 60.234
H 37.65 65.984 58.938
H 33.612 65.555 53.324
H 34.242 65.539 51.942
H 40.879 69.573 59.427
H 42.129 68.727 59.59
