373
xyz format
O 68.359 43.086 54.523
O 71.279 56.117 59.229
O 69.831 48.448 45.987
O 67.345 48.817 50.344
O 67.066 54.338 55.681
O 66.077 51.943 48.352
O 72.191 52.326 56.892
O 70.947 50.65 59.738
O 64.723 51.009 61.033
O 70.082 54.827 62.669
O 72.346 50.641 55.342
O 73.432 53.05 59.428
O 65.032 58.193 53.772
O 71.921 50.145 46.021
O 71.41 61.627 54.881
O 70.887 45.059 49.576
O 75.05 43.422 56.897
O 65.816 54.329 48.2
O 68.807 50.74 45.586
O 64.804 52.153 55.074
O 65.525 52.671 44.585
O 71.0 53.484 60.153
O 73.877 61.721 48.033
O 68.506 46.737 47.887
O 73.858 46.883 49.56
O 71.535 55.489 64.188
O 73.65 44.463 53.985
O 64.999 55.127 54.17
O 74.299 42.512 49.231
O 72.95 56.414 62.771
O 72.411 52.339 63.983
O 70.928 59.159 53.705
O 77.402 45.196 48.195
O 72.837 46.478 52.5
O 73.702 51.787 42.779
O 64.897 49.875 54.136
O 67.535 49.778 57.797
O 69.161 52.654 63.008
O 71.719 61.327 50.7
O 71.488 52.678 41.931
O 74.32 57.188 47.452
O 67.307 52.029 56.754
O 67.53 55.478 44.629
O 74.985 54.128 52.411
O 67.36 55.888 52.61
O 66.814 46.949 52.976
O 69.466 49.221 48.582
O 67.82 55.291 60.46
O 71.85 55.05 56.796
O 65.57 48.977 59.756
O 67.853 48.054 64.624
O 75.769 51.269 43.95
O 69.19 46.171 62.472
O 68.628 50.902 61.299
O 66.957 52.591 60.533
O 75.243 50.565 51.292
O 74.787 49.243 53.663
O 67.303 47.911 62.304
O 70.148 55.109 49.272
O 76.358 53.895 56.06
O 73.252 44.143 46.298
O 72.953 61.649 53.31
O 73.251 53.982 43.039
O 72.649 63.494 60.053
O 68.523 55.167 58.358
O 67.002 54.671 50.022
O 76.421 51.178 53.86
O 67.902 52.872 64.805
O 76.504 56.359 40.716
O 64.779 53.145 50.193
O 70.507 57.39 55.906
O 71.943 43.874 48.046
O 69.945 53.596 43.675
O 68.608 48.549 53.638
O 68.57 43.342 51.808
O 65.009 47.781 61.968
O 70.629 47.112 60.062
O 72.137 58.897 57.441
O 74.753 53.486 46.525
O 68.991 57.036 50.856
O 70.023 49.895 51.219
O 69.991 57.299 61.878
O 75.801 45.695 54.783
O 75.517 46.397 47.702
O 67.75 51.667 53.748
O 68.911 55.426 42.911
O 69.56 50.759 56.025
O 71.422 63.771 56.513
O 76.744 54.034 43.285
O 77.2 42.696 46.561
O 69.005 60.911 52.108
O 74.359 48.141 43.669
O 70.24 45.853 51.53
O 66.43 57.417 59.538
O 65.642 54.338 58.112
O 74.079 55.06 50.382
O 77.352 53.775 48.095
O 72.893 43.61 51.991
O 74.704 55.139 41.297
O 74.251 59.744 57.75
O 65.142 57.127 57.36
O 65.126 53.966 60.897
O 75.681 57.295 52.075
O 70.116 53.973 46.542
O 66.21 44.838 51.374
O 72.054 48.658 62.695
O 70.297 61.437 59.632
O 75.907 56.241 55.375
O 70.268 63.435 54.333
O 72.47 48.32 50.95
O 74.87 54.001 57.937
O 70.421 51.212 48.57
O 68.875 57.428 53.018
O 71.703 56.515 48.601
O 64.165 52.322 52.887
O 64.109 55.729 48.859
O 73.767 52.484 50.24
O 67.033 59.107 48.538
O 75.155 50.796 56.369
O 70.004 49.552 62.361
O 72.686 51.383 52.983
O 76.695 48.033 50.154
O 73.18 56.033 53.525
O 71.047 54.057 50.982
O 68.467 53.516 52.803
O 67.718 48.593 55.697
O 77.75 52.351 50.696
O 69.717 60.399 49.481
O 73.844 53.827 55.999
O 71.166 47.902 54.0
O 65.242 50.684 64.256
O 67.769 53.237 47.772
O 74.303 54.582 63.514
O 74.053 56.966 60.125
O 78.252 47.606 46.734
O 71.739 54.065 53.176
O 76.871 52.568 39.797
O 72.488 59.353 48.668
O 75.367 45.411 43.859
O 69.593 60.828 55.83
O 75.293 42.702 45.464
O 66.843 50.424 62.784
O 73.03 60.867 61.177
H 69.06 44.009 51.312
H 68.945 42.506 51.501
H 75.325 43.618 45.768
H 68.939 48.313 52.763
H 69.013 49.408 53.812
H 72.377 48.871 50.162
H 72.949 48.885 51.568
H 75.629 56.232 54.451
H 76.818 55.924 55.343
H 71.036 53.802 46.303
H 70.036 54.932 46.47
H 76.369 56.662 52.318
H 74.87 56.891 52.409
H 72.0 43.571 52.357
H 73.363 42.907 52.456
H 74.553 55.919 41.845
H 74.166 55.302 40.512
H 77.554 54.625 48.506
H 76.926 53.274 48.802
H 74.4 58.791 57.712
H 73.758 59.867 58.571
H 74.211 57.164 59.193
H 74.827 54.617 58.679
H 75.335 53.237 58.301
H 74.718 57.492 60.587
H 69.825 51.744 48.029
H 71.287 51.36 48.169
H 69.766 52.788 44.173
H 76.742 45.818 54.607
H 75.623 46.3 55.513
H 65.97 53.7 58.758
H 66.384 54.943 57.991
H 70.089 54.26 44.36
H 74.964 45.681 48.038
H 75.905 46.781 48.498
H 70.449 56.87 61.144
H 69.26 57.764 61.452
H 74.856 54.73 49.913
H 73.391 55.074 49.704
H 65.182 51.421 64.877
H 70.676 47.072 54.053
H 71.105 48.146 53.068
H 70.148 50.728 55.261
H 69.895 50.061 56.601
H 75.8 54.094 43.094
H 76.777 53.912 44.242
H 70.285 48.967 51.162
H 69.229 49.943 50.672
H 70.839 53.188 51.346
H 70.473 54.656 51.476
H 68.705 53.405 51.874
H 69.144 54.116 53.142
H 68.362 56.811 50.159
H 69.655 57.57 50.402
H 67.029 51.297 54.273
H 68.449 51.82 54.396
H 77.533 47.888 50.611
H 76.25 48.696 50.696
H 73.335 51.695 53.625
H 73.092 51.583 52.131
H 73.174 60.784 52.943
H 73.58 54.732 43.551
H 72.865 54.392 42.255
H 70.452 54.417 48.671
H 69.555 55.641 48.727
H 67.096 47.097 62.78
H 67.63 47.602 61.451
H 74.005 48.677 53.685
H 74.884 49.535 54.578
H 75.849 50.918 50.628
H 75.259 51.229 51.992
H 69.19 49.035 62.324
H 69.731 47.321 60.346
H 71.158 47.242 60.859
H 74.366 52.985 47.253
H 75.491 53.953 46.935
H 71.336 58.417 57.684
H 72.117 58.902 56.476
H 77.289 53.676 55.93
H 75.968 53.761 55.187
H 70.39 49.436 61.484
H 73.416 44.686 45.517
H 72.897 43.321 45.935
H 68.396 55.824 57.662
H 71.921 48.044 63.428
H 72.69 49.295 63.043
H 69.213 54.591 58.007
H 73.088 62.717 59.685
H 66.576 59.367 47.728
H 66.873 53.794 50.404
H 66.197 55.147 50.262
H 78.627 48.492 46.663
H 70.542 61.183 58.734
H 77.452 47.736 47.259
H 76.9 56.124 41.565
H 72.345 56.221 47.943
H 72.248 56.917 49.289
H 76.989 50.626 53.307
H 76.95 51.971 54.011
H 70.252 56.608 56.411
H 71.012 57.031 55.165
H 75.919 54.076 52.17
H 74.787 53.247 52.75
H 67.686 55.121 45.512
H 67.088 52.116 57.69
H 66.706 51.342 56.441
H 67.706 53.109 60.213
H 66.88 51.877 59.887
H 75.821 51.259 56.893
H 74.492 50.535 57.02
H 76.311 51.716 43.288
H 75.245 51.981 44.336
H 69.046 51.4 60.586
H 68.095 50.243 60.836
H 73.709 55.305 53.876
H 73.42 56.781 54.086
H 67.538 47.394 65.254
H 65.953 48.365 59.116
H 66.27 49.093 60.41
H 67.575 48.893 65.012
H 69.222 57.308 53.91
H 71.213 54.634 56.201
H 68.832 58.387 52.916
H 72.351 55.639 56.219
H 67.216 55.298 61.214
H 72.084 50.153 56.133
H 72.394 49.961 54.658
H 74.357 52.238 49.517
H 73.021 52.905 49.795
H 69.472 54.975 61.935
H 69.505 54.782 63.441
H 69.732 48.338 48.869
H 68.506 49.158 48.507
H 68.119 56.207 60.398
H 65.026 51.987 52.605
H 73.685 57.913 47.514
H 75.176 57.634 47.441
H 66.85 56.557 52.137
H 67.838 55.427 51.91
H 68.281 49.169 57.868
H 67.4 50.082 58.703
H 71.761 60.374 50.845
H 68.326 52.746 62.532
H 70.969 51.131 65.325
H 69.812 52.525 62.307
H 66.627 51.237 62.31
H 66.166 49.801 62.491
H 73.572 45.885 52.301
H 72.72 46.386 53.454
H 65.63 49.662 54.727
H 64.164 50.056 54.737
H 73.659 51.524 41.852
H 73.275 51.058 43.245
H 72.422 56.343 61.966
H 73.459 57.223 62.641
H 78.35 45.31 48.334
H 77.185 44.418 48.724
H 70.082 45.803 62.448
H 69.276 46.943 63.044
H 72.973 51.768 63.445
H 71.763 52.681 63.354
H 71.718 58.864 54.175
H 70.251 59.192 54.392
H 64.753 54.345 53.661
H 65.39 55.715 53.511
H 74.552 44.165 53.814
H 73.506 44.242 54.913
H 74.59 43.247 48.677
H 72.868 61.705 61.628
H 70.159 60.835 48.742
H 69.162 59.734 49.055
H 74.146 43.549 57.211
H 75.506 44.225 57.18
H 70.174 44.494 49.253
H 70.63 45.943 49.285
H 73.087 53.702 55.414
H 74.171 52.93 56.146
H 70.042 53.4 60.241
H 71.306 53.576 61.063
H 68.535 46.485 48.818
H 71.866 54.828 64.808
H 70.887 55.984 64.705
H 78.506 52.471 50.108
H 66.855 48.367 56.066
H 67.685 49.554 55.608
H 77.999 51.592 51.238
H 69.542 46.328 51.998
H 70.928 46.519 51.406
H 73.985 48.837 43.115
H 69.178 60.112 51.594
H 68.608 60.579 52.922
H 65.448 53.984 47.377
H 69.201 51.56 45.909
H 69.015 50.741 44.643
H 65.551 52.758 54.992
H 64.289 52.521 55.802
H 66.269 52.248 45.031
H 70.896 61.318 54.125
H 71.913 60.848 55.151
H 66.452 54.994 47.907
H 68.082 53.198 46.86
H 68.379 53.852 48.198
H 73.319 53.762 60.07
H 73.384 52.248 59.964
H 70.42 48.277 46.732
H 70.601 56.477 58.644
H 71.976 56.785 59.21
H 67.464 53.913 54.911
H 67.695 54.16 56.391
H 67.306 48.652 51.294
H 66.6 49.41 50.183
H 70.958 49.858 59.188
H 71.469 51.287 59.235
H 72.309 49.888 46.867
H 71.002 50.341 46.24
H 74.512 47.335 50.108
H 73.653 46.083 50.059
H 66.084 51.876 47.389
H 66.789 51.354 48.629
H 75.288 45.596 44.803
H 68.955 60.123 56.0
H 70.176 60.799 56.598
H 72.327 60.021 47.99
H 71.608 59.162 49.015
H 71.652 53.226 53.646
H 71.439 54.72 53.819
H 72.713 51.77 57.485
H 71.674 52.878 57.491
H 74.686 55.38 63.897
H 74.946 54.318 62.844
