47
xyz format
O 57.164 67.559 68.051
O 57.344 71.035 68.34
O 60.909 67.098 67.833
O 57.278 73.401 62.757
O 55.562 72.896 65.901
O 59.342 70.725 66.173
O 56.02 70.466 65.296
O 57.848 68.567 65.353
O 56.971 65.614 66.749
O 59.414 68.975 68.099
O 61.686 69.979 63.938
O 59.336 67.61 69.825
O 54.649 69.424 67.89
H 54.149 67.425 65.912
H 53.767 69.815 67.938
H 55.134 70.025 67.311
H 54.133 67.289 68.108
H 58.743 66.85 69.774
H 59.645 67.599 70.739
H 53.04 70.641 64.358
H 61.624 70.939 64.02
H 62.023 69.697 64.797
H 56.43 71.189 64.805
H 55.074 70.628 65.196
H 60.125 69.121 67.462
H 59.556 69.661 68.762
H 57.431 68.095 64.621
H 57.958 69.464 65.015
H 57.431 65.266 67.523
H 56.054 65.69 67.042
H 60.03 70.511 65.531
H 59.695 71.492 66.641
H 55.602 72.235 66.603
H 54.8 73.438 66.14
H 52.177 73.706 65.018
H 58.617 66.427 65.431
H 57.433 72.716 62.095
H 57.466 72.959 63.594
H 61.87 67.106 67.741
H 60.635 66.331 67.315
H 56.761 70.383 68.748
H 57.204 70.908 67.394
H 54.933 68.466 70.029
H 58.904 67.373 63.154
H 56.407 67.997 67.641
H 57.841 67.579 67.363
H 55.388 69.745 62.475
