121
xyz format
Na 47.489 37.29 62.212
O 52.341 36.905 65.243
O 57.743 30.466 65.999
O 58.247 35.569 61.606
O 56.165 27.563 59.504
O 53.036 35.388 62.771
O 50.982 37.216 62.935
O 55.782 32.223 65.02
O 53.238 39.604 64.257
O 50.461 40.554 64.247
O 58.683 30.544 58.511
O 51.524 32.665 64.318
O 55.207 36.551 65.795
O 53.39 32.551 66.205
O 60.895 35.423 60.618
O 59.092 34.199 59.255
O 56.86 30.496 57.245
O 56.197 39.221 61.485
O 49.193 35.31 61.363
O 49.629 40.119 67.086
O 48.289 35.566 64.494
O 56.768 37.691 59.228
O 53.773 38.205 67.29
O 53.99 33.576 63.828
O 55.198 29.287 61.777
O 53.958 38.329 59.97
O 55.714 36.678 61.742
O 50.762 35.421 65.634
O 59.258 32.547 63.306
O 53.953 30.128 64.256
O 57.039 30.149 60.749
O 56.777 34.943 65.455
O 52.912 30.404 61.352
O 56.672 34.39 62.816
O 47.348 39.235 63.286
O 49.787 33.289 62.008
O 52.092 33.938 60.397
O 55.535 32.102 58.886
O 57.242 30.701 62.901
O 53.394 41.588 65.588
O 55.253 32.071 61.658
O 50.201 38.684 61.455
H 56.1 38.345 59.467
H 53.964 37.579 67.999
H 51.47 34.373 60.993
H 57.0 31.636 62.922
H 57.371 30.477 63.831
H 52.714 33.502 60.993
H 55.845 32.865 58.383
H 54.633 31.97 58.569
H 48.046 34.895 63.844
H 49.904 32.808 62.836
H 48.849 33.178 61.809
H 56.597 35.234 63.278
H 52.904 30.585 60.403
H 56.227 34.55 61.974
H 55.492 39.304 62.139
H 57.003 39.215 62.015
H 52.53 32.303 66.566
H 53.42 33.509 66.321
H 59.342 30.368 59.195
H 58.577 31.504 58.538
H 50.968 31.906 64.534
H 52.2 32.296 63.737
H 51.593 42.329 61.416
H 53.264 30.211 63.584
H 54.671 30.676 63.917
H 53.913 41.632 64.775
H 51.05 39.992 59.895
H 48.426 38.737 58.366
H 60.017 32.267 62.779
H 54.85 36.491 62.13
H 56.153 37.221 62.409
H 53.142 38.071 60.416
H 58.939 35.152 59.222
H 48.691 41.07 60.387
H 61.142 34.778 61.292
H 60.454 36.12 61.119
H 58.698 33.012 62.671
H 53.533 40.716 62.322
H 57.322 28.484 62.899
H 50.837 40.251 63.411
H 49.553 40.791 64.018
H 51.148 34.834 66.296
H 49.974 35.771 66.07
H 52.521 39.243 64.793
H 53.39 38.923 63.589
H 54.013 33.419 62.875
H 54.784 34.099 63.993
H 51.929 37.373 63.031
H 50.749 36.722 63.731
H 54.409 28.934 62.207
H 55.636 28.504 61.421
H 55.505 32.014 65.921
H 56.576 32.757 65.142
H 54.331 29.329 59.278
H 54.564 32.296 56.072
H 49.526 38.172 60.992
H 49.77 39.531 61.624
H 55.695 32.639 61.015
H 54.878 31.363 61.12
H 53.013 36.68 65.899
H 52.112 35.179 62.96
H 53.352 35.79 63.59
H 53.073 35.545 67.782
H 51.732 36.252 67.878
H 57.332 35.717 65.296
H 56.898 34.764 66.396
H 48.236 35.426 61.313
H 49.452 35.86 62.113
H 57.461 29.333 60.452
H 56.515 30.426 59.987
H 52.653 36.269 59.176
H 60.005 33.488 65.149
H 58.055 31.377 66.057
H 51.704 37.434 65.739
H 57.665 36.007 60.973
H 58.309 34.666 61.273
H 56.469 27.993 58.695
H 47.713 39.466 62.423
H 48.074 38.776 63.727
