69
xyz format
O 50.845 32.383 67.979
O 52.341 36.905 65.243
O 50.543 34.192 69.4
O 47.782 37.364 66.119
O 48.148 36.832 72.522
O 51.588 39.224 68.646
O 50.889 33.83 72.315
O 55.442 37.586 73.44
O 53.641 33.982 72.375
O 55.207 36.551 65.795
O 49.349 33.687 65.75
O 53.39 32.551 66.205
O 47.634 38.818 73.778
O 56.145 35.469 68.343
O 54.289 33.527 70.004
O 47.896 34.388 72.314
O 54.771 36.225 71.526
O 53.773 38.205 67.29
O 58.55 37.607 67.065
O 50.762 35.421 65.634
O 57.452 37.525 70.293
O 45.516 37.064 70.952
O 52.395 35.805 68.419
O 48.66 36.122 67.8
O 56.777 34.943 65.455
H 53.964 37.579 67.999
H 57.957 37.187 67.701
H 47.872 35.259 65.308
H 47.343 39.736 73.844
H 53.575 33.178 69.457
H 54.912 33.891 69.363
H 49.82 32.925 66.111
H 52.53 32.303 66.566
H 53.42 33.509 66.321
H 57.442 36.584 70.506
H 56.963 37.931 71.019
H 50.968 31.906 64.534
H 56.033 36.416 68.494
H 56.957 35.255 68.819
H 54.988 35.897 66.47
H 53.953 36.739 71.522
H 55.259 36.565 70.766
H 55.321 38.348 74.019
H 51.148 34.834 66.296
H 49.974 35.771 66.07
H 54.573 33.828 72.175
H 53.649 34.799 72.888
H 51.212 33.412 71.506
H 50.598 34.702 72.021
H 46.189 32.325 71.8
H 51.019 34.888 69.87
H 49.821 34.662 68.965
H 47.913 31.399 68.255
H 51.363 38.285 68.634
H 53.013 36.68 65.899
H 49.02 37.241 72.594
H 47.682 37.395 71.891
H 53.073 35.545 67.782
H 51.732 36.252 67.878
H 47.797 35.702 67.91
H 48.57 36.957 68.276
H 56.898 34.764 66.396
H 48.59 34.673 72.922
H 47.285 33.897 72.878
H 47.207 37.603 65.381
H 48.108 38.213 66.44
H 51.704 37.434 65.739
H 51.326 32.17 68.789
H 49.923 32.415 68.262
