56
xyz format
O 31.745 65.226 35.258
O 33.571 60.472 32.065
O 32.508 60.595 30.112
O 36.922 62.85 34.472
O 33.615 62.512 33.947
O 35.277 59.994 30.358
O 34.412 62.958 30.545
O 35.041 64.222 34.011
O 35.254 60.288 36.134
O 31.361 60.244 34.288
O 33.747 62.702 36.677
O 29.41 58.085 34.515
O 31.295 58.776 31.78
O 31.129 63.323 33.11
O 35.423 61.272 34.117
O 33.038 56.375 30.754
O 35.059 57.15 28.243
O 29.251 62.415 35.392
O 31.325 60.57 36.467
O 36.132 57.776 33.006
H 34.764 60.575 34.009
H 35.759 61.41 33.223
H 30.842 62.633 32.5
H 31.678 63.899 32.563
H 30.821 59.229 31.071
H 31.987 58.287 31.317
H 29.321 58.526 35.369
H 36.211 60.16 30.536
H 35.26 59.762 29.421
H 36.206 60.265 35.973
H 30.871 61.025 34.002
H 30.929 59.518 33.821
H 33.055 63.03 36.09
H 34.397 62.319 36.074
H 30.595 56.373 33.112
H 33.497 63.048 30.838
H 34.923 63.048 31.359
H 35.579 64.437 33.239
H 34.19 64.637 33.82
H 29.046 62.154 34.486
H 30.196 62.615 35.364
H 31.405 64.426 35.679
H 31.481 57.862 35.968
H 35.414 57.95 32.385
H 33.479 62.718 33.014
H 32.852 61.967 34.175
H 36.872 62.404 35.326
H 33.332 61.058 29.913
H 32.657 59.705 29.771
H 32.672 60.473 32.417
H 33.889 59.58 32.252
H 31.262 61.334 37.055
H 31.403 59.822 37.072
H 35.227 57.038 29.187
H 33.504 56.707 31.532
H 32.178 56.106 31.099
