257
xyz format
Cl 62.646 58.926 60.688
O 63.168 58.198 58.623
O 59.509 53.567 70.493
O 62.038 56.92 63.279
O 52.342 61.133 68.723
O 66.925 61.162 65.676
O 58.796 59.374 64.961
O 55.515 65.421 64.893
O 67.1 66.698 63.22
O 56.1 64.089 69.08
O 64.954 62.354 66.872
O 64.423 56.929 66.829
O 56.041 56.892 75.006
O 57.164 67.559 68.051
O 61.128 58.983 57.055
O 56.871 54.921 68.371
O 60.909 67.098 67.833
O 61.224 67.401 63.609
O 61.826 62.956 59.73
O 57.996 62.756 72.8
O 59.315 59.568 71.552
O 56.806 65.979 70.41
O 63.319 59.946 67.882
O 62.184 60.764 71.62
O 59.054 65.661 65.039
O 67.461 64.799 62.139
O 56.347 56.773 69.443
O 62.87 59.15 73.204
O 64.268 53.989 62.977
O 60.838 65.916 69.691
O 67.848 60.506 61.688
O 60.777 65.268 60.86
O 57.848 68.567 65.353
O 56.971 65.614 66.749
O 64.113 56.623 64.676
O 56.551 62.57 64.886
O 59.414 68.975 68.099
O 58.954 55.719 71.991
O 64.364 61.958 70.047
O 59.051 56.579 63.042
O 63.967 57.638 61.957
O 62.059 55.315 65.918
O 66.727 55.814 66.239
O 54.183 62.051 70.321
O 61.481 62.579 66.845
O 66.554 56.94 69.479
O 64.283 66.522 62.313
O 60.761 57.636 74.462
O 54.925 60.006 67.785
O 61.59 60.384 58.908
O 63.496 63.416 65.077
O 59.691 61.441 58.761
O 69.354 58.359 68.053
O 60.418 62.155 72.505
O 59.336 67.61 69.825
O 61.23 55.035 60.138
O 61.329 57.219 66.991
O 58.174 58.5 75.385
O 66.43 57.417 59.538
O 62.029 62.718 69.551
O 68.558 59.38 65.557
O 57.734 62.056 70.046
O 59.26 56.624 70.009
O 61.479 55.336 74.924
O 58.291 55.897 65.975
O 65.142 57.127 57.36
O 55.395 58.188 65.856
O 68.87 65.363 64.414
O 58.262 65.909 72.617
O 60.908 65.06 71.969
O 54.031 61.468 65.908
O 59.831 58.823 61.169
O 55.106 54.612 70.907
O 54.29 59.603 71.774
O 65.587 59.325 64.57
O 57.663 61.028 61.846
O 63.215 53.304 68.294
O 67.575 63.471 65.438
O 58.313 64.255 69.655
O 57.144 58.857 72.231
O 67.231 58.478 62.253
O 55.033 62.941 73.36
O 58.791 66.438 62.945
O 60.544 60.771 65.385
O 56.957 60.557 66.723
O 59.477 54.624 67.64
O 62.406 59.781 62.749
O 62.105 55.706 69.222
O 62.641 65.124 62.733
O 60.517 60.802 70.185
O 62.754 63.941 71.446
O 59.188 61.6 68.093
O 69.996 63.107 63.519
O 58.454 57.81 67.415
O 63.848 61.673 60.101
O 62.08 57.686 71.165
H 53.972 60.508 71.883
H 54.331 59.265 72.677
H 60.765 60.61 69.273
H 60.007 61.619 70.117
H 62.854 64.196 62.576
H 62.469 65.163 63.682
H 64.232 62.862 64.789
H 62.767 63.143 64.506
H 60.056 59.601 61.693
H 60.56 58.213 61.339
H 62.719 56.111 68.596
H 61.247 55.79 68.788
H 68.182 63.056 60.003
H 56.07 57.841 65.259
H 54.717 58.532 65.261
H 64.32 57.358 56.909
H 59.461 57.353 69.409
H 59.131 55.871 69.42
H 57.06 61.458 70.391
H 57.393 62.312 69.18
H 60.06 61.316 64.752
H 61.469 60.991 65.217
H 57.709 60.843 66.19
H 56.236 60.492 66.085
H 59.214 56.161 66.07
H 57.892 56.63 65.489
H 60.68 55.175 74.407
H 62.165 55.456 74.256
H 55.61 59.365 68.012
H 55.16 60.785 68.304
H 55.163 62.128 72.856
H 55.644 62.852 74.101
H 61.213 59.53 59.155
H 61.466 58.1 67.362
H 61.037 57.394 66.088
H 61.853 60.771 59.753
H 57.531 57.983 72.369
H 56.279 58.667 71.848
H 64.888 62.586 69.535
H 65.023 61.354 70.412
H 61.118 61.948 73.137
H 59.787 61.434 72.618
H 58.645 57.378 63.401
H 59.622 55.961 72.644
H 58.123 55.784 72.478
H 64.537 56.985 62.382
H 64.323 58.483 62.257
H 58.653 60.802 68.194
H 67.229 63.617 64.548
H 59.541 61.528 67.198
H 68.411 63.014 65.286
H 58.743 66.85 69.774
H 59.645 67.599 70.739
H 70.264 63.766 62.868
H 69.532 62.442 62.995
H 62.402 62.354 66.66
H 61.187 63.022 66.039
H 55.074 62.366 70.123
H 60.314 65.808 71.83
H 60.312 64.305 72.047
H 53.116 61.725 65.74
H 54.534 62.268 65.71
H 68.679 65.919 65.18
H 61.089 57.27 73.631
H 69.812 65.17 64.501
H 60.001 58.167 74.194
H 57.952 66.693 72.146
H 58.196 65.205 71.959
H 64.703 65.728 61.959
H 64.922 66.85 62.959
H 66.901 56.671 68.619
H 67.237 56.532 65.843
H 66.277 55.411 65.487
H 62.814 55.358 66.518
H 61.335 55.016 66.482
H 64.117 54.942 63.002
H 56.645 63.529 64.834
H 57.38 62.238 64.52
H 66.497 57.947 62.587
H 67.664 58.799 63.054
H 67.911 61.044 62.487
H 57.431 68.095 64.621
H 57.958 69.464 65.015
H 67.643 61.229 66.318
H 67.381 61.124 64.826
H 57.431 65.266 67.523
H 61.784 65.986 69.867
H 60.71 64.981 69.492
H 61.659 64.884 60.784
H 60.303 64.644 61.423
H 56.054 65.69 67.042
H 63.613 57.432 64.843
H 65.017 56.934 64.543
H 64.26 62.545 60.131
H 63.907 61.36 61.012
H 62.022 59.262 73.651
H 63.419 59.851 73.576
H 63.815 60.55 68.449
H 62.593 59.649 68.444
H 56.608 57.143 70.296
H 55.385 56.856 69.442
H 57.545 57.758 67.735
H 66.043 58.754 65.201
H 65.026 59.88 65.126
H 58.774 58.649 67.769
H 66.939 64.946 61.34
H 59.979 65.771 65.29
H 58.617 66.427 65.431
H 62.74 57.302 71.756
H 61.258 57.255 71.429
H 62.219 59.88 71.233
H 63.111 61.026 71.68
H 61.967 67.83 63.167
H 56.409 66.776 70.037
H 56.227 65.76 71.15
H 58.911 63.894 70.322
H 58.793 64.133 68.827
H 60.988 66.68 63.012
H 57.141 63.05 72.464
H 59.174 58.723 71.107
H 63.467 63.314 71.624
H 63.205 64.691 71.04
H 58.297 63.497 73.341
H 58.654 60.149 71.156
H 61.87 67.106 67.741
H 60.635 66.331 67.315
H 56.266 65.635 64.325
H 55.381 64.665 69.368
H 55.838 63.822 68.19
H 57.481 55.567 67.994
H 57.453 54.248 68.745
H 63.928 57.532 67.396
H 64.937 56.399 67.451
H 62.339 62.131 68.849
H 62.394 63.578 69.308
H 68.912 59.551 64.675
H 68.209 58.483 65.494
H 57.799 58.226 74.539
H 58.231 59.461 75.311
H 58.904 67.373 63.154
H 58.471 66.443 62.035
H 65.092 61.399 66.876
H 65.707 62.697 67.369
H 59.286 54.093 66.857
H 59.66 53.968 68.323
H 58.999 58.527 65.378
H 59.295 59.347 64.135
H 63.808 53.811 67.725
H 62.391 53.27 67.792
H 58.032 60.418 62.498
H 52.395 61.348 67.784
H 53.046 60.486 68.851
H 56.61 56.379 74.418
H 63.011 57.332 59.021
H 64.079 58.402 58.868
H 62.101 56.541 62.394
H 61.184 57.37 63.276
H 59.305 52.73 70.928
H 60.101 54.01 71.115
H 61.728 59.697 63.43
H 62.875 60.589 62.99
