152
xyz format
O 44.405 25.896 53.398
O 46.962 28.622 48.728
O 46.513 21.896 52.613
O 51.588 31.083 47.566
O 50.95 28.337 43.547
O 43.992 24.817 43.626
O 44.202 27.859 45.228
O 41.933 22.698 53.335
O 50.454 25.739 52.124
O 51.161 26.738 42.04
O 46.422 21.704 45.745
O 50.584 26.564 44.804
O 49.805 28.0 47.394
O 50.526 21.845 51.272
O 49.429 23.459 53.394
O 41.243 25.537 53.974
O 45.694 27.633 55.38
O 50.034 26.616 50.135
O 51.808 28.999 46.82
O 49.581 27.309 55.104
O 44.88 26.431 50.601
O 44.863 22.647 50.426
O 55.794 25.778 50.403
O 44.636 25.056 56.7
O 49.573 23.219 44.03
O 51.875 28.909 52.896
O 51.853 26.252 55.552
O 52.252 26.546 47.882
O 41.244 23.022 47.716
O 55.036 26.209 47.893
O 46.899 27.467 43.896
O 51.592 21.91 48.687
O 49.115 29.342 52.206
O 42.168 23.661 50.343
O 49.399 30.812 46.976
O 49.364 22.466 47.364
O 45.389 24.214 46.521
O 52.97 23.888 49.165
O 45.719 26.103 47.764
O 47.465 26.388 51.066
O 47.533 29.619 44.772
O 48.361 21.726 49.178
O 52.751 26.909 50.263
O 55.208 24.706 45.187
O 46.534 29.376 53.219
O 46.211 24.74 52.907
O 47.02 23.857 43.015
O 42.5 24.114 45.083
O 50.354 29.0 50.421
O 42.278 26.575 47.445
O 49.208 24.979 48.276
O 48.103 25.227 44.433
O 44.814 22.78 53.756
O 46.704 23.572 48.165
H 52.229 26.425 54.68
H 49.946 24.844 47.668
H 48.46 25.156 47.693
H 45.088 24.902 45.916
H 44.671 24.144 47.164
H 50.785 28.831 49.574
H 50.552 29.928 50.597
H 49.836 30.31 46.277
H 49.249 31.678 46.577
H 49.02 28.392 52.065
H 41.653 24.371 50.746
H 42.829 24.128 49.817
H 51.964 27.973 53.115
H 40.628 23.668 48.083
H 41.62 22.595 48.497
H 48.708 23.078 47.008
H 49.919 22.256 46.603
H 51.429 26.447 47.387
H 52.933 26.28 47.251
H 47.868 21.221 49.837
H 48.961 22.267 49.706
H 48.046 29.282 45.516
H 50.397 23.651 44.288
H 49.044 23.235 44.837
H 45.265 24.938 55.978
H 43.776 24.94 56.277
H 52.682 24.639 49.699
H 53.595 24.276 48.54
H 55.001 25.444 49.966
H 44.675 26.15 49.7
H 45.33 27.276 50.48
H 48.958 26.974 54.447
H 50.311 27.654 54.574
H 44.388 22.332 51.206
H 45.598 23.154 50.794
H 46.602 26.488 47.83
H 48.352 25.421 45.345
H 48.901 25.431 43.929
H 46.298 26.898 55.214
H 46.236 28.416 55.22
H 44.881 23.582 54.288
H 45.159 22.09 54.336
H 52.035 28.241 46.267
H 52.585 29.114 47.381
H 47.376 26.935 51.857
H 48.144 25.746 51.306
H 49.281 26.998 49.666
H 50.587 26.26 49.429
H 45.171 26.838 47.462
H 41.265 26.484 53.785
H 41.787 25.449 54.766
H 42.525 28.901 54.632
H 49.843 21.174 51.4
H 51.226 21.373 50.803
H 48.932 24.282 53.303
H 49.129 22.927 52.646
H 46.848 24.07 52.628
H 46.758 25.417 53.325
H 52.085 26.787 50.951
H 53.584 26.932 50.751
H 46.664 30.171 52.689
H 49.317 28.62 47.95
H 49.275 27.194 47.43
H 42.074 26.448 48.38
H 42.27 25.679 47.085
H 50.907 21.291 48.403
H 51.447 22.684 48.129
H 46.66 22.61 48.098
H 46.879 23.728 49.101
H 55.412 25.324 47.808
H 55.101 26.572 47.001
H 46.155 27.987 44.224
H 47.448 27.333 44.679
H 51.929 26.603 42.61
H 50.451 26.269 42.496
H 50.762 24.828 52.212
H 50.4 26.051 53.036
H 46.897 23.468 43.89
H 46.537 23.261 42.429
H 44.5 26.951 45.37
H 43.576 28.009 45.947
H 42.021 22.86 52.387
H 42.181 23.541 53.735
H 46.788 22.583 45.902
H 45.627 21.876 45.225
H 51.367 28.795 42.807
H 50.529 29.046 44.049
H 41.919 24.392 44.364
H 50.576 25.762 45.341
H 50.147 27.219 45.363
H 47.284 28.164 49.514
H 46.002 28.599 48.826
H 43.824 26.508 52.929
H 46.975 21.743 51.779
H 47.226 21.996 53.255
H 44.022 25.85 54.283
H 44.221 24.388 42.793
H 44.233 25.741 43.482
