71
xyz format
O 51.588 31.083 47.566
O 50.95 28.337 43.547
O 51.196 35.963 47.241
O 48.456 35.872 42.962
O 56.87 35.399 44.55
O 51.48 32.473 41.063
O 51.824 37.156 49.573
O 55.129 36.91 43.964
O 50.48 34.18 45.073
O 51.711 31.118 44.052
O 47.945 32.418 44.203
O 54.465 34.504 47.404
O 55.289 33.409 42.936
O 49.786 37.1 44.85
O 49.204 29.958 42.136
O 55.014 28.877 45.193
O 53.489 32.314 44.844
O 55.254 30.614 43.803
O 47.533 29.619 44.772
O 55.573 31.175 47.996
O 50.61 37.205 41.65
O 49.269 31.904 40.95
O 55.361 32.467 39.741
H 53.294 33.171 44.446
H 53.085 32.371 45.719
H 51.435 32.043 44.034
H 52.404 31.073 43.382
H 49.249 31.678 46.577
H 48.783 32.128 43.821
H 47.797 31.798 44.928
H 49.937 30.48 42.488
H 54.472 29.544 45.633
H 54.378 28.197 44.938
H 55.982 32.894 42.504
H 55.441 33.255 43.877
H 54.206 34.766 46.511
H 54.999 33.712 47.265
H 50.337 36.391 44.496
H 50.347 37.882 44.781
H 54.667 31.45 48.187
H 56.093 31.973 48.154
H 54.874 36.839 43.035
H 55.095 37.858 44.139
H 51.43 34.243 44.913
H 50.133 33.812 44.251
H 48.044 29.348 43.999
H 57.448 34.359 47.28
H 54.746 31.224 43.254
H 55.881 30.217 43.185
H 55.955 35.762 48.482
H 52.039 32.992 41.655
H 51.703 31.559 41.281
H 56.703 33.753 49.394
H 48.764 35.235 42.304
H 57.267 36.254 44.34
H 56.33 35.582 45.329
H 56.012 32.904 40.305
H 55.369 31.552 40.048
H 51.804 35.761 46.518
H 50.389 36.242 46.791
H 52.585 29.114 47.381
H 58.003 29.767 43.55
H 52.29 36.446 49.113
H 50.894 36.908 49.493
H 50.166 37.357 42.493
H 57.998 37.461 46.6
H 51.169 30.556 48.257
H 52.053 31.773 48.054
H 51.367 28.795 42.807
H 50.529 29.046 44.049
H 48.355 31.774 41.229
