419
xyz format
O 48.262 50.179 24.401
O 43.478 37.536 32.884
O 58.357 42.165 32.213
O 48.185 35.974 28.931
O 46.433 36.815 32.932
O 54.182 49.336 31.495
O 51.415 41.073 23.372
O 45.733 48.509 31.953
O 49.594 50.321 28.425
O 56.201 49.297 25.156
O 48.66 49.362 33.595
O 43.128 47.633 32.968
O 50.527 39.15 25.125
O 50.528 47.952 30.327
O 43.6 42.791 24.648
O 46.529 42.063 30.219
O 57.432 47.613 30.077
O 48.59 41.912 23.242
O 57.072 33.539 31.857
O 48.833 45.132 36.582
O 55.212 42.13 23.332
O 51.83 45.651 25.741
O 52.045 39.375 30.216
O 53.178 41.818 24.845
O 50.118 37.717 31.113
O 51.38 53.206 23.962
O 51.574 51.153 22.552
O 51.575 36.828 28.335
O 42.509 44.712 31.816
O 54.64 43.574 28.561
O 54.477 39.43 31.777
O 46.756 45.28 28.776
O 56.201 37.356 33.457
O 49.397 39.75 27.915
O 51.147 34.915 30.093
O 48.387 53.642 30.03
O 55.405 31.812 29.065
O 55.162 34.673 29.893
O 54.553 45.898 25.157
O 58.175 43.39 27.245
O 44.636 45.743 30.719
O 44.369 38.201 36.674
O 43.966 42.991 35.457
O 58.09 35.819 32.365
O 54.967 41.777 33.958
O 47.96 41.069 32.132
O 39.352 44.169 24.83
O 46.725 33.153 29.228
O 54.32 47.556 22.265
O 57.692 43.331 24.311
O 46.728 32.307 32.048
O 54.612 33.24 33.528
O 49.502 35.804 24.964
O 44.294 43.052 29.815
O 51.131 41.219 32.423
O 51.35 55.173 22.684
O 50.827 43.883 30.833
O 53.405 46.384 31.076
O 44.903 46.984 25.397
O 55.965 34.98 26.51
O 41.846 41.941 31.692
O 51.857 36.584 25.087
O 54.767 42.662 30.575
O 48.498 54.113 21.474
O 49.416 51.428 30.997
O 49.677 47.318 35.392
O 52.511 51.435 24.703
O 43.707 32.264 28.121
O 49.291 43.846 24.583
O 41.037 47.328 30.485
O 58.318 47.048 25.715
O 49.978 42.608 26.311
O 48.183 38.292 34.342
O 48.646 40.269 30.2
O 42.205 43.697 34.264
O 45.106 43.419 27.047
O 46.137 41.844 36.528
O 46.113 50.098 34.367
O 44.267 51.138 30.976
O 41.266 46.155 26.218
O 47.999 38.989 38.43
O 50.811 39.306 35.772
O 49.447 41.421 34.204
O 46.963 45.185 32.225
O 47.291 39.979 35.984
O 45.346 46.34 35.392
O 49.004 35.151 31.673
O 49.714 30.505 29.533
O 53.813 34.429 26.364
O 47.394 50.357 29.947
O 60.189 41.505 24.371
O 50.68 48.841 22.118
O 47.657 43.455 34.18
O 53.987 37.131 25.152
O 43.35 36.09 35.489
O 49.626 32.68 30.746
O 51.229 50.341 30.39
O 44.749 49.803 27.586
O 54.628 39.041 26.229
O 44.893 51.368 25.879
O 50.591 53.675 28.484
O 49.847 44.732 33.838
O 50.742 28.711 31.832
O 44.661 39.923 34.84
O 51.156 42.059 28.588
O 54.387 53.321 24.297
O 53.624 44.997 22.491
O 49.239 55.616 23.884
O 41.364 43.526 26.576
O 51.379 33.053 28.417
O 39.405 45.462 29.705
O 40.099 40.717 33.761
O 46.917 49.355 21.679
O 46.743 41.184 28.097
O 49.387 46.449 23.492
O 45.648 52.248 27.755
O 47.799 36.232 36.156
O 41.847 39.375 30.151
O 44.234 33.826 30.943
O 47.028 45.182 25.768
O 50.148 46.313 31.866
O 54.949 31.345 31.683
O 55.535 41.724 27.054
O 49.833 37.065 33.547
O 56.961 38.662 30.581
O 49.153 52.077 26.007
O 44.806 43.652 32.61
O 52.134 35.937 34.778
O 48.298 43.553 28.503
O 46.627 52.684 24.989
O 42.65 40.602 34.256
O 46.994 38.6 31.771
O 51.482 44.896 22.983
O 46.208 40.407 33.329
O 52.876 52.59 28.746
O 48.858 46.918 28.19
O 46.329 41.858 25.392
O 58.439 45.375 30.012
O 57.972 36.134 28.287
O 46.121 34.438 36.228
O 47.77 49.6 26.866
O 52.559 49.22 28.088
O 42.973 49.986 33.639
O 45.291 39.253 26.091
O 42.271 46.033 28.182
O 47.893 39.234 23.908
O 56.58 44.706 27.996
O 46.348 51.833 31.199
O 47.9 47.945 25.418
O 44.126 45.483 23.225
O 51.804 48.349 33.324
H 53.636 44.038 22.602
H 56.951 45.537 28.32
H 55.869 44.987 27.407
H 49.558 54.738 24.128
H 49.736 56.208 24.461
H 51.593 42.395 29.38
H 50.918 41.154 28.824
H 54.671 53.832 23.529
H 55.107 53.437 24.929
H 54.356 45.301 23.042
H 44.658 40.253 35.747
H 45.254 39.162 34.875
H 52.92 51.905 25.441
H 51.648 51.174 25.048
H 52.456 48.412 28.606
H 52.64 49.912 28.756
H 45.898 38.863 25.449
H 45.783 40.004 26.444
H 41.865 45.587 28.936
H 41.872 46.912 28.194
H 43.441 50.145 32.81
H 44.026 49.252 27.262
H 44.518 49.966 28.509
H 42.071 43.704 25.944
H 41.503 44.186 27.267
H 45.992 34.926 35.406
H 53.668 39.076 26.316
H 54.832 39.785 25.648
H 48.272 48.931 27.349
H 46.929 49.641 27.338
H 51.33 49.833 31.204
H 51.625 51.195 30.602
H 46.345 42.774 36.374
H 45.915 49.214 34.7
H 45.49 50.214 33.639
H 57.145 36.626 28.214
H 40.627 45.882 25.548
H 42.022 46.462 25.703
H 58.359 36.205 27.405
H 51.296 39.825 35.118
H 50.709 38.443 35.35
H 54.813 36.69 25.387
H 54.24 37.722 24.431
H 44.083 35.898 34.891
H 47.109 41.678 24.852
H 45.609 41.894 24.749
H 50.011 33.116 31.516
H 48.713 32.992 30.738
H 47.284 44.243 34.593
H 47.0 43.21 33.517
H 50.14 41.675 34.826
H 48.653 41.374 34.751
H 47.736 45.464 31.719
H 46.405 44.749 31.569
H 44.201 51.511 30.088
H 44.008 51.868 31.552
H 49.212 46.859 34.682
H 48.853 30.728 29.908
H 49.622 30.73 28.598
H 49.847 35.341 32.104
H 47.855 40.472 36.593
H 46.603 39.614 36.554
H 48.735 36.003 31.309
H 44.993 45.627 34.845
H 50.287 43.511 31.541
H 51.717 43.896 31.206
H 52.707 36.655 35.077
H 46.628 33.055 31.447
H 46.819 31.548 31.458
H 52.046 35.375 35.558
H 51.454 45.86 22.929
H 51.209 44.608 22.103
H 52.555 45.927 31.089
H 53.538 46.594 30.143
H 42.851 40.006 33.524
H 43.073 41.431 34.0
H 51.979 55.457 22.009
H 51.821 55.32 23.514
H 57.002 43.728 24.857
H 44.403 42.766 27.152
H 57.5 42.386 24.35
H 45.014 43.04 31.893
H 44.538 43.074 33.335
H 45.138 43.571 26.094
H 44.368 31.779 28.631
H 58.379 46.281 25.132
H 47.322 38.686 34.153
H 48.728 39.047 34.6
H 60.056 45.313 23.936
H 40.903 47.07 31.405
H 41.992 47.256 30.363
H 50.037 43.601 24.022
H 48.572 43.996 23.956
H 47.943 40.065 29.57
H 48.953 36.416 25.47
H 50.076 35.407 25.631
H 51.567 40.729 33.131
H 51.717 41.972 32.272
H 55.038 33.313 32.665
H 44.521 43.712 29.147
H 44.499 42.212 29.385
H 49.428 52.561 25.218
H 49.639 51.245 25.946
H 50.448 43.264 26.84
H 50.682 42.154 25.831
H 48.814 41.209 30.06
H 56.059 41.682 26.245
H 41.967 43.302 33.416
H 54.623 41.719 26.737
H 42.759 41.648 31.801
H 41.511 41.387 30.976
H 50.491 53.277 29.358
H 50.785 54.601 28.675
H 49.201 44.623 33.129
H 50.345 43.905 33.824
H 42.733 44.467 34.018
H 51.755 37.098 25.898
H 52.239 35.751 25.39
H 53.029 53.793 26.565
H 55.474 42.056 30.321
H 54.938 42.835 31.509
H 48.498 46.796 23.639
H 49.258 45.76 22.829
H 48.407 36.911 36.473
H 48.01 35.464 36.701
H 49.718 52.325 31.185
H 49.549 50.962 31.832
H 44.415 46.302 25.875
H 44.994 47.695 26.044
H 56.639 35.587 26.18
H 56.4 34.53 27.244
H 53.401 47.477 22.549
H 54.822 47.455 23.083
H 46.969 34.082 29.32
H 47.165 32.88 28.414
H 46.911 51.768 25.101
H 54.998 34.016 30.58
H 55.717 35.33 30.331
H 48.844 44.269 28.154
H 48.764 42.754 28.226
H 56.724 38.148 29.799
H 56.486 39.493 30.462
H 48.493 40.315 32.415
H 48.556 41.821 32.232
H 54.16 41.795 33.428
H 55.673 41.745 33.3
H 43.853 42.287 36.108
H 47.777 38.067 31.583
H 46.67 38.849 30.896
H 38.924 44.967 24.498
H 43.706 43.789 35.935
H 38.728 43.466 24.61
H 51.203 32.68 27.544
H 50.969 32.423 29.022
H 49.386 46.896 31.974
H 50.014 45.92 30.994
H 40.581 40.135 33.16
H 53.101 42.325 24.028
H 53.299 40.91 24.542
H 39.691 41.366 33.174
H 43.838 46.062 30.279
H 47.569 48.648 21.594
H 47.347 50.113 21.263
H 54.283 45.711 26.065
H 46.605 42.136 28.021
H 47.455 41.005 27.47
H 55.354 45.373 25.043
H 44.533 46.048 31.63
H 54.53 31.738 29.468
H 56.002 31.863 29.822
H 46.424 51.79 27.409
H 58.001 42.606 26.709
H 58.305 44.089 26.592
H 49.061 38.865 28.104
H 50.121 39.593 27.296
H 55.524 37.566 32.801
H 56.797 38.114 33.423
H 50.378 35.052 29.525
H 51.894 34.977 29.485
H 46.669 46.07 29.324
H 46.541 44.558 29.38
H 54.016 38.605 31.582
H 54.388 39.94 30.962
H 44.984 45.769 23.564
H 43.498 45.832 23.87
H 50.981 48.114 32.878
H 52.423 48.501 32.599
H 54.092 44.364 28.644
H 53.998 42.854 28.516
H 41.867 45.079 31.196
H 43.002 44.074 31.285
H 50.79 37.047 33.426
H 49.658 36.298 34.107
H 52.427 37.28 28.391
H 50.987 37.494 27.959
H 51.095 51.526 21.802
H 52.381 50.801 22.156
H 45.83 41.287 33.447
H 45.565 39.953 32.77
H 50.037 38.419 31.77
H 49.607 38.044 30.362
H 50.628 52.948 23.414
H 52.133 53.147 23.361
H 48.822 46.358 28.975
H 48.088 46.643 27.677
H 46.184 41.467 30.895
H 47.172 42.603 30.695
H 52.107 52.079 28.464
H 56.54 47.509 30.429
H 57.293 47.728 29.129
H 47.173 47.468 25.837
H 48.688 47.476 25.723
H 51.692 44.702 25.628
H 51.078 46.048 25.283
H 48.286 38.365 23.76
H 48.332 39.551 24.707
H 51.501 38.866 29.602
H 52.596 39.918 29.639
H 46.015 52.735 31.29
H 60.844 40.963 24.828
H 50.608 48.626 21.179
H 50.069 49.58 22.231
H 59.402 41.43 24.925
H 53.632 34.943 27.16
H 53.023 33.885 26.257
H 46.897 49.637 29.538
H 47.823 49.939 30.703
H 49.095 41.464 23.931
H 48.529 41.255 22.537
H 57.751 44.791 30.355
H 58.846 44.86 29.305
H 42.982 48.102 32.137
H 42.252 47.607 33.373
H 49.172 51.166 28.627
H 49.445 49.795 29.22
H 55.79 48.976 24.344
H 44.487 33.043 30.439
H 43.587 37.82 33.8
H 42.632 37.071 32.887
H 48.61 36.834 28.819
H 47.625 35.893 28.149
H 57.491 41.793 32.003
H 43.263 42.23 23.939
H 44.054 43.503 24.181
H 41.12 39.175 29.548
H 51.401 38.985 24.749
H 50.094 38.289 25.083
H 51.45 47.744 30.522
H 42.596 39.532 29.563
H 50.468 47.849 29.369
H 47.921 45.427 25.495
H 47.163 44.402 26.321
H 49.037 49.627 24.564
H 48.41 48.755 32.888
H 55.332 41.664 24.169
H 55.355 43.056 23.563
H 53.486 49.532 30.855
H 49.054 44.705 37.419
H 51.061 41.912 23.053
H 52.08 40.839 22.712
H 49.595 44.943 36.021
H 57.098 33.439 30.897
H 57.731 32.907 32.171
H 47.851 49.776 23.626
H 45.945 36.067 32.566
H 45.742 37.399 33.267
H 45.723 49.277 31.369
H 46.085 47.803 31.397
