42
xyz format
O 62.6 75.297 45.88
O 58.364 75.563 50.245
O 53.628 73.72 48.648
O 57.623 74.74 46.43
O 52.317 76.433 49.131
O 56.691 74.124 48.591
O 51.514 77.722 47.032
O 59.356 75.058 43.986
O 53.935 77.88 46.843
O 54.32 75.359 50.973
O 56.987 77.517 49.447
O 60.291 76.047 46.643
O 57.024 77.2 46.115
O 53.652 74.914 46.798
H 57.793 76.989 46.659
H 61.584 73.065 45.693
H 56.287 76.808 46.598
H 54.199 75.697 46.938
H 54.243 74.299 46.346
H 59.986 76.905 46.961
H 59.121 75.27 44.899
H 60.205 74.606 44.067
H 60.258 75.486 47.428
H 54.737 78.285 47.196
H 54.149 77.719 45.916
H 50.702 78.027 46.608
H 51.876 77.085 46.402
H 59.195 72.653 43.837
H 56.351 74.74 49.252
H 56.973 72.866 50.432
H 51.25 75.321 47.561
H 57.643 74.118 48.751
H 58.39 74.212 46.684
H 57.183 74.199 45.762
H 53.298 74.452 49.184
H 59.545 73.052 50.147
H 58.76 76.434 50.37
H 58.498 75.126 51.096
H 56.297 77.277 48.816
H 57.727 77.783 48.888
H 62.021 75.811 45.303
H 63.383 75.14 45.338
