96
xyz format
O 55.282 69.903 61.529
O 52.342 61.133 68.723
O 58.796 59.374 64.961
O 55.515 65.421 64.893
O 56.1 64.089 69.08
O 52.85 63.112 63.59
O 57.164 67.559 68.051
O 59.054 65.661 65.039
O 53.677 64.195 67.324
O 57.848 68.567 65.353
O 56.971 65.614 66.749
O 56.551 62.57 64.886
O 52.648 62.02 61.581
O 52.154 68.613 63.906
O 54.183 62.051 70.321
O 54.925 60.006 67.785
O 54.666 67.197 63.153
O 53.56 66.679 68.589
O 52.026 64.899 71.153
O 57.734 62.056 70.046
O 54.649 69.424 67.89
O 55.395 58.188 65.856
O 54.031 61.468 65.908
O 53.651 66.875 65.295
O 57.663 61.028 61.846
O 50.522 60.756 60.53
O 58.313 64.255 69.655
O 58.791 66.438 62.945
O 60.544 60.771 65.385
O 56.957 60.557 66.723
O 60.517 60.802 70.185
O 59.188 61.6 68.093
H 52.734 66.987 65.575
H 54.149 67.425 65.912
H 60.765 60.61 69.273
H 60.007 61.619 70.117
H 53.767 69.815 67.938
H 55.134 70.025 67.311
H 56.07 57.841 65.259
H 54.717 58.532 65.261
H 51.996 59.137 61.81
H 57.06 61.458 70.391
H 57.393 62.312 69.18
H 60.06 61.316 64.752
H 57.709 60.843 66.19
H 56.236 60.492 66.085
H 55.61 59.365 68.012
H 55.16 60.785 68.304
H 56.552 65.032 61.658
H 55.399 66.0 61.459
H 54.133 67.289 68.108
H 54.013 66.558 69.433
H 58.653 60.802 68.194
H 59.541 61.528 67.198
H 54.647 68.0 63.688
H 53.738 66.938 63.097
H 52.619 61.279 60.963
H 52.599 62.796 61.009
H 55.074 62.366 70.123
H 53.617 62.596 69.76
H 53.116 61.725 65.74
H 54.534 62.268 65.71
H 52.665 68.858 63.124
H 51.627 67.862 63.608
H 56.645 63.529 64.834
H 57.38 62.238 64.52
H 52.881 63.885 66.875
H 54.28 64.407 66.601
H 57.431 68.095 64.621
H 57.431 65.266 67.523
H 56.054 65.69 67.042
H 55.385 56.856 69.442
H 57.545 57.758 67.735
H 58.774 58.649 67.769
H 58.617 66.427 65.431
H 56.409 66.776 70.037
H 56.761 70.383 68.748
H 54.803 65.234 64.269
H 56.266 65.635 64.325
H 55.381 64.665 69.368
H 55.838 63.822 68.19
H 52.309 64.108 70.678
H 52.63 65.584 70.84
H 54.933 68.466 70.029
H 53.454 63.496 64.238
H 52.442 63.882 63.174
H 58.999 58.527 65.378
H 59.295 59.347 64.135
H 50.577 61.345 59.767
H 58.032 60.418 62.498
H 52.395 61.348 67.784
H 53.046 60.486 68.851
H 57.47 61.822 62.359
H 56.407 67.997 67.641
H 57.841 67.579 67.363
H 55.388 69.745 62.475
