94
xyz format
Cl 61.242 67.541 41.063
O 64.212 71.388 37.674
O 62.353 69.968 37.194
O 61.382 64.936 39.073
O 63.17 64.233 36.155
O 59.172 64.393 37.053
O 63.709 72.529 40.911
O 58.935 67.608 35.436
O 60.002 66.629 37.379
O 63.74 64.362 40.428
O 65.254 67.849 39.795
O 59.556 70.163 37.566
O 67.719 68.723 45.768
O 62.671 68.238 35.244
O 69.275 66.517 41.447
O 66.681 69.218 37.259
O 65.593 68.66 46.358
O 64.38 67.73 37.299
O 67.714 67.655 42.698
O 65.461 65.494 37.627
O 65.235 70.63 41.03
O 66.095 62.975 38.981
O 64.667 68.385 43.334
O 65.072 65.336 34.765
O 64.806 66.687 44.858
O 61.496 69.725 39.274
O 58.818 70.08 34.572
O 67.687 70.179 41.156
O 68.166 63.878 37.838
O 62.618 64.824 43.263
O 57.965 71.691 37.41
O 63.598 66.9 42.117
O 60.253 71.74 39.196
O 61.195 72.648 42.534
O 68.592 70.168 44.357
H 64.137 69.148 43.599
H 65.576 68.695 43.425
H 62.082 65.622 43.184
H 65.275 63.232 38.542
H 63.39 68.156 32.134
H 61.978 67.628 32.32
H 67.308 64.303 37.714
H 67.562 70.805 40.432
H 67.777 70.744 41.934
H 61.913 70.167 40.024
H 61.795 68.811 39.351
H 65.037 65.601 33.837
H 64.338 65.815 35.168
H 64.365 66.198 44.152
H 65.728 66.722 44.572
H 61.827 72.163 41.989
H 67.656 68.619 42.709
H 67.621 67.41 43.627
H 65.031 70.162 41.849
H 65.544 69.932 40.439
H 65.816 65.74 38.49
H 64.528 65.318 37.804
H 65.06 68.767 45.561
H 69.817 67.1 41.993
H 68.918 65.879 42.078
H 60.052 72.41 38.531
H 60.957 72.143 39.721
H 57.035 71.458 37.297
H 58.272 71.855 36.51
H 63.332 67.905 34.624
H 62.099 68.79 34.695
H 65.473 64.901 42.436
H 67.782 67.857 46.191
H 67.774 69.343 46.506
H 66.483 69.902 37.911
H 66.988 68.474 37.792
H 59.072 70.06 38.395
H 59.377 69.341 37.092
H 60.785 67.186 37.284
H 59.447 67.117 37.999
H 59.844 67.753 35.145
H 69.139 69.404 44.134
H 68.942 70.872 43.796
H 64.562 67.26 39.469
H 63.481 63.787 39.697
H 64.027 65.173 39.991
H 65.917 67.247 40.155
H 63.758 67.144 36.849
H 65.219 67.557 36.855
H 63.648 72.153 37.503
H 64.306 70.975 36.806
H 62.696 64.292 35.316
H 64.421 66.674 41.668
H 63.334 67.733 41.708
H 63.522 71.803 40.303
H 64.069 73.219 40.34
H 62.208 65.305 38.734
H 61.63 69.355 37.015
H 62.022 70.814 36.868
