26
xyz format
O 50.497 72.618 35.691
O 49.414 73.68 39.114
O 45.906 73.678 35.492
O 49.054 74.551 35.064
O 46.897 71.322 34.432
O 45.055 71.826 36.919
O 45.857 68.714 34.18
O 47.592 70.041 36.215
H 47.127 69.197 36.155
H 46.954 70.625 36.644
H 45.103 69.201 33.826
H 52.202 71.296 35.264
H 47.045 73.464 38.102
H 49.958 74.725 35.354
H 48.65 74.111 35.822
H 46.679 71.867 33.666
H 47.859 71.372 34.483
H 44.655 72.699 37.014
H 44.369 71.306 36.482
H 46.169 74.17 34.704
H 46.681 73.138 35.694
H 50.175 74.014 38.623
H 51.549 72.323 38.319
H 53.385 72.853 36.272
H 50.192 72.747 36.598
H 49.718 72.28 35.233
