62
xyz format
O 48.479 61.247 49.622
O 59.139 60.722 52.596
O 48.185 65.582 49.733
O 54.545 65.38 49.164
O 49.436 65.964 51.511
O 50.096 62.503 52.401
O 51.385 60.879 53.472
O 54.912 63.025 55.92
O 55.779 60.703 52.103
O 52.149 60.996 55.772
O 54.5 64.222 51.801
O 57.776 62.291 50.856
O 55.221 57.942 52.735
O 58.02 64.553 53.514
O 50.798 67.973 52.906
O 56.798 62.435 53.25
O 52.588 64.842 52.716
O 56.23 60.142 49.067
O 53.609 61.002 51.89
O 49.277 63.91 50.661
H 56.147 60.79 55.611
H 50.802 66.306 49.114
H 57.103 61.787 53.898
H 56.321 63.084 53.782
H 57.875 61.335 50.763
H 57.255 62.544 50.084
H 51.275 63.505 49.019
H 58.654 64.099 52.945
H 57.326 64.834 52.905
H 54.384 58.423 52.746
H 55.575 58.119 51.855
H 54.723 63.373 51.399
H 54.654 64.078 52.743
H 52.488 63.967 53.113
H 52.763 65.417 53.471
H 55.739 61.186 51.269
H 56.524 60.1 51.984
H 50.258 58.952 54.765
H 58.307 62.937 55.86
H 55.573 62.913 56.614
H 54.46 62.172 55.894
H 52.079 60.238 53.273
H 50.588 60.476 53.105
H 50.432 63.388 52.587
H 50.477 62.289 51.54
H 50.3 65.569 51.686
H 49.258 66.485 52.304
H 52.033 60.087 55.468
H 54.804 64.451 49.113
H 54.671 65.602 50.095
H 54.764 62.503 47.821
H 51.194 67.527 52.147
H 59.181 61.305 53.363
H 58.535 60.022 52.872
H 50.077 68.005 50.313
H 57.278 55.714 51.718
H 48.572 63.425 51.108
H 49.2 63.63 49.741
H 53.106 61.386 51.161
H 53.736 61.742 52.497
H 56.685 59.743 49.819
H 55.298 60.112 49.32
