214
xyz format
O 26.849 60.057 54.334
O 30.685 62.111 51.835
O 32.708 61.385 63.482
O 37.82 65.132 59.359
O 31.491 59.184 57.652
O 28.313 61.186 64.264
O 25.545 57.242 53.404
O 37.741 56.897 68.277
O 27.03 56.027 62.615
O 35.527 64.484 62.437
O 37.602 63.398 67.675
O 24.853 62.174 53.682
O 31.672 61.262 66.672
O 32.782 67.915 58.422
O 36.647 56.414 65.243
O 31.547 56.696 55.17
O 34.465 56.317 67.248
O 31.427 60.912 59.062
O 28.664 61.178 56.943
O 30.054 65.574 59.418
O 38.772 59.287 62.177
O 32.843 62.11 56.765
O 38.35 61.942 61.796
O 32.129 64.169 59.621
O 34.687 59.579 60.557
O 30.135 65.473 56.644
O 27.349 60.726 52.297
O 31.792 59.233 68.141
O 29.409 64.522 61.444
O 33.071 56.098 65.026
O 35.314 65.152 59.461
O 37.459 63.726 63.168
O 26.615 54.378 57.226
O 29.765 56.726 68.14
O 34.127 65.404 56.244
O 37.019 62.904 56.579
O 34.107 60.949 58.473
O 37.689 60.247 64.995
O 24.858 59.765 52.328
O 27.82 67.286 56.005
O 35.661 60.035 66.811
O 28.553 66.023 53.282
O 36.171 58.634 61.883
O 34.377 62.425 61.472
O 36.382 62.745 59.865
O 26.198 57.436 59.973
O 33.973 58.652 63.702
O 27.203 64.702 56.516
O 39.358 65.408 61.99
O 35.522 60.678 62.854
O 37.406 67.172 63.96
O 32.056 63.298 53.082
O 34.279 58.0 56.305
O 27.778 54.359 59.092
O 33.695 66.003 62.934
O 30.114 62.254 55.04
O 31.733 59.795 54.694
O 27.727 63.301 54.51
O 26.172 65.533 53.707
O 34.723 62.614 67.073
O 24.417 57.124 57.337
O 31.202 67.111 60.721
O 32.728 63.924 62.354
O 30.183 62.742 64.217
O 28.119 58.058 51.151
O 30.045 68.417 54.438
O 31.771 65.823 54.513
O 38.013 59.058 66.887
O 25.51 60.993 57.648
O 27.915 63.368 51.704
O 36.74 60.665 55.989
O 27.613 57.48 65.702
O 31.841 68.853 61.903
O 27.706 62.051 61.204
O 28.419 58.854 61.089
O 27.274 56.449 55.15
O 27.133 58.615 57.404
O 27.628 63.755 58.981
H 32.406 63.661 52.259
H 32.675 63.613 53.753
H 33.146 66.758 63.179
H 34.915 58.446 63.734
H 33.853 59.043 62.828
H 26.745 65.363 55.981
H 27.444 65.183 57.318
H 37.165 63.032 59.378
H 35.791 62.417 59.176
H 33.703 66.029 61.969
H 27.748 55.321 59.153
H 34.222 58.802 56.839
H 33.928 57.313 56.884
H 27.156 57.344 59.901
H 26.034 58.346 59.698
H 33.975 61.552 61.382
H 34.188 62.854 60.628
H 38.817 58.546 67.044
H 37.822 59.454 67.747
H 28.382 66.109 54.229
H 29.175 65.286 53.228
H 35.825 57.749 61.713
H 36.752 58.801 61.131
H 35.113 59.276 66.571
H 35.69 60.0 67.775
H 36.339 63.389 57.065
H 34.971 65.48 56.706
H 33.478 65.672 56.907
H 36.85 63.194 63.695
H 30.03 56.033 68.758
H 30.538 56.837 67.573
H 37.963 64.218 63.828
H 29.98 63.546 63.722
H 30.659 62.195 63.579
H 31.706 63.5 60.173
H 32.828 64.524 60.185
H 37.394 62.019 61.679
H 38.447 61.684 62.721
H 23.905 57.597 58.004
H 24.81 56.391 57.828
H 31.108 67.518 59.851
H 31.932 66.489 60.605
H 32.541 69.463 62.168
H 31.679 68.331 62.698
H 38.426 65.586 62.168
H 36.376 60.877 63.258
H 34.899 61.215 63.359
H 27.438 62.786 55.274
H 28.415 63.876 54.867
H 34.292 61.837 67.452
H 35.631 62.322 66.924
H 35.32 66.01 59.018
H 30.772 59.786 54.785
H 31.921 59.004 54.174
H 34.861 64.574 58.835
H 37.308 66.269 64.288
H 36.59 67.327 63.469
H 29.825 63.652 61.476
H 28.516 64.362 61.774
H 28.145 61.271 52.337
H 33.726 56.785 64.851
H 26.927 60.996 51.471
H 29.499 64.75 56.577
H 31.197 59.608 68.801
H 31.227 59.103 67.369
H 29.791 66.138 56.034
H 34.231 59.196 59.797
H 35.314 60.197 60.16
H 38.038 59.528 62.755
H 29.239 65.564 58.902
H 30.747 65.647 58.75
H 33.281 61.758 55.981
H 32.153 62.682 56.405
H 27.677 58.605 51.812
H 26.583 60.985 54.341
H 27.286 59.936 55.186
H 26.377 65.455 52.767
H 26.008 64.623 53.983
H 30.001 62.64 55.917
H 30.398 63.0 54.496
H 31.148 61.79 58.776
H 28.287 62.039 57.164
H 29.286 61.008 57.661
H 31.902 61.078 59.885
H 27.235 57.712 57.73
H 27.773 59.119 57.922
H 27.455 64.121 59.857
H 27.686 62.804 59.137
H 28.333 58.122 65.73
H 27.543 57.174 66.615
H 27.911 56.781 55.795
H 28.046 59.464 60.44
H 29.184 59.329 61.436
H 36.98 57.28 64.976
H 35.864 56.289 64.692
H 31.988 64.03 62.965
H 33.491 63.811 62.936
H 28.327 62.052 61.944
H 27.092 61.339 61.421
H 28.074 62.111 64.13
H 27.688 60.705 63.707
H 32.505 60.778 66.724
H 31.536 61.384 65.725
H 29.492 68.809 53.751
H 30.643 67.838 53.949
H 32.447 68.451 57.692
H 33.544 68.413 58.741
H 31.529 65.022 54.994
H 31.281 65.75 53.685
H 28.188 68.061 55.564
H 28.119 67.378 56.918
H 25.663 59.242 52.432
H 37.063 60.892 65.348
H 33.723 61.786 58.762
H 34.669 61.199 57.728
H 37.144 59.468 64.825
H 35.698 65.117 63.146
H 35.637 65.007 61.633
H 25.873 57.821 54.103
H 26.523 55.882 61.806
H 36.923 64.019 67.967
H 32.692 60.565 63.992
H 32.906 62.061 64.142
H 31.043 61.398 52.38
H 29.978 62.481 52.379
H 30.901 58.516 57.281
H 31.708 59.743 56.896
H 37.423 65.225 60.234
H 37.65 65.984 58.938
H 37.738 62.83 68.443
H 24.723 63.006 53.209
H 24.111 61.628 53.395
H 25.018 60.163 57.638
H 26.257 60.824 57.061
H 27.048 63.16 52.074
H 27.929 64.333 51.685
