53
xyz format
O 41.21 27.671 39.253
O 39.813 27.995 42.506
O 36.8 31.274 41.013
O 38.696 30.883 43.229
O 35.931 26.726 42.591
O 32.659 27.394 46.023
O 33.023 29.487 44.649
O 41.94 30.858 40.636
O 42.281 26.555 37.613
O 39.064 29.864 40.771
O 38.546 26.21 42.283
O 43.763 27.608 39.38
O 43.006 29.024 43.006
O 36.862 29.017 39.224
O 33.196 27.686 43.251
O 36.563 28.234 45.843
O 34.032 28.321 40.078
O 34.415 30.797 42.537
O 42.198 26.308 42.487
H 34.976 30.389 41.866
H 33.55 30.85 42.111
H 42.93 26.565 41.912
H 41.424 26.369 41.914
H 43.625 28.352 39.98
H 43.927 26.863 39.972
H 42.134 25.621 37.417
H 36.057 27.435 45.652
H 41.836 30.616 41.564
H 33.796 29.344 45.209
H 38.654 25.824 41.405
H 38.707 25.469 42.881
H 39.468 30.725 40.939
H 38.761 29.929 39.857
H 42.375 28.644 42.383
H 43.567 29.583 42.454
H 36.131 28.451 38.947
H 36.763 29.066 40.183
H 33.778 27.319 42.574
H 32.546 28.191 42.746
H 35.741 26.956 43.509
H 36.647 27.326 42.348
H 40.855 31.383 44.23
H 40.292 30.898 38.609
H 38.727 31.722 42.753
H 37.492 31.944 40.948
H 37.149 30.647 41.659
H 40.048 28.067 41.572
H 40.003 28.873 42.858
H 33.278 28.406 40.674
H 34.787 28.234 40.674
H 41.426 28.37 39.883
H 41.047 26.901 39.812
H 44.704 27.692 42.582
