35
xyz format
O 50.543 34.192 69.4
O 57.535 36.731 73.386
O 50.889 33.83 72.315
O 55.442 37.586 73.44
O 53.641 33.982 72.375
O 56.145 35.469 68.343
O 54.289 33.527 70.004
O 54.771 36.225 71.526
O 57.452 37.525 70.293
O 60.214 38.647 70.545
O 60.575 36.57 72.614
H 57.957 37.187 67.701
H 59.434 38.439 70.016
H 53.575 33.178 69.457
H 54.912 33.891 69.363
H 57.442 36.584 70.506
H 56.963 37.931 71.019
H 56.033 36.416 68.494
H 56.957 35.255 68.819
H 53.953 36.739 71.522
H 55.259 36.565 70.766
H 55.321 38.348 74.019
H 55.429 36.834 74.045
H 54.573 33.828 72.175
H 53.649 34.799 72.888
H 51.212 33.412 71.506
H 50.598 34.702 72.021
H 51.019 34.888 69.87
H 58.004 36.522 74.204
H 58.14 36.438 72.693
H 60.176 36.752 73.474
H 60.976 37.411 72.364
H 53.073 35.545 67.782
H 48.59 34.673 72.922
H 51.326 32.17 68.789
