190
xyz format
Cl 41.259 60.751 72.504
Na 41.179 68.089 69.505
O 46.791 61.308 68.338
O 40.501 62.894 63.585
O 42.041 62.691 62.027
O 52.342 61.133 68.723
O 48.127 70.555 66.133
O 49.134 68.801 64.594
O 41.751 65.527 63.853
O 49.25 73.189 64.786
O 46.842 66.009 72.567
O 38.522 57.998 74.117
O 37.013 71.187 63.435
O 46.05 68.408 64.582
O 44.98 72.035 63.862
O 37.602 63.398 67.675
O 43.906 67.948 71.448
O 47.738 71.315 68.637
O 43.637 63.062 63.495
O 39.841 71.263 61.205
O 48.699 60.73 73.193
O 45.067 66.077 70.416
O 43.983 64.926 61.101
O 41.645 65.357 60.377
O 39.899 60.189 68.296
O 42.543 66.263 68.848
O 40.726 66.261 71.97
O 43.247 60.061 70.726
O 42.154 71.945 60.486
O 52.78 57.819 67.129
O 43.318 58.978 68.133
O 42.727 71.353 65.521
O 45.332 62.126 71.237
O 45.791 57.047 72.962
O 44.576 64.489 65.446
O 41.727 60.218 65.82
O 47.057 65.904 68.424
O 39.682 63.674 72.594
O 50.248 60.15 67.523
O 46.702 68.89 70.75
O 37.459 63.726 63.168
O 39.539 65.561 66.666
O 48.427 64.65 73.258
O 46.598 60.076 71.351
O 45.047 71.571 66.799
O 47.029 71.051 63.464
O 44.738 63.208 68.548
O 40.951 70.726 63.494
O 38.789 62.81 65.645
O 42.684 59.327 73.528
O 38.217 62.174 71.924
O 51.398 61.435 71.409
O 35.882 67.647 66.446
O 39.358 65.408 61.99
O 44.781 57.993 70.55
O 37.406 67.172 63.96
O 51.159 60.212 73.222
O 46.555 64.265 64.237
O 44.074 66.51 62.768
O 40.902 70.103 67.319
O 49.121 61.069 69.859
O 34.723 62.614 67.073
O 41.134 62.894 68.441
O 46.993 63.383 71.966
O 37.411 64.431 70.788
O 39.961 61.539 70.61
O 42.305 63.03 71.102
O 44.667 66.524 67.253
O 48.404 63.435 69.29
O 39.021 60.055 74.726
H 44.302 66.018 63.566
H 44.668 67.27 62.788
H 46.187 64.799 63.522
H 47.333 63.854 63.839
H 38.816 65.598 66.027
H 39.67 66.484 66.917
H 35.636 68.397 65.891
H 36.744 67.381 66.102
H 45.145 70.679 66.445
H 44.355 71.479 67.466
H 51.476 59.531 73.829
H 50.865 60.921 73.807
H 37.307 62.338 72.202
H 38.358 61.244 72.142
H 46.866 70.1 63.435
H 46.968 71.265 64.403
H 41.471 63.138 70.628
H 42.893 63.671 70.682
H 52.008 62.149 71.633
H 51.93 60.841 70.865
H 41.927 59.282 74.126
H 43.423 59.548 74.108
H 44.438 64.102 68.757
H 44.242 62.979 67.753
H 37.721 55.995 73.684
H 39.694 61.844 69.734
H 40.245 60.629 70.459
H 37.963 64.218 63.828
H 37.99 64.956 70.221
H 36.892 63.909 70.165
H 47.447 66.6 67.881
H 47.816 65.51 68.873
H 46.302 64.028 71.767
H 45.841 60.001 71.945
H 47.193 59.377 71.648
H 48.042 64.038 73.897
H 49.366 64.425 73.261
H 38.426 65.586 62.168
H 39.807 66.203 62.302
H 50.401 59.529 68.246
H 50.229 61.011 67.959
H 34.292 61.837 67.452
H 35.631 62.322 66.924
H 44.471 58.295 71.413
H 45.739 58.102 70.6
H 37.308 66.269 64.288
H 36.59 67.327 63.469
H 47.336 68.474 70.153
H 47.726 63.65 71.397
H 47.178 68.943 71.589
H 40.694 70.853 66.749
H 41.151 69.406 66.699
H 39.637 63.829 71.642
H 40.522 63.215 72.713
H 41.348 61.094 65.967
H 46.754 57.029 73.012
H 43.314 59.93 68.291
H 43.323 58.597 69.02
H 52.026 58.411 67.243
H 49.083 70.443 66.059
H 47.788 69.651 66.113
H 42.711 60.809 70.435
H 42.594 59.399 70.986
H 41.534 66.713 71.697
H 40.283 66.06 71.136
H 44.472 62.122 70.798
H 45.112 62.221 72.172
H 49.458 61.794 70.4
H 41.695 72.447 61.171
H 48.72 60.471 70.502
H 41.969 71.868 65.215
H 42.797 70.642 64.871
H 41.807 65.649 68.967
H 42.309 66.75 68.048
H 43.91 64.84 66.05
H 45.255 64.135 66.034
H 41.609 66.049 61.049
H 40.859 60.162 68.399
H 39.775 60.497 67.389
H 39.834 60.312 74.273
H 38.325 60.474 74.204
H 48.302 61.289 72.514
H 49.035 59.972 72.698
H 39.47 71.074 60.334
H 40.444 70.525 61.362
H 47.217 66.856 72.295
H 45.891 66.134 72.456
H 39.482 57.96 74.022
H 44.357 65.653 70.913
H 45.624 65.339 70.136
H 41.185 69.8 63.634
H 39.986 70.723 63.505
H 38.614 62.358 64.81
H 38.738 62.105 66.303
H 44.581 72.354 64.681
H 44.642 71.135 63.778
H 45.273 68.9 64.875
H 46.372 67.988 65.39
H 45.516 66.237 66.892
H 44.914 67.107 67.981
H 36.923 64.019 67.967
H 46.461 61.494 67.45
H 46.198 60.619 68.663
H 52.395 61.348 67.784
H 53.046 60.486 68.851
H 41.959 62.883 67.94
H 40.457 62.746 67.769
H 42.019 66.403 63.548
H 41.655 65.02 63.037
H 37.738 62.83 68.443
H 48.142 71.829 67.926
H 47.739 70.412 68.295
H 43.805 68.34 70.571
H 43.897 62.704 64.353
H 44.218 63.824 63.379
H 44.862 67.929 71.581
H 41.269 62.762 64.155
H 40.104 63.708 63.919
H 47.556 63.321 68.843
H 49.006 63.688 68.579
