463
xyz format
Cl 47.816 30.708 60.247
Na 47.489 37.29 62.212
O 54.575 43.013 67.823
O 47.762 42.709 62.717
O 50.681 38.287 70.734
O 40.835 39.486 66.723
O 45.322 43.488 68.492
O 47.72 27.35 63.94
O 43.578 31.445 62.935
O 50.817 40.569 51.66
O 50.845 32.383 67.979
O 55.378 40.424 69.073
O 52.341 36.905 65.243
O 50.543 34.192 69.4
O 39.204 41.383 60.672
O 47.782 37.364 66.119
O 55.757 39.152 67.204
O 52.158 39.247 55.029
O 58.247 35.569 61.606
O 47.946 32.282 56.353
O 41.967 35.9 58.181
O 53.19 36.105 58.391
O 50.085 42.824 68.915
O 50.429 46.887 61.906
O 53.691 45.986 67.672
O 44.277 36.009 68.583
O 47.845 28.102 61.283
O 54.276 40.381 53.43
O 52.244 43.936 64.191
O 45.201 45.167 57.601
O 51.802 36.488 56.136
O 40.595 39.112 59.971
O 49.908 34.975 58.2
O 40.793 37.207 69.212
O 53.036 35.388 62.771
O 57.624 35.185 56.593
O 39.899 36.73 64.839
O 51.408 38.624 57.022
O 50.286 29.566 63.09
O 43.308 37.862 53.827
O 50.58 46.217 65.016
O 47.316 35.252 55.793
O 58.929 40.688 62.381
O 59.475 44.985 61.593
O 54.103 44.89 60.293
O 49.815 36.065 55.292
O 41.77 39.637 69.633
O 50.233 42.399 59.323
O 54.146 46.555 63.835
O 51.588 39.224 68.646
O 50.47 40.888 56.059
O 52.012 41.385 68.688
O 57.282 42.24 61.23
O 50.982 37.216 62.935
O 40.034 33.806 65.611
O 43.783 41.766 57.34
O 47.172 40.967 68.31
O 44.901 48.673 62.946
O 48.891 40.778 69.726
O 53.238 39.604 64.257
O 50.461 40.554 64.247
O 54.379 42.676 54.149
O 43.337 37.651 56.205
O 50.409 44.516 61.86
O 51.524 32.665 64.318
O 56.461 40.54 54.051
O 45.084 44.18 65.307
O 55.207 36.551 65.795
O 49.349 33.687 65.75
O 53.39 32.551 66.205
O 55.73 44.345 65.835
O 56.747 40.431 57.061
O 53.981 39.841 56.11
O 49.299 37.749 52.394
O 44.171 35.509 60.377
O 58.777 43.403 65.603
O 56.806 42.436 65.682
O 43.991 33.441 61.356
O 58.309 42.437 58.624
O 47.968 41.509 59.92
O 52.827 32.964 57.245
O 43.497 40.364 66.479
O 42.353 36.063 66.932
O 48.415 31.171 65.467
O 53.432 41.067 61.428
O 52.072 42.394 57.726
O 48.257 27.486 58.081
O 56.881 44.175 67.708
O 45.496 40.102 58.895
O 47.945 31.018 63.198
O 54.503 48.568 61.921
O 51.472 40.468 59.169
O 45.25 38.928 69.783
O 41.008 43.753 65.09
O 56.145 35.469 68.343
O 47.252 42.258 65.355
O 50.44 45.634 58.702
O 52.558 44.333 54.702
O 44.837 41.826 64.612
O 49.128 39.582 53.633
O 50.431 32.206 56.932
O 47.377 48.498 61.554
O 56.197 39.221 61.485
O 48.118 33.442 58.998
O 49.193 35.31 61.363
O 55.46 34.327 55.566
O 45.96 40.537 54.742
O 49.629 40.119 67.086
O 45.91 45.331 62.631
O 51.214 45.017 66.751
O 57.834 39.373 65.035
O 53.015 37.777 52.292
O 42.267 41.582 63.243
O 46.216 45.517 66.637
O 42.649 37.545 64.368
O 47.311 44.784 59.723
O 53.856 44.755 52.084
O 48.289 35.566 64.494
O 47.13 38.15 52.712
O 56.768 37.691 59.228
O 42.12 39.148 62.0
O 44.969 37.1 62.414
O 53.773 38.205 67.29
O 44.277 43.052 60.919
O 55.738 41.345 62.921
O 53.99 33.576 63.828
O 57.213 45.272 59.184
O 52.185 42.86 61.964
O 45.207 35.375 56.94
O 53.958 38.329 59.97
O 44.737 35.929 65.741
O 55.714 36.678 61.742
O 53.504 47.74 59.259
O 45.865 40.33 61.551
O 48.643 38.698 57.426
O 55.395 46.924 60.065
O 45.988 33.491 68.871
O 49.64 29.997 58.461
O 50.762 35.421 65.634
O 45.519 31.339 64.045
O 41.801 34.548 56.395
O 45.196 38.262 66.439
O 41.943 42.159 66.751
O 45.53 42.914 54.845
O 46.244 37.977 55.297
O 53.953 30.128 64.256
O 58.669 39.086 60.436
O 47.722 42.596 57.509
O 54.926 38.322 54.83
O 59.013 39.325 57.048
O 52.395 35.805 68.419
O 48.66 36.122 67.8
O 44.481 39.194 63.317
O 44.177 41.072 53.102
O 56.832 46.309 62.245
O 43.622 35.211 53.103
O 52.912 30.404 61.352
O 56.672 34.39 62.816
O 47.348 39.235 63.286
O 49.787 33.289 62.008
O 55.178 36.925 57.186
O 54.099 35.935 53.144
O 43.377 43.717 58.569
O 52.092 33.938 60.397
O 48.067 45.836 64.366
O 43.75 46.683 63.049
O 61.245 42.632 60.381
O 56.712 36.168 54.569
O 55.489 44.035 61.792
O 47.192 36.49 59.657
O 53.394 41.588 65.588
O 55.253 32.071 61.658
O 50.201 38.684 61.455
O 42.502 38.243 59.304
O 41.42 33.649 61.33
H 44.024 42.132 60.772
H 45.103 43.143 60.428
H 56.1 38.345 59.467
H 57.025 37.942 58.332
H 46.615 38.773 53.24
H 46.681 37.307 52.849
H 43.362 45.812 62.898
H 43.822 46.739 64.01
H 56.529 41.663 63.375
H 55.121 42.085 62.992
H 53.591 39.031 67.757
H 53.964 37.579 67.999
H 51.47 34.373 60.993
H 52.714 33.502 60.993
H 47.891 44.3 59.121
H 46.43 44.647 59.353
H 53.18 45.103 52.679
H 54.537 44.422 52.681
H 47.776 44.976 64.038
H 47.389 46.445 64.046
H 47.872 35.259 65.308
H 48.046 34.895 63.844
H 41.532 41.635 62.619
H 43.049 41.635 62.68
H 42.595 39.779 61.443
H 41.235 39.526 62.069
H 45.245 36.179 62.327
H 44.616 37.317 61.542
H 47.833 31.934 63.482
H 48.406 31.094 62.353
H 52.309 37.266 52.707
H 51.384 43.011 57.447
H 52.887 42.798 57.405
H 49.904 32.808 62.836
H 48.849 33.178 61.809
H 57.466 45.708 62.655
H 56.299 46.62 62.988
H 51.369 45.407 67.62
H 51.777 44.233 66.747
H 54.701 44.182 62.33
H 45.019 40.807 52.711
H 43.528 40.527 52.641
H 56.194 43.929 62.443
H 45.359 39.357 58.297
H 47.844 32.516 58.998
H 48.968 33.429 59.455
H 58.623 39.4 57.928
H 45.637 40.85 58.301
H 46.695 47.905 61.894
H 56.597 35.234 63.278
H 56.227 34.55 61.974
H 55.492 39.304 62.139
H 57.003 39.215 62.015
H 50.305 32.227 57.889
H 50.508 31.265 56.732
H 48.915 40.467 53.956
H 48.591 39.001 54.185
H 49.82 32.925 66.111
H 49.622 33.708 64.825
H 49.672 44.386 61.25
H 51.161 44.682 61.278
H 45.513 38.357 55.799
H 47.027 38.244 55.795
H 53.353 44.672 55.131
H 52.137 43.801 55.389
H 52.53 32.303 66.566
H 53.42 33.509 66.321
H 45.072 41.989 65.534
H 44.086 42.412 64.459
H 52.845 43.186 61.339
H 50.968 31.906 64.534
H 52.2 32.296 63.737
H 51.593 42.329 61.416
H 43.561 38.249 56.929
H 42.431 37.896 55.978
H 45.942 39.231 69.182
H 44.552 38.618 69.192
H 53.913 41.632 64.775
H 53.498 42.467 65.974
H 51.05 39.992 59.895
H 56.033 36.416 68.494
H 52.007 41.137 59.615
H 42.309 42.538 67.56
H 41.1 41.785 67.034
H 44.421 44.038 65.995
H 44.869 45.054 64.958
H 55.885 37.096 66.214
H 54.988 35.897 66.47
H 48.721 29.702 58.431
H 49.782 30.212 59.391
H 50.77 46.533 58.577
H 51.241 45.097 58.725
H 48.034 42.636 65.776
H 46.901 42.986 64.827
H 45.05 35.113 60.411
H 44.592 32.997 60.745
H 44.571 33.751 62.063
H 56.039 41.872 65.516
H 57.223 42.033 66.453
H 44.181 36.018 59.556
H 48.426 38.737 58.366
H 49.195 37.15 51.644
H 50.128 38.208 52.208
H 58.604 44.125 64.987
H 48.289 39.524 57.074
H 42.492 38.443 64.05
H 42.161 36.992 63.745
H 53.646 40.315 60.862
H 54.85 36.491 62.13
H 56.153 37.221 62.409
H 53.142 38.071 60.416
H 53.652 38.812 59.192
H 52.539 47.736 59.247
H 53.737 48.498 58.708
H 45.413 35.775 66.413
H 45.173 36.512 65.107
H 52.626 33.425 56.421
H 52.2 33.338 57.876
H 48.691 41.07 60.387
H 47.557 40.797 59.414
H 45.662 36.1 57.386
H 45.165 35.663 56.019
H 47.89 31.934 65.741
H 48.703 30.78 66.301
H 53.903 39.054 56.662
H 55.033 43.985 65.273
H 56.359 40.384 57.943
H 56.737 39.515 56.757
H 54.594 40.404 56.598
H 44.192 40.68 67.069
H 43.0 39.74 67.023
H 42.204 36.869 66.423
H 41.973 35.369 66.38
H 58.193 41.501 58.42
H 58.195 42.874 57.771
H 53.533 40.716 62.322
H 49.419 41.194 70.419
H 48.249 40.248 70.214
H 55.196 42.98 54.564
H 44.908 43.624 55.046
H 57.904 39.49 60.008
H 59.422 39.526 60.023
H 50.837 40.251 63.411
H 49.553 40.791 64.018
H 53.998 42.077 54.804
H 46.152 42.939 55.583
H 44.494 42.189 56.842
H 43.04 41.768 56.725
H 51.148 34.834 66.296
H 49.974 35.771 66.07
H 52.521 39.243 64.793
H 53.39 38.923 63.589
H 47.269 40.328 67.592
H 47.312 41.819 67.879
H 54.013 33.419 62.875
H 54.784 34.099 63.993
H 52.765 41.037 68.195
H 52.245 42.309 68.841
H 51.929 37.373 63.031
H 50.749 36.722 63.731
H 57.052 42.978 60.651
H 57.661 41.587 60.63
H 50.767 28.777 62.81
H 49.409 29.231 63.317
H 49.821 34.662 68.965
H 57.784 44.494 59.201
H 39.367 33.124 65.468
H 41.913 33.131 60.682
H 40.907 34.263 60.791
H 50.092 40.012 55.911
H 49.742 41.39 56.446
H 53.184 46.524 63.759
H 54.396 45.632 63.962
H 49.814 43.268 59.361
H 49.786 41.961 58.588
H 52.129 39.32 69.44
H 51.363 38.285 68.634
H 53.531 44.898 59.516
H 53.746 45.593 60.849
H 42.618 39.181 59.111
H 49.334 36.725 54.778
H 50.034 35.384 54.644
H 43.044 38.102 60.091
H 42.65 34.306 56.004
H 58.649 41.508 62.806
H 59.503 40.987 61.664
H 45.832 38.767 66.961
H 44.469 38.102 67.054
H 45.48 32.297 63.935
H 45.759 31.017 63.167
H 59.221 44.403 60.865
H 45.4 48.229 63.644
H 49.526 38.172 60.992
H 49.77 39.531 61.624
H 48.035 35.373 56.426
H 47.766 34.968 54.987
H 51.461 46.596 65.125
H 50.693 45.575 64.304
H 47.035 37.138 58.959
H 47.471 35.7 59.177
H 43.927 37.181 54.119
H 53.013 36.68 65.899
H 52.112 35.179 62.96
H 39.128 37.218 64.526
H 40.504 37.421 65.136
H 53.352 35.79 63.59
H 48.384 33.01 56.811
H 48.027 32.516 55.42
H 41.21 36.493 58.099
H 42.723 36.461 57.965
H 49.34 42.5 68.394
H 45.412 44.405 57.047
H 44.759 45.775 56.996
H 52.324 36.437 55.326
H 52.0 35.658 56.588
H 40.193 36.496 68.955
H 57.607 35.621 57.455
H 54.164 38.089 54.285
H 55.62 38.51 54.185
H 51.997 38.881 57.743
H 50.821 37.973 57.427
H 53.073 35.545 67.782
H 46.569 45.711 62.036
H 45.238 44.98 62.034
H 51.732 36.252 67.878
H 47.972 28.522 60.423
H 47.772 28.846 61.893
H 50.399 40.626 67.374
H 47.797 35.702 67.91
H 48.57 36.957 68.276
H 49.345 39.66 67.886
H 55.254 34.72 56.423
H 44.052 39.967 63.705
H 44.709 38.651 64.082
H 48.236 35.426 61.313
H 49.452 35.86 62.113
H 46.882 40.823 54.719
H 45.742 40.543 55.683
H 54.711 40.957 52.79
H 47.586 41.817 56.957
H 48.223 43.195 56.941
H 52.396 44.498 63.421
H 52.892 44.248 64.834
H 53.798 39.747 52.881
H 53.329 35.15 58.404
H 52.653 36.269 59.176
H 51.159 47.028 61.29
H 49.683 46.669 61.333
H 53.338 45.909 66.777
H 44.381 35.112 68.241
H 43.726 35.893 69.367
H 47.207 37.603 65.381
H 48.108 38.213 66.44
H 55.803 39.296 66.25
H 56.669 38.954 67.45
H 51.856 38.544 54.44
H 51.875 40.056 54.584
H 45.354 42.884 67.739
H 40.106 38.855 66.757
H 40.878 39.737 65.792
H 47.158 41.964 62.824
H 47.467 43.128 61.899
H 54.405 36.738 56.639
H 54.83 37.484 57.891
H 55.34 46.422 59.242
H 56.345 47.008 60.219
H 55.046 40.983 69.787
H 46.329 34.09 68.195
H 51.704 37.434 65.739
H 51.326 32.17 68.789
H 49.923 32.415 68.262
H 45.911 41.003 60.86
H 45.156 39.746 61.255
H 57.665 36.007 60.973
H 58.309 34.666 61.273
H 50.497 35.722 58.368
H 50.188 34.652 57.334
H 40.341 39.909 59.488
H 39.814 38.905 60.499
H 56.09 36.498 55.229
H 54.362 42.899 68.757
H 54.12 43.83 67.582
H 47.713 39.466 62.423
H 48.074 38.776 63.727
H 43.912 31.371 62.032
H 43.618 30.541 63.269
H 50.094 40.96 52.165
H 51.357 40.134 52.331
