123
xyz format
O 56.075 66.348 33.949
O 56.497 66.826 36.579
O 53.164 70.087 36.92
O 50.118 59.605 35.868
O 47.572 65.923 41.657
O 47.835 65.519 32.386
O 48.459 67.826 37.322
O 48.723 61.078 40.356
O 53.349 65.643 36.061
O 50.403 59.846 32.747
O 52.378 67.52 35.425
O 46.858 63.734 30.549
O 49.874 57.374 30.519
O 46.178 62.324 32.096
O 48.9 62.315 31.863
O 54.616 60.248 35.118
O 48.397 65.069 39.805
O 52.165 58.072 35.945
O 48.706 59.716 30.628
O 50.844 62.099 37.121
O 50.361 62.177 28.747
O 48.895 63.842 41.633
O 53.953 64.891 39.245
O 47.638 64.081 34.602
O 51.696 65.656 40.213
O 52.668 70.676 34.687
O 51.139 69.684 39.343
O 54.721 68.268 34.616
O 47.516 66.958 35.533
O 54.748 63.329 34.566
O 50.899 67.52 41.25
O 52.03 62.043 33.772
O 51.839 62.809 41.651
O 50.103 65.286 32.566
O 52.464 67.473 38.615
O 50.159 65.868 36.503
O 48.454 60.024 37.289
O 47.816 63.835 36.781
O 52.727 62.421 39.125
O 49.821 63.232 39.043
O 51.146 64.523 34.918
H 51.513 67.819 40.568
H 50.166 67.142 40.749
H 50.006 64.449 33.037
H 50.101 65.947 33.269
H 52.386 62.065 41.933
H 45.613 64.91 37.381
H 49.247 63.066 38.285
H 50.569 63.711 38.665
H 54.508 67.913 33.744
H 55.236 69.061 34.421
H 53.675 60.06 35.224
H 55.222 63.812 35.254
H 54.909 62.402 34.784
H 48.259 66.343 35.498
H 52.767 61.874 34.372
H 51.275 62.16 34.363
H 51.624 62.05 36.554
H 50.107 62.084 36.498
H 51.609 64.733 40.483
H 51.324 65.669 39.322
H 48.285 60.189 29.899
H 54.034 64.341 38.456
H 49.543 60.183 30.751
H 50.925 70.229 38.575
H 52.101 69.607 39.307
H 51.855 62.024 39.248
H 53.33 61.77 39.504
H 48.701 63.202 40.938
H 49.857 63.923 41.608
H 47.758 64.65 39.215
H 49.086 65.387 39.208
H 46.141 66.848 39.179
H 49.904 61.344 28.917
H 49.906 62.809 29.318
H 50.985 55.7 35.311
H 48.511 62.111 31.003
H 49.721 62.772 31.641
H 52.204 60.274 40.668
H 51.911 57.313 36.485
H 52.664 58.63 36.555
H 48.614 59.083 37.436
H 47.679 60.212 37.833
H 49.453 58.683 28.159
H 50.611 65.296 37.137
H 50.352 66.759 36.821
H 51.193 58.913 39.263
H 50.371 58.184 30.353
H 51.832 65.092 34.548
H 51.6 64.044 35.623
H 46.469 61.675 32.748
H 46.937 63.1 29.826
H 50.095 60.603 33.261
H 51.326 60.057 32.56
H 53.049 67.83 36.046
H 51.631 68.111 35.581
H 48.974 60.57 39.575
H 53.556 64.745 36.346
H 54.191 65.975 35.723
H 46.714 66.132 41.267
H 48.122 66.68 41.421
H 50.638 59.48 36.671
H 50.617 60.265 35.372
H 48.073 65.328 31.47
H 46.885 65.688 32.346
H 58.475 67.344 34.629
H 47.246 63.437 37.45
H 47.825 64.771 37.015
H 53.422 55.817 37.055
H 48.028 63.81 33.762
H 47.103 64.85 34.368
H 46.45 62.488 35.548
H 52.864 66.723 38.157
H 51.924 67.895 37.935
H 56.124 65.741 34.698
H 56.854 66.127 33.424
H 53.561 69.491 37.567
H 52.246 69.793 36.87
H 48.373 67.045 37.882
H 48.688 68.529 37.943
H 55.816 66.991 37.244
H 57.256 67.33 36.899
H 48.205 69.381 40.728
