58
xyz format
O 26.166 52.854 46.693
O 25.545 57.242 53.404
O 26.051 54.568 53.65
O 22.495 54.614 46.407
O 25.847 57.847 47.837
O 22.778 56.337 48.497
O 24.083 55.899 43.304
O 23.41 55.128 53.207
O 28.001 55.325 50.766
O 22.32 55.094 50.577
O 24.665 52.096 48.669
O 26.554 55.236 47.178
O 23.237 53.586 54.766
O 26.397 50.49 49.722
O 23.247 49.824 48.776
O 27.037 51.918 43.553
O 26.254 53.848 50.583
O 24.315 54.869 47.922
H 24.261 52.735 43.651
H 27.783 51.795 44.153
H 26.281 52.019 44.145
H 28.948 51.757 46.686
H 27.922 57.249 45.543
H 23.156 50.624 49.31
H 24.198 49.751 48.633
H 26.395 49.146 47.893
H 26.965 50.52 47.59
H 25.991 56.634 44.649
H 25.826 55.143 44.412
H 23.885 54.065 55.297
H 24.803 55.486 48.482
H 23.831 54.321 48.553
H 26.803 51.363 49.655
H 26.06 55.935 46.731
H 27.379 55.666 47.433
H 21.531 54.561 50.421
H 23.033 54.444 50.609
H 25.364 52.757 48.74
H 24.286 52.255 47.796
H 23.914 55.345 52.413
H 22.539 54.888 52.867
H 27.664 55.654 51.609
H 28.608 56.018 50.476
H 22.882 57.164 48.983
H 21.838 56.136 48.586
H 23.4 55.433 42.805
H 22.194 51.755 51.036
H 26.809 57.834 47.758
H 22.928 53.79 46.15
H 22.535 55.153 45.607
H 27.116 52.963 46.831
H 25.996 53.341 45.877
H 25.833 54.781 54.566
H 25.67 53.69 53.522
H 24.913 56.67 53.858
H 25.983 54.666 50.147
H 26.977 53.523 50.032
H 24.828 51.949 51.095
