68
xyz format
O 46.791 61.308 68.338
O 52.342 61.133 68.723
O 56.1 64.089 69.08
O 48.699 60.73 73.193
O 57.996 62.756 72.8
O 53.677 64.195 67.324
O 45.332 62.126 71.237
O 54.183 62.051 70.321
O 50.248 60.15 67.523
O 54.925 60.006 67.785
O 46.598 60.076 71.351
O 52.026 64.899 71.153
O 51.398 61.435 71.409
O 44.781 57.993 70.55
O 54.031 61.468 65.908
O 51.159 60.212 73.222
O 54.29 59.603 71.774
O 49.121 61.069 69.859
O 46.993 63.383 71.966
O 57.144 58.857 72.231
O 55.033 62.941 73.36
O 48.404 63.435 69.29
H 53.972 60.508 71.883
H 54.331 59.265 72.677
H 51.476 59.531 73.829
H 50.865 60.921 73.807
H 57.06 61.458 70.391
H 56.236 60.492 66.085
H 52.008 62.149 71.633
H 51.93 60.841 70.865
H 55.61 59.365 68.012
H 55.16 60.785 68.304
H 55.163 62.128 72.856
H 55.644 62.852 74.101
H 57.531 57.983 72.369
H 56.279 58.667 71.848
H 45.841 60.001 71.945
H 47.193 59.377 71.648
H 50.401 59.529 68.246
H 50.229 61.011 67.959
H 55.074 62.366 70.123
H 53.617 62.596 69.76
H 53.116 61.725 65.74
H 44.471 58.295 71.413
H 45.739 58.102 70.6
H 47.726 63.65 71.397
H 46.754 57.029 73.012
H 52.881 63.885 66.875
H 52.026 58.411 67.243
H 45.112 62.221 72.172
H 49.458 61.794 70.4
H 48.72 60.471 70.502
H 56.608 57.143 70.296
H 57.141 63.05 72.464
H 59.174 58.723 71.107
H 58.654 60.149 71.156
H 55.381 64.665 69.368
H 55.838 63.822 68.19
H 48.302 61.289 72.514
H 49.035 59.972 72.698
H 52.309 64.108 70.678
H 52.63 65.584 70.84
H 46.198 60.619 68.663
H 52.395 61.348 67.784
H 53.046 60.486 68.851
H 55.413 57.314 74.406
H 47.556 63.321 68.843
H 49.006 63.688 68.579
