353
xyz format
Cl 47.816 30.708 60.247
Cl 39.106 49.969 60.184
Na 47.489 37.29 62.212
O 47.762 42.709 62.717
O 40.835 39.486 66.723
O 45.322 43.488 68.492
O 41.066 44.348 67.211
O 52.341 36.905 65.243
O 41.814 46.814 68.166
O 39.204 41.383 60.672
O 47.782 37.364 66.119
O 48.067 51.742 61.864
O 41.967 35.9 58.181
O 46.198 44.885 70.629
O 50.085 42.824 68.915
O 50.429 46.887 61.906
O 53.691 45.986 67.672
O 44.277 36.009 68.583
O 52.244 43.936 64.191
O 44.69 45.659 69.211
O 45.201 45.167 57.601
O 40.595 39.112 59.971
O 49.908 34.975 58.2
O 40.764 50.231 68.466
O 40.484 46.959 63.032
O 40.793 37.207 69.212
O 53.036 35.388 62.771
O 39.899 36.73 64.839
O 51.643 43.428 71.237
O 50.58 46.217 65.016
O 43.274 49.346 66.01
O 47.316 35.252 55.793
O 54.103 44.89 60.293
O 41.77 39.637 69.633
O 50.233 42.399 59.323
O 54.146 46.555 63.835
O 50.47 40.888 56.059
O 42.424 48.02 61.262
O 42.588 50.596 60.018
O 50.654 50.674 67.209
O 50.982 37.216 62.935
O 44.582 51.93 66.294
O 42.721 45.412 66.232
O 43.783 41.766 57.34
O 42.331 51.399 63.601
O 47.172 40.967 68.31
O 44.901 48.673 62.946
O 42.532 51.14 70.219
O 41.643 43.515 61.298
O 48.891 40.778 69.726
O 53.238 39.604 64.257
O 45.389 47.891 56.965
O 50.461 40.554 64.247
O 43.337 37.651 56.205
O 50.409 44.516 61.86
O 51.524 32.665 64.318
O 49.151 47.639 66.853
O 45.084 44.18 65.307
O 49.349 33.687 65.75
O 39.839 44.713 60.639
O 44.171 35.509 60.377
O 43.991 33.441 61.356
O 47.968 41.509 59.92
O 50.197 49.745 63.746
O 43.497 40.364 66.479
O 42.353 36.063 66.932
O 52.072 42.394 57.726
O 45.496 40.102 58.895
O 47.945 31.018 63.198
O 51.472 40.468 59.169
O 45.25 38.928 69.783
O 41.008 43.753 65.09
O 47.252 42.258 65.355
O 50.44 45.634 58.702
O 44.837 41.826 64.612
O 46.166 50.465 65.749
O 47.377 48.498 61.554
O 41.55 43.194 70.5
O 48.118 33.442 58.998
O 49.193 35.31 61.363
O 45.96 40.537 54.742
O 49.629 40.119 67.086
O 45.91 45.331 62.631
O 51.214 45.017 66.751
O 50.285 42.34 73.235
O 42.267 41.582 63.243
O 47.559 41.7 72.876
O 44.71 49.266 68.374
O 38.109 40.259 65.886
O 46.216 45.517 66.637
O 42.649 37.545 64.368
O 47.311 44.784 59.723
O 48.289 35.566 64.494
O 48.296 44.489 73.168
O 38.245 44.847 65.382
O 42.12 39.148 62.0
O 46.355 43.944 74.643
O 44.969 37.1 62.414
O 44.277 43.052 60.919
O 45.674 46.127 73.378
O 52.185 42.86 61.964
O 40.748 49.866 63.123
O 45.207 35.375 56.94
O 44.737 35.929 65.741
O 45.865 40.33 61.551
O 48.31 49.359 69.064
O 48.643 38.698 57.426
O 50.762 35.421 65.634
O 45.196 38.262 66.439
O 41.943 42.159 66.751
O 45.53 42.914 54.845
O 46.244 37.977 55.297
O 44.827 51.62 69.107
O 47.722 42.596 57.509
O 38.943 39.695 68.424
O 48.66 36.122 67.8
O 44.481 39.194 63.317
O 46.766 48.107 66.076
O 47.348 39.235 63.286
O 49.787 33.289 62.008
O 43.377 43.717 58.569
O 45.115 50.715 61.782
O 52.092 33.938 60.397
O 45.983 47.686 70.461
O 48.494 43.335 70.36
O 48.067 45.836 64.366
O 43.75 46.683 63.049
O 40.618 48.928 58.161
O 47.192 36.49 59.657
O 50.201 38.684 61.455
O 49.132 50.328 60.552
O 40.244 46.565 66.366
O 42.502 38.243 59.304
O 42.06 44.904 57.285
H 44.024 42.132 60.772
H 45.103 43.143 60.428
H 43.362 45.812 62.898
H 43.822 46.739 64.01
H 51.47 34.373 60.993
H 48.881 44.933 72.541
H 47.413 44.654 72.815
H 47.891 44.3 59.121
H 46.43 44.647 59.353
H 47.776 44.976 64.038
H 47.389 46.445 64.046
H 47.872 35.259 65.308
H 48.046 34.895 63.844
H 41.532 41.635 62.619
H 43.049 41.635 62.68
H 50.225 42.121 72.297
H 42.595 39.779 61.443
H 41.235 39.526 62.069
H 45.245 36.179 62.327
H 44.616 37.317 61.542
H 47.833 31.934 63.482
H 48.406 31.094 62.353
H 41.103 49.338 58.888
H 51.384 43.011 57.447
H 52.887 42.798 57.405
H 49.904 32.808 62.836
H 48.849 33.178 61.809
H 46.925 47.624 66.897
H 46.174 47.529 65.58
H 51.369 45.407 67.62
H 51.777 44.233 66.747
H 41.814 42.393 70.03
H 45.359 39.357 58.297
H 47.844 32.516 58.998
H 48.968 33.429 59.455
H 45.637 40.85 58.301
H 39.113 40.616 68.188
H 46.695 47.905 61.894
H 38.236 45.669 64.876
H 38.768 39.731 69.372
H 48.188 48.174 61.965
H 49.622 33.708 64.825
H 39.358 43.904 60.851
H 40.098 44.59 59.717
H 49.672 44.386 61.25
H 51.161 44.682 61.278
H 45.513 38.357 55.799
H 48.914 46.892 66.289
H 48.932 48.411 66.317
H 45.072 41.989 65.534
H 44.086 42.412 64.459
H 52.845 43.186 61.339
H 51.593 42.329 61.416
H 43.561 38.249 56.929
H 40.173 43.823 64.61
H 41.581 43.269 64.482
H 45.942 39.231 69.182
H 44.552 38.618 69.192
H 51.05 39.992 59.895
H 52.007 41.137 59.615
H 42.309 42.538 67.56
H 41.1 41.785 67.034
H 44.421 44.038 65.995
H 44.869 45.054 64.958
H 50.77 46.533 58.577
H 51.241 45.097 58.725
H 48.034 42.636 65.776
H 46.901 42.986 64.827
H 46.648 45.261 67.461
H 45.376 45.896 66.926
H 38.678 40.603 65.187
H 38.12 39.305 65.742
H 45.05 35.113 60.411
H 44.592 32.997 60.745
H 44.571 33.751 62.063
H 47.431 49.422 68.671
H 48.904 49.399 68.304
H 44.181 36.018 59.556
H 48.426 38.737 58.366
H 48.289 39.524 57.074
H 42.492 38.443 64.05
H 42.161 36.992 63.745
H 47.129 42.489 72.524
H 48.025 41.333 72.115
H 43.818 49.004 68.115
H 45.271 48.58 67.991
H 45.413 35.775 66.413
H 45.173 36.512 65.107
H 41.254 49.545 62.366
H 45.295 47.009 73.475
H 46.322 46.075 74.092
H 49.564 50.11 63.115
H 48.691 41.07 60.387
H 47.557 40.797 59.414
H 45.662 36.1 57.386
H 44.192 40.68 67.069
H 43.0 39.74 67.023
H 42.204 36.869 66.423
H 41.386 42.999 60.524
H 42.007 44.326 60.922
H 45.613 51.075 69.241
H 45.137 52.517 69.281
H 49.419 41.194 70.419
H 48.249 40.248 70.214
H 44.908 43.624 55.046
H 50.837 40.251 63.411
H 49.553 40.791 64.018
H 46.152 42.939 55.583
H 42.444 51.441 60.462
H 43.089 50.834 59.228
H 50.08 50.274 66.544
H 43.285 46.192 66.309
H 42.561 45.339 65.282
H 44.494 42.189 56.842
H 43.04 41.768 56.725
H 49.974 35.771 66.07
H 43.066 50.469 69.777
H 44.547 48.033 57.414
H 45.135 47.733 56.047
H 52.521 39.243 64.793
H 42.9 50.885 63.013
H 47.269 40.328 67.592
H 47.312 41.819 67.879
H 51.929 37.373 63.031
H 50.749 36.722 63.731
H 43.374 47.853 61.225
H 42.159 48.042 60.334
H 49.742 41.39 56.446
H 53.184 46.524 63.759
H 49.814 43.268 59.361
H 49.786 41.961 58.588
H 40.153 47.475 66.059
H 40.303 46.052 65.55
H 42.318 39.135 69.017
H 41.298 40.259 69.065
H 42.618 39.181 59.111
H 43.044 38.102 60.091
H 41.341 44.26 57.259
H 42.349 44.961 56.366
H 45.832 38.767 66.961
H 44.469 38.102 67.054
H 43.806 51.628 66.783
H 44.073 48.918 63.377
H 45.4 48.229 63.644
H 49.938 50.655 60.972
H 49.362 49.429 60.285
H 49.526 38.172 60.992
H 49.77 39.531 61.624
H 51.461 46.596 65.125
H 50.693 45.575 64.304
H 47.035 37.138 58.959
H 47.471 35.7 59.177
H 43.36 49.982 65.29
H 42.46 48.87 65.8
H 52.112 35.179 62.96
H 40.504 37.421 65.136
H 41.21 36.493 58.099
H 42.723 36.461 57.965
H 45.712 44.983 71.457
H 47.01 45.385 70.779
H 49.34 42.5 68.394
H 50.423 43.564 68.395
H 51.456 43.786 70.36
H 45.412 44.405 57.047
H 44.759 45.775 56.996
H 48.43 44.059 69.726
H 45.274 47.919 71.072
H 46.749 47.562 71.035
H 47.586 43.016 70.438
H 40.43 37.984 68.769
H 46.569 45.711 62.036
H 45.238 44.98 62.034
H 45.851 49.843 65.082
H 46.756 51.05 65.257
H 50.399 40.626 67.374
H 49.345 39.66 67.886
H 44.052 39.967 63.705
H 44.709 38.651 64.082
H 48.236 35.426 61.313
H 49.452 35.86 62.113
H 46.882 40.823 54.719
H 45.742 40.543 55.683
H 47.586 41.817 56.957
H 48.223 43.195 56.941
H 52.396 44.498 63.421
H 52.892 44.248 64.834
H 51.159 47.028 61.29
H 49.683 46.669 61.333
H 53.338 45.909 66.777
H 43.726 35.893 69.367
H 47.207 37.603 65.381
H 48.108 38.213 66.44
H 39.731 41.798 61.366
H 38.385 41.137 61.122
H 46.242 43.545 68.778
H 45.354 42.884 67.739
H 40.106 38.855 66.757
H 40.878 39.737 65.792
H 43.554 44.337 59.288
H 47.158 41.964 62.824
H 42.992 42.952 59.015
H 47.467 43.128 61.899
H 40.17 44.339 67.57
H 41.609 44.628 67.959
H 51.704 37.434 65.739
H 42.432 46.919 68.9
H 47.324 51.338 61.399
H 45.911 41.003 60.86
H 45.156 39.746 61.255
H 42.046 47.534 67.566
H 45.528 49.99 61.297
H 45.596 50.734 62.619
H 44.733 46.602 69.01
H 43.961 45.34 68.664
H 50.497 35.722 58.368
H 40.341 39.909 59.488
H 39.814 38.905 60.499
H 47.713 39.466 62.423
H 48.074 38.776 63.727
