512
xyz format
Cl 39.106 49.969 60.184
Cl 39.148 40.485 72.982
Na 35.918 45.033 51.34
Na 37.083 30.36 63.863
Na 36.045 52.744 54.029
Na 47.489 37.29 62.212
O 29.609 40.322 65.015
O 35.394 36.402 63.467
O 32.484 39.866 55.898
O 40.835 39.486 66.723
O 31.276 45.424 62.335
O 37.458 38.603 54.247
O 41.417 32.357 57.638
O 31.736 36.685 67.611
O 41.908 39.813 54.857
O 43.578 31.445 62.935
O 41.066 44.348 67.211
O 38.806 41.967 52.515
O 35.549 49.602 66.684
O 29.194 43.419 62.652
O 30.885 47.152 58.49
O 28.95 36.009 59.347
O 33.544 49.568 62.046
O 30.368 38.434 58.002
O 37.231 39.743 71.764
O 39.204 41.383 60.672
O 36.147 44.891 69.357
O 30.314 34.677 60.446
O 30.252 41.001 61.495
O 32.229 48.197 51.93
O 41.967 35.9 58.181
O 35.84 42.538 57.24
O 45.137 32.146 55.159
O 44.277 36.009 68.583
O 33.462 42.924 54.583
O 32.703 37.109 58.739
O 36.086 41.205 68.209
O 34.633 35.421 54.0
O 45.201 45.167 57.601
O 40.595 39.112 59.971
O 40.166 45.084 54.475
O 36.115 47.947 57.122
O 37.573 38.782 63.676
O 40.484 46.959 63.032
O 40.793 37.207 69.212
O 35.382 34.223 58.415
O 29.977 50.025 55.681
O 34.495 31.565 59.76
O 39.899 36.73 64.839
O 39.486 34.653 58.813
O 34.983 47.227 55.413
O 37.115 37.55 69.466
O 29.781 43.309 53.897
O 26.565 39.48 61.241
O 39.64 39.576 56.348
O 34.737 41.613 60.558
O 29.856 46.113 56.703
O 36.863 27.526 57.835
O 37.25 27.481 60.692
O 36.91 40.031 58.631
O 41.77 39.637 69.633
O 36.8 43.442 66.413
O 39.114 25.438 59.867
O 38.212 46.403 67.42
O 31.308 41.03 53.868
O 31.977 42.934 66.207
O 29.915 38.172 61.749
O 42.424 48.02 61.262
O 37.56 35.072 53.085
O 33.17 38.938 66.147
O 31.457 32.241 62.707
O 33.645 39.909 52.16
O 38.103 30.039 55.727
O 32.256 46.71 56.603
O 35.473 47.645 62.085
O 40.034 33.806 65.611
O 34.184 48.452 59.501
O 35.825 45.508 61.706
O 40.527 28.843 66.644
O 32.081 47.191 54.461
O 43.783 41.766 57.34
O 35.905 36.968 66.666
O 38.841 33.212 60.586
O 35.24 43.816 64.776
O 41.565 31.817 54.306
O 34.587 38.378 54.556
O 41.643 43.515 61.298
O 39.298 50.135 64.821
O 37.791 47.788 64.487
O 33.708 43.194 58.924
O 43.337 37.651 56.205
O 34.192 44.376 67.594
O 41.016 40.539 71.49
O 33.341 39.729 62.026
O 36.116 32.709 54.784
O 39.839 44.713 60.639
O 28.158 36.581 61.319
O 29.118 46.178 59.329
O 44.171 35.509 60.377
O 41.856 27.655 60.228
O 36.973 43.195 62.621
O 43.991 33.441 61.356
O 32.96 47.145 64.291
O 43.497 40.364 66.479
O 42.353 36.063 66.932
O 35.494 46.774 64.889
O 29.623 38.276 66.726
O 32.201 45.414 66.59
O 45.496 40.102 58.895
O 35.294 34.979 60.513
O 32.846 50.038 56.493
O 28.559 39.59 60.319
O 31.98 42.344 64.056
O 41.008 43.753 65.09
O 29.986 41.428 58.399
O 40.033 31.071 63.284
O 44.837 41.826 64.612
O 30.588 35.023 63.795
O 34.119 50.603 65.335
O 37.61 34.905 56.095
O 36.277 45.16 58.973
O 36.433 33.152 65.915
O 36.3 32.58 61.624
O 33.286 44.712 63.978
O 40.933 30.223 57.005
O 31.447 40.171 66.792
O 37.91 49.795 57.98
O 36.941 52.18 56.464
O 35.709 42.973 52.475
O 42.267 41.582 63.243
O 31.515 45.151 53.129
O 38.109 40.259 65.886
O 37.642 35.601 63.734
O 42.649 37.545 64.368
O 31.525 37.855 63.279
O 44.021 30.799 56.917
O 37.175 44.512 56.397
O 38.245 44.847 65.382
O 32.819 40.019 59.355
O 37.958 37.179 61.732
O 33.747 32.487 63.103
O 42.12 39.148 62.0
O 32.979 35.87 60.593
O 39.178 42.533 69.52
O 44.969 37.1 62.414
O 35.19 41.251 55.002
O 44.277 43.052 60.919
O 36.324 31.597 57.694
O 37.94 49.073 67.089
O 37.411 49.635 61.542
O 35.976 50.126 56.944
O 39.719 29.182 61.997
O 40.748 49.866 63.123
O 27.734 41.323 57.598
O 45.207 35.375 56.94
O 31.288 34.605 56.578
O 33.02 35.139 64.608
O 38.171 43.125 54.991
O 44.737 35.929 65.741
O 35.986 40.743 63.731
O 45.865 40.33 61.551
O 37.526 45.597 52.84
O 35.058 36.646 57.021
O 28.559 37.394 64.127
O 38.327 32.878 54.35
O 35.27 29.077 56.845
O 32.627 38.001 53.376
O 31.383 42.308 56.561
O 45.519 31.339 64.045
O 41.801 34.548 56.395
O 45.196 38.262 66.439
O 41.943 42.159 66.751
O 30.204 48.041 61.625
O 40.623 27.388 64.392
O 33.117 39.794 69.969
O 33.906 41.029 66.336
O 33.494 44.757 56.3
O 41.656 30.611 61.007
O 36.398 50.531 63.789
O 38.943 39.695 68.424
O 35.371 50.464 60.959
O 44.481 39.194 63.317
O 43.622 35.211 53.103
O 37.524 35.336 60.016
O 33.05 46.901 62.086
O 43.377 43.717 58.569
O 37.765 49.304 54.806
O 43.75 46.683 63.049
O 36.833 30.582 59.644
O 40.244 46.565 66.366
O 42.502 38.243 59.304
O 41.42 33.649 61.33
O 31.732 42.196 51.333
O 42.06 44.904 57.285
H 44.024 42.132 60.772
H 35.571 31.726 57.103
H 37.068 31.469 57.093
H 45.103 43.143 60.428
H 37.544 45.37 56.153
H 37.584 44.321 57.251
H 43.362 45.812 62.898
H 35.706 41.815 54.412
H 34.861 40.552 54.423
H 35.257 35.905 60.786
H 35.122 34.493 61.329
H 37.955 37.869 61.058
H 38.768 36.685 61.552
H 32.695 40.39 58.473
H 31.938 39.708 59.599
H 33.743 31.688 63.645
H 44.03 30.982 57.865
H 43.11 30.532 56.744
H 33.469 33.18 63.714
H 32.291 44.825 53.602
H 30.898 45.384 53.834
H 41.532 41.635 62.619
H 43.049 41.635 62.68
H 34.85 43.391 52.336
H 42.595 39.779 61.443
H 41.235 39.526 62.069
H 45.245 36.179 62.327
H 38.362 42.561 69.005
H 38.975 41.922 70.239
H 44.616 37.317 61.542
H 36.027 42.8 51.581
H 33.222 36.713 60.996
H 32.875 35.278 61.348
H 33.249 46.317 61.343
H 32.44 47.549 61.71
H 37.202 36.222 59.808
H 37.339 34.831 59.214
H 35.379 32.294 61.64
H 36.662 32.235 62.45
H 36.407 33.866 65.267
H 37.083 32.537 65.554
H 38.266 49.035 57.503
H 38.099 50.541 57.398
H 29.769 34.555 63.587
H 30.605 35.749 63.16
H 45.359 39.357 58.297
H 34.97 51.213 61.417
H 35.802 50.867 60.195
H 39.113 40.616 68.188
H 38.008 44.174 64.731
H 38.236 45.669 64.876
H 38.768 39.731 69.372
H 35.604 45.583 59.521
H 36.952 44.888 59.608
H 38.323 35.168 55.5
H 36.9 34.637 55.498
H 34.302 49.856 64.752
H 41.732 31.202 61.766
H 42.247 29.88 61.225
H 36.225 31.774 54.999
H 35.345 32.975 55.3
H 39.358 43.904 60.851
H 40.098 44.59 59.717
H 34.254 44.527 66.643
H 34.328 43.425 67.685
H 29.982 47.486 60.866
H 29.465 48.659 61.681
H 40.431 30.327 63.752
H 33.431 39.131 61.274
H 33.114 40.575 61.62
H 45.072 41.989 65.534
H 44.086 42.412 64.459
H 40.208 40.215 71.071
H 39.46 31.478 63.946
H 32.973 49.305 57.108
H 32.698 50.798 57.069
H 43.561 38.249 56.929
H 42.431 37.896 55.978
H 41.213 27.508 63.638
H 40.255 28.268 64.538
H 31.758 42.889 63.291
H 32.903 42.563 64.234
H 40.173 43.823 64.61
H 41.581 43.269 64.482
H 28.421 39.351 59.394
H 28.292 40.517 60.358
H 31.253 43.262 56.625
H 32.07 42.126 57.214
H 42.309 42.538 67.56
H 41.1 41.785 67.034
H 29.451 37.754 64.05
H 28.676 36.451 63.952
H 30.473 42.192 58.732
H 30.079 40.773 59.101
H 39.035 33.522 54.22
H 38.648 32.328 55.075
H 37.736 35.523 64.691
H 38.526 35.402 63.4
H 38.678 40.603 65.187
H 38.12 39.305 65.742
H 45.05 35.113 60.411
H 44.592 32.997 60.745
H 44.571 33.751 62.063
H 44.181 36.018 59.556
H 41.204 28.15 59.717
H 41.472 27.616 61.113
H 36.135 43.381 62.18
H 37.597 43.09 61.892
H 42.492 38.443 64.05
H 42.161 36.992 63.745
H 32.157 37.275 62.837
H 31.642 37.65 64.215
H 37.329 43.305 54.555
H 38.829 43.35 54.322
H 45.413 35.775 66.413
H 45.173 36.512 65.107
H 33.299 46.694 65.074
H 32.279 47.732 64.642
H 39.562 28.341 62.445
H 39.632 28.961 61.061
H 35.39 46.009 65.469
H 36.071 46.451 64.185
H 30.454 38.289 66.235
H 28.315 41.817 57.007
H 38.1 49.088 61.937
H 32.004 34.121 57.009
H 27.713 37.177 61.934
H 28.388 35.819 61.865
H 44.192 40.68 67.069
H 43.0 39.74 67.023
H 37.568 50.51 61.918
H 32.239 45.419 67.554
H 31.257 45.358 66.398
H 38.707 48.538 67.324
H 37.394 49.054 67.884
H 42.204 36.869 66.423
H 41.973 35.369 66.38
H 41.386 42.999 60.524
H 42.007 44.326 60.922
H 32.995 43.844 58.953
H 34.51 43.731 58.954
H 38.415 50.12 65.21
H 39.885 50.056 65.583
H 35.176 45.493 62.42
H 36.655 45.713 62.155
H 38.415 48.306 63.963
H 37.039 48.383 64.6
H 31.465 47.934 54.47
H 32.929 47.593 54.684
H 35.138 42.941 64.381
H 43.04 41.768 56.725
H 35.851 44.267 64.18
H 39.908 29.566 66.807
H 34.836 38.32 55.487
H 35.354 38.023 54.09
H 38.748 33.656 61.438
H 39.191 32.343 60.818
H 33.878 41.056 67.3
H 34.21 41.912 66.091
H 35.375 37.375 67.362
H 36.276 36.184 67.089
H 33.187 46.908 56.767
H 31.836 47.579 56.588
H 37.175 40.219 70.926
H 31.068 38.142 57.405
H 28.913 44.214 62.181
H 28.363 42.995 62.902
H 31.355 46.868 59.284
H 30.417 47.947 58.773
H 37.5 35.232 52.134
H 33.037 38.021 65.874
H 33.87 38.881 66.809
H 35.831 50.638 57.749
H 35.085 49.892 56.657
H 36.66 34.825 53.332
H 34.244 39.272 52.57
H 33.274 40.39 52.91
H 34.306 49.18 58.879
H 34.027 47.688 58.932
H 34.856 47.953 62.761
H 36.339 47.873 62.444
H 39.739 34.537 65.054
H 39.367 33.124 65.468
H 37.103 29.969 58.949
H 37.628 31.106 59.808
H 41.913 33.131 60.682
H 40.907 34.263 60.791
H 31.805 41.479 54.562
H 31.042 42.959 65.968
H 31.97 42.672 67.136
H 29.837 38.983 62.267
H 30.344 38.461 60.934
H 29.444 46.8 56.165
H 30.198 45.487 56.053
H 31.043 40.197 54.278
H 38.897 46.186 68.064
H 37.403 46.427 67.946
H 40.153 47.475 66.059
H 40.303 46.052 65.55
H 37.257 40.697 59.238
H 36.107 39.719 59.069
H 42.318 39.135 69.017
H 41.298 40.259 69.065
H 36.491 43.781 67.262
H 37.408 42.733 66.657
H 42.618 39.181 59.111
H 37.779 28.089 60.16
H 37.59 27.604 61.587
H 43.044 38.102 60.091
H 32.119 42.614 52.112
H 41.341 44.26 57.259
H 42.349 44.961 56.366
H 42.65 34.306 56.004
H 41.201 34.581 55.639
H 44.469 38.102 67.054
H 45.48 32.297 63.935
H 36.299 27.977 58.476
H 42.133 31.417 54.976
H 40.855 32.223 54.819
H 35.355 41.646 59.817
H 34.633 42.539 60.811
H 39.273 40.351 55.904
H 39.971 39.032 55.623
H 30.073 43.576 54.777
H 37.208 37.863 68.557
H 36.683 38.285 69.918
H 33.201 50.367 62.467
H 36.395 42.325 58.001
H 36.4 42.328 56.482
H 39.128 37.218 64.526
H 40.504 37.421 65.136
H 34.609 31.035 58.962
H 34.044 30.967 60.37
H 41.21 36.493 58.099
H 42.723 36.461 57.965
H 33.515 43.922 56.783
H 32.69 44.695 55.769
H 39.213 35.029 57.967
H 39.746 35.424 59.333
H 44.759 45.775 56.996
H 39.648 46.477 63.022
H 40.193 36.496 68.955
H 40.43 37.984 68.769
H 35.952 33.788 57.769
H 34.517 34.233 57.987
H 40.451 47.46 63.857
H 29.797 49.094 55.5
H 38.164 39.002 62.945
H 36.8 38.402 63.241
H 35.203 48.062 54.98
H 35.235 46.559 54.763
H 40.309 30.369 56.284
H 40.656 29.378 57.381
H 34.194 43.554 54.589
H 33.568 42.457 53.745
H 32.021 36.477 58.479
H 33.527 36.626 58.601
H 43.075 34.891 53.832
H 30.812 40.577 67.395
H 31.494 40.793 66.056
H 44.052 39.967 63.705
H 44.709 38.651 64.082
H 32.369 44.793 64.268
H 33.219 44.674 63.015
H 36.64 40.769 68.868
H 35.479 41.739 68.738
H 35.9 51.346 63.646
H 35.932 49.88 63.25
H 44.381 35.112 68.241
H 43.726 35.893 69.367
H 33.314 49.683 61.116
H 39.731 41.798 61.366
H 36.408 40.913 62.88
H 38.385 41.137 61.122
H 36.634 41.052 64.375
H 31.351 44.888 61.536
H 30.41 45.842 62.249
H 40.106 38.855 66.757
H 40.878 39.737 65.792
H 30.116 39.834 64.355
H 43.554 44.337 59.288
H 42.992 42.952 59.015
H 33.017 39.205 56.356
H 31.751 40.03 56.504
H 38.569 41.421 53.276
H 38.049 42.557 52.412
H 38.264 45.43 53.439
H 35.3 48.71 66.413
H 40.17 44.339 67.57
H 36.749 45.525 53.409
H 34.26 36.462 56.511
H 35.655 35.927 56.78
H 32.772 35.267 63.684
H 32.871 36.006 65.006
H 45.156 39.746 61.255
H 30.452 34.385 61.356
H 30.82 35.496 60.389
H 31.055 41.279 61.954
H 29.541 41.323 62.064
H 35.22 35.859 54.628
H 38.512 49.69 55.279
H 37.184 48.992 55.511
H 40.341 39.909 59.488
H 39.814 38.905 60.499
H 36.273 48.147 58.053
H 36.41 47.032 57.03
H 41.017 45.015 54.024
H 40.383 44.911 55.4
H 34.652 36.118 62.918
H 34.971 36.741 64.266
H 41.95 39.658 53.905
H 42.62 40.444 55.019
H 43.912 31.371 62.032
H 37.109 39.27 54.851
H 43.618 30.541 63.269
H 37.779 37.907 54.834
H 41.971 31.801 58.2
H 40.868 32.842 58.267
