104
xyz format
O 46.513 21.896 52.613
O 51.588 31.083 47.566
O 50.95 28.337 43.547
O 50.454 25.739 52.124
O 46.422 21.704 45.745
O 50.584 26.564 44.804
O 49.805 28.0 47.394
O 50.526 21.845 51.272
O 49.429 23.459 53.394
O 50.034 26.616 50.135
O 51.808 28.999 46.82
O 44.863 22.647 50.426
O 49.573 23.219 44.03
O 47.945 32.418 44.203
O 52.252 26.546 47.882
O 47.631 28.186 41.32
O 55.036 26.209 47.893
O 46.899 27.467 43.896
O 51.592 21.91 48.687
O 49.399 30.812 46.976
O 49.364 22.466 47.364
O 49.204 29.958 42.136
O 45.389 24.214 46.521
O 52.97 23.888 49.165
O 45.559 27.575 42.147
O 45.719 26.103 47.764
O 47.533 29.619 44.772
O 48.361 21.726 49.178
O 52.751 26.909 50.263
O 47.02 23.857 43.015
O 50.354 29.0 50.421
O 49.208 24.979 48.276
O 48.103 25.227 44.433
O 46.704 23.572 48.165
H 49.946 24.844 47.668
H 48.46 25.156 47.693
H 45.088 24.902 45.916
H 44.671 24.144 47.164
H 53.085 32.371 45.719
H 50.785 28.831 49.574
H 50.552 29.928 50.597
H 49.836 30.31 46.277
H 49.249 31.678 46.577
H 48.783 32.128 43.821
H 47.797 31.798 44.928
H 49.625 29.38 41.488
H 49.937 30.48 42.488
H 54.472 29.544 45.633
H 54.378 28.197 44.938
H 47.681 27.239 41.141
H 48.708 23.078 47.008
H 49.919 22.256 46.603
H 51.429 26.447 47.387
H 52.933 26.28 47.251
H 47.868 21.221 49.837
H 48.961 22.267 49.706
H 48.044 29.348 43.999
H 48.046 29.282 45.516
H 50.397 23.651 44.288
H 49.044 23.235 44.837
H 52.682 24.639 49.699
H 53.595 24.276 48.54
H 55.001 25.444 49.966
H 45.598 23.154 50.794
H 46.602 26.488 47.83
H 48.352 25.421 45.345
H 48.901 25.431 43.929
H 52.035 28.241 46.267
H 52.585 29.114 47.381
H 49.281 26.998 49.666
H 50.587 26.26 49.429
H 45.171 26.838 47.462
H 49.843 21.174 51.4
H 51.226 21.373 50.803
H 48.932 24.282 53.303
H 49.129 22.927 52.646
H 46.848 24.07 52.628
H 52.085 26.787 50.951
H 49.317 28.62 47.95
H 49.275 27.194 47.43
H 50.907 21.291 48.403
H 51.447 22.684 48.129
H 46.66 22.61 48.098
H 46.879 23.728 49.101
H 55.101 26.572 47.001
H 46.155 27.987 44.224
H 47.448 27.333 44.679
H 50.451 26.269 42.496
H 50.762 24.828 52.212
H 46.897 23.468 43.89
H 51.169 30.556 48.257
H 52.053 31.773 48.054
H 46.537 23.261 42.429
H 44.5 26.951 45.37
H 45.427 26.801 41.586
H 44.704 27.692 42.582
H 46.788 22.583 45.902
H 45.627 21.876 45.225
H 50.529 29.046 44.049
H 50.576 25.762 45.341
H 50.147 27.219 45.363
H 46.975 21.743 51.779
H 47.226 21.996 53.255
H 44.221 24.388 42.793
