100
xyz format
O 57.072 33.539 31.857
O 52.045 39.375 30.216
O 55.723 41.84 36.029
O 54.477 39.43 31.777
O 56.584 37.734 36.1
O 56.201 37.356 33.457
O 57.742 36.64 38.365
O 64.431 37.393 30.032
O 56.87 35.399 44.55
O 55.162 34.673 29.893
O 61.117 37.571 41.945
O 58.09 35.819 32.365
O 59.668 41.292 39.142
O 59.797 40.005 31.602
O 55.129 36.91 43.964
O 54.612 33.24 33.528
O 60.145 38.919 37.668
O 60.518 37.566 29.042
O 60.416 33.93 38.209
O 58.715 31.094 30.035
O 61.483 38.114 30.98
O 54.735 36.665 40.538
O 58.074 36.784 40.546
O 62.042 32.627 37.389
O 60.682 35.39 32.682
O 58.026 32.11 37.053
O 61.358 35.36 43.722
O 60.695 40.219 43.778
O 55.609 38.781 38.286
O 56.121 33.819 37.964
O 60.701 34.87 28.626
O 53.658 34.319 37.575
O 59.258 33.618 30.495
O 64.148 39.647 31.782
O 56.961 38.662 30.581
O 54.151 34.301 35.4
O 55.686 39.05 42.203
O 58.394 41.651 42.138
O 59.68 39.323 41.176
O 55.361 32.467 39.741
H 55.533 39.743 38.265
H 54.9 38.482 37.703
H 50.918 41.154 28.824
H 59.033 39.88 40.726
H 60.243 39.954 41.641
H 56.462 34.452 37.321
H 55.764 34.377 38.667
H 57.503 32.698 36.494
H 61.229 35.951 32.117
H 60.146 34.888 32.057
H 62.409 36.494 28.7
H 53.221 33.527 37.237
H 54.874 36.839 43.035
H 55.095 37.858 44.139
H 53.57 34.239 38.533
H 59.839 32.99 30.047
H 58.861 34.119 29.771
H 58.506 37.463 41.08
H 57.851 36.097 41.186
H 55.088 34.22 35.618
H 60.22 37.025 28.3
H 60.793 38.393 28.627
H 59.608 38.269 37.197
H 59.559 39.236 38.367
H 55.038 33.313 32.665
H 55.114 37.355 39.979
H 54.859 35.859 40.022
H 53.36 40.358 42.407
H 55.474 42.056 30.321
H 62.05 37.395 30.675
H 62.1 38.733 31.39
H 59.507 34.237 38.314
H 60.929 34.746 38.161
H 54.96 38.828 41.606
H 56.412 39.272 41.607
H 60.501 41.013 39.542
H 60.353 39.994 30.813
H 60.562 37.0 42.491
H 61.67 38.034 42.586
H 56.486 39.493 30.462
H 58.343 36.625 32.832
H 57.418 35.425 32.936
H 62.79 36.147 42.097
H 53.085 38.213 42.859
H 55.524 37.566 32.801
H 56.797 38.114 33.423
H 56.892 36.373 38.737
H 58.057 35.845 37.918
H 63.905 38.147 29.738
H 56.012 32.904 40.305
H 57.414 37.873 36.573
H 56.244 36.91 36.47
H 54.016 38.605 31.582
H 54.388 39.94 30.962
H 57.15 40.991 40.448
H 54.954 42.365 36.287
H 55.563 40.982 36.44
H 53.379 40.863 36.687
H 57.098 33.439 30.897
H 57.731 32.907 32.171
