66
xyz format
O 44.78 72.802 57.887
O 49.587 74.158 56.85
O 44.98 72.035 63.862
O 46.719 72.536 55.898
O 42.549 75.651 53.252
O 42.154 71.945 60.486
O 40.217 74.827 57.991
O 46.985 74.753 59.777
O 47.555 76.079 57.71
O 48.548 71.202 59.898
O 46.604 71.79 52.932
O 46.061 73.681 54.138
O 43.588 75.185 57.835
O 44.778 74.834 55.99
O 42.982 73.392 53.7
O 45.886 73.601 62.148
O 43.308 73.884 60.755
O 48.587 71.379 57.705
O 49.961 72.902 59.884
O 48.96 76.541 60.738
O 44.864 75.995 53.24
O 41.049 76.021 56.058
O 41.966 73.232 56.525
O 44.167 77.187 57.112
H 49.055 72.215 57.829
H 48.913 71.058 56.855
H 45.508 74.345 62.633
H 46.532 73.232 62.763
H 49.908 73.776 60.29
H 43.285 75.768 58.543
H 43.135 74.352 58.015
H 45.375 75.335 55.421
H 44.189 74.387 55.368
H 45.257 73.338 53.729
H 46.608 73.942 53.387
H 46.761 71.459 52.039
H 46.658 70.999 53.483
H 45.821 75.997 53.37
H 44.707 75.207 52.706
H 48.598 73.036 53.098
H 42.713 74.57 60.428
H 43.828 73.641 59.979
H 48.371 70.545 54.786
H 41.434 76.781 55.604
H 41.775 75.684 56.597
H 48.204 76.604 60.141
H 49.569 75.951 60.277
H 40.659 73.98 58.129
H 42.766 71.387 60.982
H 41.695 72.447 61.171
H 46.184 74.781 60.315
H 47.352 73.878 59.957
H 42.841 76.003 54.102
H 47.056 76.759 58.18
H 46.874 75.569 57.253
H 46.731 72.001 56.702
H 46.711 73.444 56.227
H 48.867 73.882 56.269
H 43.237 72.641 54.25
H 42.115 73.644 54.043
H 43.388 77.179 56.542
H 45.34 73.587 57.941
H 44.458 72.812 56.977
H 41.193 73.543 56.038
H 42.145 72.365 56.14
H 44.905 77.227 56.491
