343
xyz format
O 67.443 45.63 45.603
O 69.831 48.448 45.987
O 64.275 48.624 42.465
O 63.784 46.708 48.397
O 67.345 48.817 50.344
O 67.066 54.338 55.681
O 62.842 59.32 50.441
O 66.077 51.943 48.352
O 60.41 51.628 51.882
O 65.304 43.889 46.505
O 62.752 58.048 44.383
O 65.032 58.193 53.772
O 64.323 47.801 55.339
O 63.103 48.738 45.302
O 71.921 50.145 46.021
O 61.539 55.57 41.633
O 63.678 51.852 40.364
O 70.887 45.059 49.576
O 67.809 53.637 41.01
O 65.141 55.078 45.493
O 65.816 54.329 48.2
O 68.807 50.74 45.586
O 61.473 44.715 48.2
O 64.804 52.153 55.074
O 65.525 52.671 44.585
O 63.193 49.181 57.119
O 68.506 46.737 47.887
O 65.778 46.918 42.973
O 61.746 48.45 48.04
O 64.999 55.127 54.17
O 59.147 49.572 52.362
O 62.787 52.349 46.174
O 61.228 59.219 53.159
O 60.875 56.202 50.356
O 64.897 49.875 54.136
O 57.069 50.944 47.434
O 61.67 60.589 49.077
O 67.53 55.478 44.629
O 67.36 55.888 52.61
O 66.814 46.949 52.976
O 69.466 49.221 48.582
O 59.399 49.094 44.669
O 62.882 52.385 57.515
O 66.635 59.354 41.847
O 60.014 61.846 50.729
O 59.223 46.933 46.829
O 70.148 55.109 49.272
O 61.308 48.56 54.575
O 63.951 57.903 46.767
O 68.556 48.274 43.101
O 59.342 57.664 49.762
O 67.002 54.671 50.022
O 58.264 59.554 45.095
O 63.897 50.046 47.79
O 61.336 54.159 55.474
O 57.548 52.303 44.476
O 64.779 53.145 50.193
O 61.369 48.486 42.344
O 69.945 53.596 43.675
O 68.608 48.549 53.638
O 63.765 54.904 56.18
O 62.31 52.908 43.54
O 59.547 53.745 45.963
O 68.991 57.036 50.856
O 59.739 56.869 45.804
O 70.023 49.895 51.219
O 62.898 54.962 51.608
O 61.818 53.825 48.639
O 67.75 51.667 53.748
O 68.911 55.426 42.911
O 70.138 59.345 47.123
O 71.555 48.52 44.573
O 58.822 46.964 51.092
O 69.005 60.911 52.108
O 65.993 48.457 40.905
O 63.529 50.618 50.228
O 57.216 55.613 46.616
O 63.815 45.919 53.122
O 56.784 47.336 45.397
O 70.116 53.973 46.542
O 61.18 45.78 50.956
O 66.21 44.838 51.374
O 70.421 51.212 48.57
O 63.68 50.758 43.388
O 68.875 57.428 53.018
O 71.703 56.515 48.601
O 61.48 51.258 49.088
O 66.182 51.454 42.628
O 58.034 60.286 47.16
O 64.165 52.322 52.887
O 64.109 55.729 48.859
O 58.134 55.782 52.161
O 58.58 48.821 49.111
O 73.767 52.484 50.24
O 60.41 58.431 47.998
O 58.316 54.111 48.936
O 67.033 59.107 48.538
O 61.832 51.639 54.799
O 61.716 55.792 45.973
O 56.998 55.032 44.209
O 60.976 59.705 44.48
O 66.353 46.773 48.338
O 59.429 55.082 42.667
O 66.894 57.467 45.327
O 65.226 47.043 46.374
O 59.719 49.752 39.534
O 67.213 49.441 44.803
O 71.047 54.057 50.982
O 68.467 53.516 52.803
O 62.888 60.417 46.224
O 59.652 52.897 39.842
O 60.461 57.639 43.872
O 69.717 60.399 49.481
O 56.121 58.474 44.4
O 64.72 61.502 47.32
O 67.769 53.237 47.772
O 64.177 47.751 50.972
O 56.23 60.142 49.067
O 59.433 46.664 54.217
O 61.838 51.324 39.278
O 71.739 54.065 53.176
O 59.887 50.759 47.083
O 62.766 59.39 42.403
O 60.246 52.807 42.008
O 59.295 50.375 42.726
O 60.832 46.359 45.268
O 66.343 60.743 45.142
H 63.975 50.553 44.284
H 64.068 51.625 43.212
H 61.772 46.577 45.259
H 60.514 46.676 44.414
H 60.765 50.376 47.203
H 59.906 51.096 46.178
H 71.036 53.802 46.303
H 70.036 54.932 46.47
H 69.825 51.744 48.029
H 71.287 51.36 48.169
H 69.766 52.788 44.173
H 62.5 53.147 48.548
H 60.993 53.336 48.529
H 70.089 54.26 44.36
H 61.969 49.066 41.859
H 64.782 60.642 47.755
H 56.94 57.967 44.337
H 56.174 58.89 45.269
H 63.142 55.79 52.04
H 62.996 55.156 50.668
H 69.447 58.775 46.765
H 68.25 55.805 42.318
H 69.426 56.19 43.198
H 70.285 48.967 51.162
H 69.229 49.943 50.672
H 70.839 53.188 51.346
H 70.473 54.656 51.476
H 58.999 56.547 45.275
H 59.686 56.347 46.614
H 68.705 53.405 51.874
H 69.144 54.116 53.142
H 68.362 56.811 50.159
H 69.655 57.57 50.402
H 70.945 49.088 44.088
H 67.075 48.516 45.041
H 66.596 49.919 45.37
H 67.029 51.297 54.273
H 68.449 51.82 54.396
H 65.543 60.304 44.827
H 68.948 48.078 43.961
H 68.549 49.239 43.066
H 70.452 54.417 48.671
H 69.555 55.641 48.727
H 59.269 47.868 46.593
H 59.944 53.127 45.335
H 58.711 53.988 45.547
H 63.225 57.679 47.362
H 64.643 58.221 47.36
H 59.303 55.934 43.102
H 60.184 54.698 43.131
H 65.636 47.891 46.584
H 65.12 47.07 45.415
H 61.655 49.386 54.216
H 61.619 47.891 53.952
H 64.667 55.215 56.331
H 63.46 54.649 57.06
H 59.423 46.925 47.773
H 66.606 59.638 49.222
H 64.725 53.574 51.056
H 65.176 52.287 50.388
H 66.576 59.367 47.728
H 66.873 53.794 50.404
H 66.197 55.147 50.262
H 59.768 58.458 50.109
H 58.543 58.0 49.337
H 61.158 46.652 50.543
H 61.9 45.847 51.595
H 65.523 44.965 50.708
H 72.345 56.221 47.943
H 72.248 56.917 49.289
H 59.068 59.12 45.406
H 62.806 53.46 44.157
H 59.652 58.4 47.402
H 61.169 58.461 47.402
H 58.232 51.655 44.266
H 56.945 52.252 43.725
H 63.651 50.978 47.854
H 66.016 61.558 45.542
H 64.837 50.073 47.571
H 60.432 54.382 55.729
H 61.574 53.443 56.077
H 62.068 52.136 44.067
H 57.539 59.499 47.421
H 58.553 60.5 47.945
H 66.941 57.538 46.289
H 67.686 55.121 45.512
H 67.005 54.794 44.195
H 66.613 58.346 45.046
H 60.931 60.318 45.224
H 60.478 60.151 43.784
H 59.449 57.375 54.248
H 66.29 50.784 43.315
H 66.857 51.225 41.977
H 69.222 57.308 53.91
H 60.208 48.851 44.202
H 58.804 48.354 44.498
H 66.301 46.896 52.16
H 68.832 58.387 52.916
H 61.499 50.319 49.313
H 61.597 51.7 49.938
H 69.732 48.338 48.869
H 68.506 49.158 48.507
H 65.026 51.987 52.605
H 63.693 51.531 53.172
H 66.85 56.557 52.137
H 67.838 55.427 51.91
H 62.037 52.042 57.831
H 63.447 52.36 58.298
H 64.615 56.175 48.167
H 63.699 54.986 48.4
H 56.66 50.152 47.804
H 57.307 51.463 48.213
H 60.803 55.315 50.729
H 61.123 56.749 51.111
H 65.63 49.662 54.727
H 64.164 50.056 54.737
H 60.443 58.946 52.669
H 61.831 58.471 53.063
H 61.866 52.299 46.461
H 63.056 53.242 46.421
H 65.913 46.087 48.857
H 66.261 47.565 48.881
H 62.126 55.729 46.845
H 62.294 51.415 55.616
H 60.914 51.401 54.981
H 62.006 54.987 45.525
H 57.204 55.861 43.757
H 57.525 54.376 43.735
H 64.753 54.345 53.661
H 65.39 55.715 53.511
H 58.419 49.622 52.995
H 59.896 49.281 52.897
H 67.944 54.413 40.45
H 63.119 52.069 41.12
H 64.24 51.139 40.691
H 61.031 57.578 43.095
H 59.684 58.112 43.55
H 62.01 54.729 41.698
H 60.854 55.398 40.975
H 61.371 48.078 47.232
H 61.621 47.75 48.693
H 62.75 49.369 56.283
H 68.535 46.485 48.818
H 69.389 46.52 47.563
H 66.372 47.661 43.139
H 56.737 56.448 46.539
H 56.55 54.996 46.943
H 64.667 47.081 50.478
H 63.263 47.444 50.93
H 63.812 50.677 51.149
H 63.794 49.728 49.963
H 66.176 49.185 41.511
H 64.111 45.758 52.218
H 63.301 46.734 53.053
H 59.43 47.536 51.577
H 59.048 46.077 51.397
H 65.448 53.984 47.377
H 69.201 51.56 45.909
H 69.015 50.741 44.643
H 61.528 45.592 47.8
H 65.551 52.758 54.992
H 64.289 52.521 55.802
H 64.823 52.659 45.248
H 66.269 52.248 45.031
H 59.713 53.832 39.609
H 58.821 52.836 40.33
H 62.635 61.268 46.604
H 62.893 59.82 46.982
H 65.298 55.949 45.878
H 64.193 55.076 45.309
H 66.452 54.994 47.907
H 68.082 53.198 46.86
H 68.379 53.852 48.198
H 62.516 60.142 42.954
H 70.42 48.277 46.732
H 68.949 48.327 46.359
H 63.651 59.163 42.713
H 67.464 53.913 54.911
H 67.695 54.16 56.391
H 67.306 48.652 51.294
H 66.6 49.41 50.183
H 62.288 57.799 45.192
H 63.679 57.865 44.584
H 72.309 49.888 46.867
H 71.002 50.341 46.24
H 63.397 47.541 55.252
H 63.274 48.61 46.244
H 62.142 48.826 45.255
H 57.278 55.714 51.718
H 65.502 58.1 52.934
H 64.102 58.194 53.514
H 58.83 53.645 48.265
H 57.561 53.53 49.091
H 58.769 55.771 51.434
H 59.516 48.606 49.204
H 58.583 49.756 48.871
H 60.955 52.271 41.631
H 60.194 52.508 42.924
H 66.084 51.876 47.389
H 66.789 51.354 48.629
H 60.22 50.359 42.451
H 58.973 49.494 42.499
H 63.637 48.505 43.18
H 64.095 47.884 41.872
H 67.938 46.44 45.779
H 67.8 45.321 44.761
H 63.766 45.75 48.52
H 63.349 46.838 47.545
H 59.755 51.369 51.222
H 61.025 50.884 51.9
H 62.238 58.689 50.85
H 58.545 46.767 53.851
H 59.984 46.506 53.441
H 56.685 59.743 49.819
H 65.69 44.741 46.743
H 64.681 44.108 45.8
