54
xyz format
O 63.318 56.846 29.469
O 61.956 55.119 25.085
O 65.638 56.162 29.199
O 60.892 54.228 28.697
O 58.721 58.317 25.544
O 61.694 59.243 29.052
O 55.916 56.593 25.711
O 58.569 52.523 28.233
O 61.402 58.089 26.958
O 62.539 54.401 30.282
O 59.8 52.798 25.368
O 58.31 55.312 26.587
O 60.193 56.514 24.13
O 56.215 59.499 24.685
O 57.63 53.784 23.62
O 65.356 57.574 30.96
O 64.169 55.732 26.589
O 62.801 52.843 25.943
H 62.172 50.719 25.811
H 63.452 56.379 26.592
H 64.836 56.131 26.016
H 54.671 53.832 23.529
H 55.107 53.437 24.929
H 56.86 59.045 24.128
H 66.577 54.383 26.786
H 58.072 53.127 23.068
H 57.922 53.566 24.514
H 60.093 53.59 25.836
H 59.57 52.185 26.077
H 57.96 54.601 27.139
H 57.719 55.322 25.824
H 62.092 52.854 25.288
H 59.885 56.298 25.02
H 60.664 57.348 24.247
H 62.053 55.235 30.271
H 61.484 57.379 26.309
H 61.876 58.826 26.554
H 59.373 51.989 28.26
H 57.96 51.994 27.704
H 60.985 59.058 29.68
H 61.288 59.848 28.419
H 55.895 56.269 26.621
H 55.823 57.549 25.806
H 59.107 58.553 26.397
H 58.018 57.697 25.774
H 65.45 56.863 28.562
H 65.415 55.353 28.72
H 62.293 61.467 27.282
H 60.96 54.281 27.736
H 61.033 53.292 28.886
H 63.373 56.171 28.781
H 63.233 57.671 28.975
H 61.479 54.741 24.336
H 62.604 55.703 24.672
