243
xyz format
O 66.298 65.926 54.185
O 59.892 64.597 44.045
O 62.267 63.912 49.325
O 65.522 73.736 52.528
O 67.504 68.334 48.91
O 66.081 64.437 51.062
O 63.466 72.94 53.637
O 67.054 61.767 48.895
O 71.41 61.627 54.881
O 66.038 60.789 52.061
O 63.446 63.312 46.768
O 73.877 61.721 48.033
O 70.392 65.806 48.912
O 61.631 61.417 54.456
O 66.394 67.533 57.174
O 70.928 59.159 53.705
O 67.719 68.723 45.768
O 64.751 70.124 53.396
O 67.277 61.685 54.283
O 61.419 67.367 51.856
O 71.719 61.327 50.7
O 61.67 60.589 49.077
O 69.302 68.926 56.655
O 65.069 66.505 49.189
O 70.478 65.422 59.228
O 60.085 65.541 47.945
O 64.193 63.194 52.568
O 71.274 63.123 47.551
O 65.593 68.66 46.358
O 60.014 61.846 50.729
O 67.714 67.655 42.698
O 72.804 63.531 50.301
O 62.932 65.063 51.091
O 72.953 61.649 53.31
O 69.162 67.138 54.708
O 69.555 68.937 50.703
O 69.016 64.218 45.603
O 72.188 65.307 47.107
O 64.402 61.363 50.707
O 64.667 68.385 43.334
O 67.362 65.095 43.669
O 70.076 67.526 58.252
O 63.034 70.06 51.11
O 62.089 69.299 55.23
O 68.635 71.238 54.809
O 69.937 69.552 53.348
O 68.991 57.036 50.856
O 64.806 66.687 44.858
O 71.422 63.771 56.513
O 70.138 59.345 47.123
O 69.005 60.911 52.108
O 66.157 70.708 55.349
O 65.845 73.29 49.445
O 63.676 66.559 57.751
O 68.886 65.327 52.273
O 65.904 67.722 59.316
O 62.618 64.824 43.263
O 70.268 63.435 54.333
O 67.389 62.821 57.353
O 68.875 57.428 53.018
O 63.598 66.9 42.117
O 63.845 62.107 44.969
O 67.033 59.107 48.538
O 73.324 65.471 56.738
O 62.888 60.417 46.224
O 62.884 73.044 50.188
O 69.717 60.399 49.481
O 64.72 61.502 47.32
O 64.889 74.256 47.703
O 66.579 69.031 52.834
O 62.414 65.692 45.616
O 71.196 62.744 44.895
O 65.453 66.525 51.355
O 68.579 61.247 46.523
O 68.592 70.168 44.357
O 69.139 63.701 50.781
O 72.926 61.412 46.035
O 68.354 69.211 58.622
O 70.246 65.83 56.323
O 72.488 59.353 48.668
O 65.837 64.717 46.944
O 69.593 60.828 55.83
O 65.906 69.426 50.77
O 64.154 70.009 56.571
O 63.435 67.588 46.967
O 72.44 67.385 52.61
O 66.343 60.743 45.142
H 66.117 65.556 46.557
H 65.798 64.117 46.189
H 64.137 69.148 43.599
H 70.459 65.447 55.463
H 70.636 66.712 56.285
H 66.774 64.647 44.29
H 65.576 68.695 43.425
H 68.974 64.485 50.242
H 69.256 62.997 50.131
H 70.684 63.405 53.463
H 69.338 63.25 54.149
H 67.838 62.736 56.502
H 62.082 65.622 43.184
H 62.155 64.302 43.93
H 63.36 67.103 57.019
H 64.12 65.822 57.314
H 72.851 65.312 46.405
H 72.686 65.553 47.896
H 63.284 65.606 46.025
H 61.875 66.096 46.307
H 65.383 68.502 59.085
H 65.255 67.007 59.322
H 61.715 66.944 55.558
H 64.035 61.994 50.076
H 64.824 60.698 50.149
H 65.894 68.354 52.763
H 67.402 68.534 52.748
H 66.773 73.438 49.227
H 65.831 72.387 49.788
H 64.782 60.642 47.755
H 64.858 62.132 48.038
H 69.447 58.775 46.765
H 70.7 59.532 46.36
H 62.899 72.215 50.683
H 63.788 73.375 50.269
H 72.156 63.24 56.181
H 71.217 63.37 57.367
H 69.655 57.57 50.402
H 64.365 66.198 44.152
H 65.728 66.722 44.572
H 67.621 67.41 43.627
H 72.579 62.128 52.56
H 73.174 60.784 52.943
H 60.83 62.184 50.338
H 70.811 68.069 58.563
H 69.534 67.4 59.04
H 62.761 68.735 54.828
H 69.395 70.744 55.14
H 68.256 71.635 55.603
H 63.7 69.442 50.786
H 63.015 69.899 52.062
H 72.543 65.938 57.062
H 73.416 64.728 57.348
H 70.4 68.954 52.747
H 69.17 69.84 52.838
H 72.596 64.339 50.788
H 73.502 63.121 50.827
H 63.215 65.577 51.858
H 62.597 64.243 51.474
H 66.606 59.638 49.222
H 66.576 59.367 47.728
H 69.591 65.238 52.926
H 68.109 64.976 52.725
H 68.346 66.682 54.466
H 64.026 62.832 44.358
H 69.62 64.473 46.311
H 68.141 64.332 45.996
H 69.633 67.225 53.871
H 65.288 66.204 52.251
H 66.394 66.738 51.357
H 63.663 61.358 44.388
H 66.016 61.558 45.542
H 69.172 69.664 50.198
H 69.927 68.358 50.026
H 62.54 60.938 48.848
H 69.948 68.775 55.954
H 68.736 68.145 56.618
H 65.18 69.258 46.993
H 65.06 68.767 45.561
H 65.02 62.866 52.192
H 63.57 62.473 52.415
H 70.384 62.885 47.838
H 71.657 63.553 48.326
H 60.455 64.814 47.429
H 59.909 66.224 47.285
H 64.283 66.428 48.634
H 65.763 66.09 48.661
H 68.832 58.387 52.916
H 66.763 68.485 48.31
H 68.252 68.19 48.318
H 65.947 72.91 52.791
H 65.724 68.638 50.243
H 66.743 69.75 50.416
H 71.761 60.374 50.845
H 70.826 61.563 50.983
H 61.342 66.589 52.422
H 61.244 68.105 52.453
H 63.114 67.902 46.112
H 63.182 68.29 47.579
H 66.955 62.571 54.494
H 66.958 61.145 55.017
H 72.332 68.165 52.052
H 71.632 66.879 52.457
H 67.782 67.857 46.191
H 67.774 69.343 46.506
H 64.638 71.011 53.759
H 64.696 69.55 54.17
H 71.718 58.864 54.175
H 70.251 59.192 54.392
H 64.429 70.913 56.769
H 64.733 69.468 57.121
H 70.159 60.835 48.742
H 69.162 59.734 49.055
H 66.73 61.463 52.055
H 66.475 60.009 51.696
H 69.139 69.404 44.134
H 68.942 70.872 43.796
H 74.309 60.915 48.341
H 74.09 62.371 48.715
H 68.37 62.07 46.063
H 66.54 68.26 56.557
H 65.934 66.871 56.644
H 65.462 74.175 46.93
H 64.019 74.435 47.325
H 66.511 70.438 56.206
H 66.046 71.662 55.438
H 69.178 60.112 51.594
H 68.608 60.579 52.922
H 63.819 63.957 47.382
H 62.532 63.604 46.657
H 70.896 61.318 54.125
H 71.913 60.848 55.151
H 62.635 61.268 46.604
H 66.831 63.862 51.26
H 65.89 64.252 50.133
H 66.382 65.453 55.022
H 65.959 66.792 54.445
H 63.599 72.684 52.715
H 62.505 72.968 53.73
H 67.81 61.494 49.43
H 66.478 62.218 49.525
H 72.515 60.759 45.455
H 73.363 62.018 45.424
H 70.531 66.252 49.757
H 70.599 66.484 48.257
H 69.161 69.735 58.698
H 67.785 69.749 58.058
H 68.955 60.123 56.0
H 72.327 60.021 47.99
H 71.608 59.162 49.015
H 70.539 62.455 45.54
H 70.674 63.202 44.225
H 59.98 65.558 44.07
H 60.181 64.318 44.923
H 62.249 64.682 48.742
H 62.001 63.183 48.75
