66
xyz format
O 44.251 57.008 30.865
O 43.167 63.664 30.895
O 40.343 65.535 28.373
O 43.266 61.36 31.959
O 40.028 61.029 33.684
O 39.563 62.225 31.07
O 42.253 57.387 25.26
O 40.502 58.425 30.405
O 43.851 58.259 29.088
O 41.24 62.051 28.177
O 39.495 59.998 27.26
O 45.506 59.699 32.804
O 44.15 58.19 34.028
O 38.547 65.3 29.963
O 42.724 55.002 30.394
O 39.988 57.619 27.493
O 43.197 60.591 29.351
O 46.129 57.247 32.393
O 41.973 63.089 34.166
O 43.399 62.901 25.854
O 41.026 65.701 31.399
O 42.38 58.904 26.848
H 39.138 57.662 27.947
H 40.625 57.873 28.172
H 42.513 60.266 29.951
H 43.138 61.551 29.435
H 40.697 62.613 27.609
H 40.671 61.877 28.937
H 40.287 60.022 27.812
H 38.83 60.449 27.794
H 38.32 64.363 29.929
H 37.755 65.74 29.629
H 42.686 55.798 29.85
H 45.809 55.929 29.748
H 44.837 59.828 32.121
H 46.297 59.453 32.307
H 40.941 55.62 28.522
H 43.254 54.898 27.486
H 41.675 62.948 33.259
H 43.388 57.548 28.627
H 44.327 58.717 28.384
H 45.985 56.297 32.307
H 44.858 60.701 25.605
H 41.646 56.983 24.627
H 42.913 57.817 24.701
H 38.57 65.019 32.146
H 43.843 62.601 25.051
H 43.006 62.096 26.214
H 40.114 62.96 30.772
H 38.954 62.081 30.335
H 46.243 58.371 30.251
H 41.719 59.3 26.266
H 42.427 59.517 27.592
H 45.41 61.908 31.684
H 41.006 65.443 30.469
H 41.894 66.11 31.505
H 42.439 61.713 31.606
H 43.108 61.313 32.91
H 43.898 56.461 31.578
H 44.254 57.898 31.239
H 44.494 62.86 33.688
H 39.483 65.381 27.961
H 40.729 64.652 28.435
H 42.364 63.905 31.373
H 42.919 63.762 29.967
H 46.127 60.03 28.137
