234
xyz format
O 57.383 56.978 34.142
O 64.961 57.25 42.373
O 57.435 62.758 36.515
O 60.258 62.351 44.827
O 62.669 64.641 48.644
O 63.295 61.531 47.233
O 50.149 57.256 40.863
O 62.338 57.138 48.277
O 63.151 60.448 44.556
O 56.88 62.65 46.852
O 59.718 61.058 50.618
O 59.636 59.017 43.739
O 60.166 63.13 48.356
O 55.889 55.308 38.437
O 57.588 53.553 40.269
O 65.881 55.703 44.679
O 61.709 60.919 41.897
O 61.429 55.038 49.535
O 68.359 53.757 45.048
O 60.9 53.637 42.399
O 61.759 54.27 40.455
O 57.155 56.071 41.002
O 63.49 55.359 47.456
O 56.427 63.137 40.493
O 54.942 60.278 47.478
O 53.581 58.618 34.85
O 54.161 65.286 39.883
O 56.393 54.148 42.898
O 62.006 60.388 51.019
O 61.442 63.842 40.095
O 60.669 56.231 44.009
O 64.234 61.409 40.625
O 63.563 64.117 45.351
O 59.986 57.097 34.676
O 59.798 65.921 47.72
O 58.189 59.925 35.07
O 60.299 52.985 48.93
O 59.147 61.043 41.328
O 55.358 66.545 45.928
O 65.279 59.385 41.949
O 53.52 59.597 40.198
O 65.579 62.947 47.108
O 57.98 62.374 44.277
O 66.467 60.627 44.161
O 56.812 58.267 39.371
O 59.155 59.939 46.995
O 52.3 56.561 42.273
O 58.982 56.631 48.513
O 61.57 60.496 48.121
O 54.091 63.572 42.554
O 59.263 57.36 45.539
O 55.208 66.305 43.115
O 66.093 59.887 46.896
O 54.695 60.819 42.748
O 63.249 59.123 47.069
O 53.767 55.163 43.946
O 60.58 54.595 34.387
O 51.575 60.853 41.984
O 55.855 60.512 44.673
O 56.698 64.159 44.293
O 61.363 59.047 39.451
O 58.17 54.604 49.893
O 58.229 57.499 51.061
O 59.512 62.897 39.624
O 58.138 54.349 33.941
O 56.926 58.411 36.304
O 64.323 61.316 50.204
O 61.639 60.701 38.026
O 67.743 57.848 43.522
O 65.786 57.431 48.191
O 54.825 62.047 35.214
O 54.24 57.197 37.424
O 63.018 55.393 43.819
O 63.256 52.89 42.31
O 58.375 66.588 49.387
O 56.557 58.711 42.218
O 61.854 57.113 37.469
O 62.679 58.307 44.734
O 57.32 65.178 46.323
O 63.082 62.891 42.486
H 62.807 58.007 43.825
H 61.742 58.535 44.771
H 55.485 59.917 45.338
H 56.439 61.089 45.182
H 58.1 54.329 48.97
H 63.691 55.651 44.461
H 63.53 55.069 43.067
H 61.241 60.971 37.189
H 62.318 61.369 38.182
H 51.333 61.205 41.118
H 60.812 55.105 35.174
H 52.889 55.976 41.78
H 56.948 58.025 37.188
H 56.578 59.299 36.449
H 52.352 57.397 41.792
H 52.862 54.848 43.828
H 54.291 54.564 43.399
H 62.342 58.862 46.866
H 63.779 58.392 46.729
H 59.31 56.52 49.414
H 60.791 60.857 48.563
H 58.074 56.936 48.635
H 62.228 60.444 48.825
H 57.031 61.594 49.408
H 55.34 64.562 47.078
H 60.478 59.42 39.545
H 61.903 59.587 40.041
H 57.559 56.808 50.987
H 55.842 64.437 44.642
H 56.506 63.919 43.378
H 54.401 54.728 40.778
H 64.681 63.297 47.061
H 61.227 56.57 43.297
H 59.789 56.198 43.614
H 58.271 61.505 43.971
H 58.469 62.989 43.716
H 63.079 64.818 44.897
H 65.513 62.234 47.755
H 64.199 63.813 44.692
H 65.102 59.13 41.035
H 65.854 60.156 41.864
H 53.106 59.482 41.062
H 54.44 59.801 40.41
H 61.083 52.704 48.442
H 55.202 55.03 32.81
H 56.008 66.554 45.214
H 65.763 61.184 43.807
H 66.606 60.972 45.052
H 57.561 57.909 39.863
H 56.465 58.956 39.952
H 58.197 60.875 41.302
H 59.241 61.723 42.006
H 64.143 52.951 42.687
H 62.731 52.501 43.02
H 60.451 57.063 33.831
H 59.403 57.861 34.586
H 59.331 65.138 48.036
H 59.964 65.73 46.789
H 65.311 57.809 48.942
H 66.507 58.054 48.039
H 58.567 59.856 34.184
H 58.941 59.762 35.653
H 63.867 60.984 41.411
H 63.532 62.007 40.339
H 56.436 59.469 42.804
H 57.469 58.799 41.916
H 61.634 63.67 41.025
H 61.707 63.026 39.652
H 54.165 63.609 43.516
H 57.197 54.472 43.321
H 60.83 54.106 40.25
H 54.842 65.539 40.518
H 53.46 64.916 40.434
H 62.456 58.249 51.244
H 62.146 61.339 51.104
H 57.022 62.73 41.134
H 55.631 63.326 41.006
H 64.278 54.917 47.116
H 63.149 55.84 46.691
H 57.555 56.096 41.881
H 56.498 55.367 41.069
H 54.762 60.743 48.305
H 55.239 59.405 47.765
H 60.754 62.956 47.609
H 54.654 62.976 35.409
H 54.051 61.592 35.568
H 59.292 62.901 48.017
H 60.202 53.476 43.045
H 53.533 55.834 34.866
H 61.359 54.412 42.745
H 59.001 64.015 50.003
H 53.251 58.552 33.945
H 54.378 59.156 34.765
H 61.151 57.233 36.818
H 59.271 66.601 49.747
H 62.139 58.014 37.668
H 51.298 58.294 39.322
H 63.676 62.41 43.076
H 67.569 53.342 44.681
H 68.109 54.685 45.14
H 62.501 63.372 43.088
H 61.003 55.303 48.71
H 62.279 54.681 49.25
H 61.075 60.197 41.986
H 61.297 61.508 41.253
H 68.247 57.277 44.115
H 67.241 58.414 44.121
H 66.321 56.539 44.879
H 66.389 55.348 43.939
H 55.114 62.883 48.675
H 66.12 53.904 46.382
H 66.861 55.119 46.911
H 55.97 56.269 38.39
H 56.689 55.033 38.902
H 61.437 54.354 46.773
H 58.999 62.131 39.336
H 58.896 63.388 40.183
H 59.191 61.5 49.941
H 60.237 58.534 43.159
H 59.279 59.712 43.172
H 57.008 63.236 47.609
H 55.838 66.235 42.387
H 54.495 65.706 42.86
H 65.307 59.801 47.45
H 66.771 60.2 47.508
H 58.818 59.533 47.803
H 59.075 60.886 47.163
H 60.067 57.447 46.066
H 58.662 56.871 46.115
H 55.012 61.278 41.96
H 54.0 61.397 43.085
H 56.642 61.805 47.254
H 54.432 56.529 36.754
H 53.295 57.092 37.588
H 63.841 60.121 43.965
H 62.477 60.788 43.954
H 50.101 56.429 41.358
H 62.781 57.003 49.124
H 61.537 57.624 48.512
H 61.324 56.361 51.289
H 59.887 62.816 45.587
H 61.017 61.881 45.193
H 58.05 62.847 37.254
H 56.595 62.543 36.94
H 56.684 57.033 33.479
H 56.934 56.619 34.918
H 65.42 56.448 42.095
H 64.853 57.134 43.326
H 58.101 64.612 46.287
H 63.835 61.172 46.518
H 62.547 61.934 46.774
H 57.318 65.509 47.23
H 62.563 63.746 48.99
H 61.785 64.871 48.33
