60
xyz format
O 74.857 41.91 41.833
O 72.564 43.314 37.78
O 70.952 45.473 40.043
O 72.217 46.232 42.651
O 75.722 43.93 41.154
O 73.252 44.143 46.298
O 76.358 46.786 39.045
O 74.426 43.695 39.391
O 71.249 43.865 43.486
O 71.555 48.52 44.573
O 74.359 48.141 43.669
O 73.983 46.165 39.976
O 70.437 48.094 41.294
O 71.048 48.164 38.908
O 73.904 48.505 39.58
O 77.267 43.918 42.762
O 71.976 49.716 41.266
O 76.751 47.587 41.916
O 75.367 45.411 43.859
O 75.293 42.702 45.464
H 77.292 44.866 42.942
H 76.997 43.531 43.604
H 75.325 43.618 45.768
H 74.648 42.722 44.746
H 70.561 47.945 42.24
H 77.377 46.856 41.989
H 76.697 47.933 42.816
H 73.282 48.068 38.985
H 73.765 49.444 39.407
H 71.198 49.022 39.324
H 71.578 46.203 38.064
H 72.032 48.049 43.877
H 71.656 44.25 44.271
H 73.531 40.26 40.319
H 73.03 42.589 43.259
H 74.118 48.08 36.73
H 73.416 44.686 45.517
H 73.924 42.873 39.452
H 74.639 43.765 38.452
H 76.031 47.681 39.202
H 76.789 46.551 39.875
H 71.06 46.53 45.37
H 75.788 44.839 40.836
H 76.375 43.454 40.625
H 70.602 44.833 40.674
H 72.548 44.271 37.654
H 71.444 46.094 40.595
H 72.277 42.266 41.096
H 74.575 46.654 40.561
H 73.581 45.506 40.555
H 74.021 47.327 43.275
H 73.985 48.837 43.115
H 75.807 40.905 44.303
H 73.391 40.298 38.124
H 75.288 45.596 44.803
H 74.582 44.886 43.662
H 69.396 43.313 41.874
H 71.313 45.977 42.874
H 72.692 45.392 42.626
H 75.416 42.251 42.542
