69
xyz format
O 68.971 51.431 66.409
O 66.925 61.162 65.676
O 64.423 56.929 66.829
O 70.4 48.793 66.636
O 72.411 52.339 63.983
O 69.161 52.654 63.008
O 71.635 51.422 65.96
O 71.186 53.533 67.989
O 64.113 56.623 64.676
O 68.284 54.102 67.92
O 67.241 56.179 63.668
O 66.727 55.814 66.239
O 67.902 52.872 64.805
O 66.554 56.94 69.479
O 70.387 56.056 67.936
O 69.354 58.359 68.053
O 70.243 50.768 70.376
O 68.558 59.38 65.557
O 67.465 53.232 69.817
O 65.587 59.325 64.57
O 65.969 52.9 66.381
H 62.719 56.111 68.596
H 66.957 54.023 70.034
H 66.885 52.744 69.219
H 70.215 50.549 69.436
H 69.518 51.395 70.487
H 69.138 54.155 67.474
H 67.648 54.064 67.195
H 67.335 55.252 63.415
H 68.152 56.489 63.742
H 70.326 56.317 67.009
H 69.489 56.176 68.268
H 69.649 59.045 67.441
H 68.394 58.46 68.065
H 65.996 51.975 71.616
H 66.901 56.671 68.619
H 66.881 56.259 70.08
H 67.063 52.51 64.493
H 67.69 53.79 65.016
H 67.237 56.532 65.843
H 66.277 55.411 65.487
H 62.814 55.358 66.518
H 67.664 58.799 63.054
H 67.643 61.229 66.318
H 67.381 61.124 64.826
H 69.505 54.782 63.441
H 71.5 54.164 68.649
H 71.658 53.787 67.186
H 65.017 56.934 64.543
H 68.326 52.746 62.532
H 70.969 51.131 65.325
H 71.545 50.796 66.69
H 66.043 58.754 65.201
H 72.973 51.768 63.445
H 71.763 52.681 63.354
H 69.786 48.632 65.909
H 71.269 48.662 66.237
H 63.928 57.532 67.396
H 71.866 54.828 64.808
H 70.887 55.984 64.705
H 64.937 56.399 67.451
H 68.912 59.551 64.675
H 68.209 58.483 65.494
H 65.619 52.657 67.247
H 65.255 53.413 65.981
H 63.808 53.811 67.725
H 66.43 50.328 67.356
H 69.389 52.296 66.32
H 68.073 51.638 66.696
