137
xyz format
O 62.173 44.389 42.685
O 61.097 47.285 39.771
O 57.527 39.392 44.856
O 62.906 39.422 43.925
O 55.651 41.602 42.9
O 57.742 36.64 38.365
O 56.87 35.399 44.55
O 52.181 38.422 42.594
O 59.052 40.635 45.899
O 61.117 37.571 41.945
O 62.966 35.992 41.161
O 53.087 40.794 50.971
O 60.062 44.345 41.674
O 56.982 41.707 39.823
O 60.473 36.334 47.206
O 59.668 41.292 39.142
O 57.482 43.742 42.228
O 56.906 48.665 42.027
O 55.129 36.91 43.964
O 58.972 44.967 38.96
O 60.145 38.919 37.668
O 58.4 34.241 47.166
O 53.501 41.307 42.52
O 54.735 36.665 40.538
O 58.074 36.784 40.546
O 54.465 34.504 47.404
O 59.805 41.423 48.572
O 58.887 37.503 46.227
O 58.668 39.011 49.076
O 61.358 35.36 43.722
O 60.695 40.219 43.778
O 59.949 43.914 44.681
O 55.609 38.781 38.286
O 53.516 38.54 45.515
O 53.612 39.21 48.135
O 61.644 42.892 39.623
O 59.438 46.785 42.027
O 54.483 37.411 49.577
O 61.191 37.962 45.881
O 57.043 40.261 49.869
O 55.686 39.05 42.203
O 58.394 41.651 42.138
O 62.357 41.464 42.486
O 50.61 37.205 41.65
O 57.805 42.605 36.97
O 59.68 39.323 41.176
O 57.525 42.61 46.168
O 56.94 40.673 47.041
O 60.832 46.359 45.268
H 54.087 39.864 48.662
H 52.735 39.184 48.539
H 60.514 46.676 44.414
H 53.912 37.964 46.181
H 53.486 39.403 45.946
H 54.9 38.482 37.703
H 59.73 44.599 44.038
H 56.933 43.047 46.793
H 58.375 42.6 46.627
H 59.645 43.1 44.261
H 61.248 40.821 44.291
H 60.665 39.419 44.317
H 59.033 39.88 40.726
H 60.243 39.954 41.641
H 55.764 34.377 38.667
H 61.452 41.697 42.244
H 62.793 41.322 41.637
H 54.206 34.766 46.511
H 58.441 38.08 48.96
H 58.867 39.311 48.18
H 50.347 37.882 44.781
H 57.456 47.877 42.123
H 58.173 45.031 39.498
H 59.501 45.723 39.244
H 54.874 36.839 43.035
H 55.095 37.858 44.139
H 53.57 34.239 38.533
H 58.506 37.463 41.08
H 57.851 36.097 41.186
H 59.608 38.269 37.197
H 59.559 39.236 38.367
H 54.008 38.129 50.014
H 57.448 34.359 47.28
H 63.285 38.577 41.019
H 55.114 37.355 39.979
H 54.859 35.859 40.022
H 53.36 40.358 42.407
H 53.029 41.699 41.775
H 57.412 36.192 48.493
H 54.96 38.828 41.606
H 56.412 39.272 41.607
H 59.517 42.169 39.515
H 60.501 41.013 39.542
H 60.562 37.0 42.491
H 61.67 38.034 42.586
H 56.605 43.972 42.56
H 58.042 44.465 42.54
H 60.613 45.028 41.273
H 60.141 43.6 41.066
H 61.572 38.657 46.431
H 60.032 35.849 47.915
H 56.568 39.522 49.47
H 61.322 36.583 47.591
H 58.804 48.354 44.498
H 62.79 36.147 42.097
H 62.27 42.329 39.149
H 62.153 43.688 39.818
H 53.085 38.213 42.859
H 51.866 39.008 43.293
H 59.987 40.51 46.103
H 59.06 41.024 45.015
H 57.267 36.254 44.34
H 56.33 35.582 45.329
H 57.059 42.505 40.36
H 60.635 39.061 50.058
H 56.892 36.373 38.737
H 61.781 42.897 45.714
H 55.86 40.846 43.462
H 55.516 42.324 43.527
H 57.15 40.991 40.448
H 56.956 38.636 45.046
H 57.521 39.447 43.893
H 61.651 46.72 40.324
H 60.583 47.797 40.408
H 57.029 39.712 47.046
H 57.456 40.955 47.807
H 50.166 37.357 42.493
H 57.998 37.461 46.6
H 59.065 38.45 46.164
H 49.98 36.668 41.153
H 60.105 41.931 47.808
H 57.92 41.433 42.951
H 59.27 41.912 42.447
H 58.493 42.296 37.572
H 58.898 46.42 41.316
H 59.0 46.478 42.83
H 62.477 43.573 43.101
H 61.974 44.967 43.432
