251
xyz format
O 48.932 74.673 45.769
O 49.082 73.724 49.746
O 41.949 71.846 45.23
O 48.972 71.83 41.053
O 43.758 73.963 38.954
O 43.198 71.925 49.376
O 51.394 76.14 42.596
O 50.752 72.257 50.495
O 51.937 69.553 51.704
O 49.158 68.118 50.586
O 44.064 70.738 47.13
O 47.46 69.791 41.186
O 53.904 72.692 41.641
O 44.923 69.41 49.975
O 42.36 74.43 51.431
O 52.739 68.798 43.274
O 55.8 70.436 43.067
O 45.392 75.422 45.818
O 49.004 75.83 43.481
O 54.162 71.746 44.896
O 49.133 66.643 45.444
O 44.504 70.149 44.291
O 50.941 78.844 49.76
O 52.247 72.371 38.984
O 49.414 73.68 39.114
O 52.391 73.404 45.204
O 40.433 75.629 51.747
O 53.628 73.72 48.648
O 48.912 72.1 44.547
O 54.254 72.37 50.268
O 48.235 71.452 38.647
O 51.26 74.535 48.122
O 40.987 73.689 47.57
O 51.35 75.601 51.898
O 52.153 70.067 46.052
O 46.604 71.79 52.932
O 48.334 69.772 54.208
O 48.328 69.737 43.505
O 41.988 74.705 42.66
O 52.317 76.433 49.131
O 45.913 75.626 50.034
O 53.33 68.67 47.642
O 56.574 72.226 51.034
O 56.691 74.124 48.591
O 49.537 73.242 53.011
O 46.061 73.681 54.138
O 52.319 76.485 54.067
O 46.679 73.192 38.953
O 45.906 77.328 42.59
O 51.514 77.722 47.032
O 43.63 68.584 47.013
O 51.483 70.953 41.956
O 47.284 70.715 45.176
O 50.798 67.973 52.906
O 43.137 74.945 48.592
O 53.935 77.88 46.843
O 46.99 75.288 48.146
O 38.92 76.07 49.131
O 49.549 69.373 47.7
O 44.074 77.278 46.493
O 45.492 72.766 46.761
O 43.908 72.08 41.848
O 45.407 72.069 49.331
O 44.864 75.995 53.24
O 46.644 68.847 52.456
O 49.831 75.433 54.553
O 40.496 68.562 45.922
O 49.873 69.62 45.066
O 49.99 77.625 54.651
O 50.93 71.658 47.087
O 42.133 66.588 46.963
O 54.32 75.359 50.973
O 43.944 71.675 52.405
O 56.987 77.517 49.447
O 43.992 75.074 41.265
O 44.975 72.911 43.91
O 41.782 73.087 39.81
O 46.46 73.561 50.56
O 41.787 76.941 48.916
O 57.024 77.2 46.115
O 53.207 72.816 52.667
O 53.652 74.914 46.798
O 48.296 77.728 46.186
O 49.013 70.417 51.058
O 48.954 76.999 48.202
O 46.357 78.554 52.067
O 49.688 78.273 52.177
O 51.511 74.089 41.788
O 43.266 77.536 50.451
O 52.147 74.567 39.455
O 46.713 74.289 41.021
H 43.08 72.324 41.417
H 44.567 72.175 41.149
H 46.283 73.282 46.563
H 44.852 73.066 46.104
H 45.561 71.49 48.575
H 45.131 72.903 48.929
H 50.63 78.437 52.31
H 49.668 77.595 51.491
H 43.114 77.202 46.55
H 44.309 77.8 47.27
H 46.995 77.883 51.796
H 45.776 78.085 52.679
H 51.523 73.16 42.049
H 50.733 74.158 41.222
H 57.793 76.989 46.659
H 47.287 75.485 47.249
H 47.197 74.352 48.255
H 39.239 75.232 49.489
H 39.003 76.682 49.872
H 54.08 72.405 52.63
H 49.112 69.992 48.298
H 50.217 68.951 48.254
H 56.287 76.808 46.598
H 54.199 75.697 46.938
H 54.243 74.299 46.346
H 50.919 71.133 42.719
H 46.791 71.289 45.776
H 50.982 70.301 41.45
H 47.518 69.956 45.725
H 45.428 73.171 43.099
H 44.248 73.543 43.979
H 45.987 76.821 41.772
H 46.812 77.374 42.921
H 43.991 75.847 41.844
H 44.01 74.329 41.879
H 49.916 72.436 52.638
H 54.737 78.285 47.196
H 54.149 77.719 45.916
H 44.598 71.665 51.695
H 50.702 78.027 46.608
H 51.876 77.085 46.402
H 54.526 76.226 51.343
H 54.016 74.851 51.735
H 53.076 76.696 49.667
H 51.69 76.083 49.777
H 47.589 69.124 43.409
H 47.045 73.464 38.102
H 46.143 72.419 38.736
H 42.081 73.855 43.108
H 52.61 75.848 54.731
H 52.176 77.295 54.572
H 48.935 69.476 42.801
H 45.257 73.338 53.729
H 46.608 73.942 53.387
H 44.395 68.569 47.602
H 42.877 68.63 47.615
H 41.334 74.531 41.971
H 48.519 72.564 45.297
H 49.333 72.804 44.037
H 56.351 74.74 49.252
H 48.795 70.729 38.338
H 47.752 71.067 39.389
H 51.25 75.321 47.561
H 51.05 73.816 47.514
H 49.691 70.311 45.715
H 53.464 71.832 50.407
H 49.742 68.801 45.561
H 54.836 71.794 49.756
H 49.962 75.332 53.602
H 48.872 75.478 54.649
H 53.364 69.616 47.832
H 49.116 77.965 54.421
H 49.972 77.581 55.615
H 52.275 75.478 39.749
H 45.903 76.458 50.523
H 45.186 75.72 49.407
H 46.761 71.459 52.039
H 46.658 70.999 53.483
H 41.244 73.182 48.35
H 41.093 74.607 47.849
H 44.707 75.207 52.706
H 45.817 68.84 51.958
H 46.798 67.916 52.657
H 50.689 74.995 51.542
H 51.895 75.04 52.463
H 48.598 73.036 53.098
H 52.069 69.691 45.167
H 51.555 69.53 46.587
H 48.784 70.064 53.405
H 52.484 72.985 46.068
H 51.854 74.186 45.385
H 53.298 74.452 49.184
H 52.904 73.081 48.661
H 51.601 71.407 47.734
H 50.142 71.815 47.623
H 48.779 74.405 39.075
H 50.175 74.014 38.623
H 51.793 72.154 39.808
H 51.592 78.51 49.131
H 50.094 78.603 49.363
H 44.455 69.756 43.411
H 45.255 70.753 44.23
H 45.999 74.634 40.471
H 47.303 75.045 41.132
H 48.293 66.398 45.037
H 49.639 65.821 45.439
H 48.139 75.691 43.886
H 54.683 72.334 45.456
H 54.073 70.944 45.426
H 48.869 76.594 42.907
H 45.874 76.255 45.748
H 45.782 74.873 45.126
H 56.147 69.611 43.428
H 55.181 70.146 42.385
H 53.141 69.651 43.067
H 43.081 74.275 50.809
H 43.903 77.183 51.085
H 42.548 77.863 51.007
H 52.126 75.757 43.096
H 51.826 76.545 41.833
H 50.935 72.474 49.572
H 50.957 71.316 50.554
H 44.35 70.178 50.093
H 45.811 69.788 49.948
H 49.606 76.547 48.752
H 48.318 77.346 48.84
H 41.738 74.05 39.86
H 43.526 75.571 47.969
H 43.363 74.083 48.222
H 50.13 68.548 52.511
H 56.297 77.277 48.816
H 44.864 70.622 46.602
H 43.353 70.702 46.479
H 45.608 73.496 51.01
H 47.104 73.494 51.277
H 52.542 70.306 51.698
H 51.909 69.275 50.78
H 48.715 68.416 49.781
H 50.077 68.005 50.313
H 42.762 71.265 48.823
H 42.484 72.273 49.924
H 48.192 69.965 51.288
H 48.72 71.282 50.748
H 47.504 77.953 45.683
H 49.18 73.57 48.798
H 49.252 74.669 49.843
H 48.494 76.825 45.909
H 44.621 74.24 38.623
H 43.844 73.006 39.047
H 46.852 69.057 41.337
H 48.205 69.381 40.728
H 53.449 72.114 42.266
H 49.303 74.846 46.644
H 49.707 74.641 45.194
H 42.106 77.715 48.437
H 41.079 77.291 49.472
H 41.459 72.302 45.926
H 42.481 72.545 44.829
H 49.881 72.145 40.971
H 48.891 71.604 41.988
