316
xyz format
O 48.289 54.675 60.198
O 47.424 54.104 66.271
O 55.968 59.682 62.992
O 58.119 54.41 60.805
O 52.342 61.133 68.723
O 51.025 49.636 71.163
O 49.199 54.548 65.05
O 48.067 51.742 61.864
O 58.796 59.374 64.961
O 50.429 46.887 61.906
O 53.691 45.986 67.672
O 46.699 55.348 70.014
O 56.871 54.921 68.371
O 57.393 50.847 72.057
O 48.289 51.398 67.62
O 45.731 53.856 60.759
O 43.274 49.346 66.01
O 47.298 56.666 66.583
O 51.219 52.43 70.538
O 55.974 50.296 69.876
O 47.926 61.005 61.121
O 56.347 56.773 69.443
O 54.745 47.562 72.214
O 54.146 46.555 63.835
O 55.729 60.392 59.571
O 51.724 53.542 64.725
O 53.87 53.66 68.672
O 50.654 50.674 67.209
O 52.78 57.819 67.129
O 43.318 58.978 68.133
O 53.677 64.195 67.324
O 49.944 52.038 65.237
O 44.582 51.93 66.294
O 45.791 57.047 72.962
O 44.901 48.673 62.946
O 42.532 51.14 70.219
O 56.375 46.639 69.781
O 56.402 51.536 63.405
O 45.306 56.67 62.387
O 47.052 57.775 61.629
O 42.291 57.22 66.609
O 59.051 56.579 63.042
O 53.335 59.822 59.477
O 53.887 51.634 67.558
O 52.648 62.02 61.581
O 47.15 59.032 58.231
O 49.151 47.639 66.853
O 54.183 62.051 70.321
O 50.248 60.15 67.523
O 50.197 49.745 63.746
O 52.245 51.887 61.515
O 51.928 47.178 70.185
O 54.178 49.153 69.305
O 54.925 60.006 67.785
O 54.662 56.543 64.089
O 55.544 47.004 66.219
O 54.503 48.568 61.921
O 52.347 55.403 73.0
O 52.916 55.211 65.598
O 50.022 54.357 61.744
O 43.846 53.612 67.873
O 49.498 55.815 69.244
O 43.627 58.729 63.446
O 46.166 50.465 65.749
O 43.705 55.211 72.213
O 46.858 53.389 72.654
O 54.39 58.038 61.041
O 47.377 48.498 61.554
O 51.36 54.265 68.284
O 45.484 55.421 68.155
O 58.218 51.392 64.638
O 41.46 54.421 67.434
O 59.672 53.905 63.461
O 51.398 61.435 71.409
O 58.291 55.897 65.975
O 55.395 58.188 65.856
O 49.094 57.43 60.789
O 53.821 50.34 72.797
O 56.714 49.376 62.964
O 44.71 49.266 68.374
O 44.781 57.993 70.55
O 54.797 52.536 60.356
O 57.868 52.088 68.687
O 58.266 52.377 61.636
O 54.031 61.468 65.908
O 52.312 48.899 61.152
O 53.778 58.748 63.227
O 56.364 54.83 63.474
O 55.106 54.612 70.907
O 45.016 57.813 65.766
O 41.594 51.597 66.938
O 43.662 53.147 64.699
O 45.143 55.064 64.304
O 49.121 61.069 69.859
O 53.504 47.74 59.259
O 50.522 60.756 60.53
O 48.31 49.359 69.064
O 44.827 51.62 69.107
O 54.572 51.969 70.214
O 41.748 55.727 63.732
O 50.516 53.01 74.369
O 51.743 56.608 61.237
O 53.678 52.437 73.681
O 50.585 56.881 63.867
O 56.957 60.557 66.723
O 53.589 53.425 63.084
O 53.187 49.53 64.323
O 51.17 59.369 62.253
O 46.766 48.107 66.076
O 56.405 50.712 66.119
O 44.961 53.241 62.831
O 48.404 63.435 69.29
O 45.115 50.715 61.782
O 56.131 58.195 58.527
O 49.132 50.328 60.552
O 46.676 54.87 62.737
O 58.454 57.81 67.415
O 43.461 55.677 69.217
C 49.365 53.325 56.879
C 48.427 51.155 57.474
C 48.124 52.651 57.501
C 54.453 52.135 57.049
H 53.717 56.416 63.94
H 44.285 59.029 64.086
H 54.834 56.055 64.904
H 44.875 57.855 66.72
H 45.843 58.294 65.635
H 43.01 58.21 63.978
H 54.436 47.605 61.924
H 54.675 48.784 60.996
H 48.931 50.837 58.421
H 49.166 57.257 59.842
H 48.836 56.576 61.159
H 54.539 50.737 72.289
H 53.283 49.899 72.128
H 47.936 53.024 58.534
H 57.063 55.246 63.993
H 54.436 55.2 70.535
H 55.914 55.138 70.879
H 55.89 54.289 64.118
H 52.996 58.483 63.727
H 53.729 59.712 63.219
H 55.233 47.918 66.211
H 56.53 51.468 66.706
H 56.07 57.841 65.259
H 54.717 58.532 65.261
H 56.297 49.967 66.724
H 51.996 59.137 61.81
H 50.743 58.516 62.403
H 46.925 47.624 66.897
H 46.174 47.529 65.58
H 53.866 57.27 60.781
H 55.021 57.679 61.677
H 57.709 60.843 66.19
H 56.236 60.492 66.085
H 58.938 53.767 64.072
H 51.93 60.841 70.865
H 51.373 56.572 64.331
H 50.306 57.651 64.378
H 59.214 56.161 66.07
H 57.892 56.63 65.489
H 46.695 47.905 61.894
H 50.824 54.875 67.762
H 51.861 53.775 67.62
H 52.718 49.741 61.392
H 51.523 49.157 60.66
H 45.053 55.486 67.293
H 45.827 54.519 68.172
H 48.188 48.174 61.965
H 55.61 59.365 68.012
H 55.16 60.785 68.304
H 47.273 53.004 71.872
H 47.334 54.219 72.781
H 58.016 52.131 65.226
H 58.423 50.668 65.243
H 51.934 55.783 60.774
H 50.949 56.406 61.748
H 53.652 51.827 57.739
H 48.932 48.411 66.317
H 54.004 51.955 66.655
H 54.752 51.773 67.964
H 52.824 59.013 59.601
H 53.859 59.644 58.686
H 43.31 53.857 64.148
H 59.201 56.028 63.82
H 58.645 57.378 63.401
H 41.845 56.68 65.945
H 42.428 58.065 66.163
H 54.238 52.482 70.96
H 53.808 51.454 69.928
H 49.599 55.493 70.149
H 53.56 54.808 66.194
H 48.635 55.477 68.976
H 52.279 55.623 66.194
H 52.619 61.279 60.963
H 43.574 53.887 66.988
H 43.073 53.145 68.215
H 47.376 58.173 58.611
H 50.956 54.17 61.906
H 49.563 53.632 62.186
H 42.89 52.83 65.185
H 51.075 47.623 70.266
H 51.81 46.593 69.426
H 50.401 59.529 68.246
H 50.229 61.011 67.959
H 47.431 49.422 68.671
H 48.904 49.399 68.304
H 55.074 62.366 70.123
H 53.617 62.596 69.76
H 57.204 52.096 69.388
H 58.384 51.293 68.87
H 58.366 51.542 62.11
H 57.503 52.228 61.064
H 54.534 62.268 65.71
H 55.425 53.208 60.649
H 54.943 51.804 60.97
H 45.739 58.102 70.6
H 56.355 49.734 62.143
H 57.311 48.677 62.668
H 52.539 47.736 59.247
H 53.737 48.498 58.708
H 52.32 52.7 60.999
H 51.466 52.035 62.065
H 54.019 49.465 68.406
H 53.34 48.746 69.558
H 49.564 50.11 63.115
H 50.865 49.33 63.186
H 45.029 55.997 64.522
H 45.41 54.664 65.141
H 41.188 51.759 66.077
H 41.149 52.222 67.523
H 53.475 48.705 63.913
H 45.613 51.075 69.241
H 45.137 52.517 69.281
H 55.49 51.645 63.106
H 56.771 52.426 63.342
H 54.093 54.561 68.406
H 53.216 53.783 69.372
H 50.08 50.274 66.544
H 51.122 49.921 67.591
H 55.592 46.508 69.231
H 46.846 57.686 60.69
H 46.996 58.725 61.787
H 44.903 57.508 62.127
H 45.323 56.16 61.568
H 46.754 57.029 73.012
H 45.594 56.554 72.155
H 43.314 59.93 68.291
H 43.323 58.597 69.02
H 52.619 57.117 67.772
H 52.026 58.411 67.243
H 51.593 50.26 70.694
H 50.145 50.026 71.087
H 51.067 53.562 64.018
H 51.225 53.806 65.508
H 50.703 51.567 64.871
H 49.283 51.987 64.536
H 49.458 61.794 70.4
H 48.72 60.471 70.502
H 53.184 46.524 63.759
H 54.396 45.632 63.962
H 54.021 47.855 71.646
H 55.385 56.856 69.442
H 44.123 55.641 69.92
H 47.304 54.178 62.981
H 47.239 55.623 62.516
H 57.545 57.758 67.735
H 53.833 50.178 64.013
H 42.625 55.755 69.693
H 55.874 49.9 70.751
H 56.701 49.799 69.481
H 48.487 60.222 61.173
H 47.955 57.038 65.981
H 46.642 56.275 65.992
H 50.464 52.513 71.135
H 51.946 52.831 71.031
H 45.253 52.047 66.979
H 43.806 51.628 66.783
H 45.4 48.229 63.644
H 49.938 50.655 60.972
H 49.362 49.429 60.285
H 43.36 49.982 65.29
H 42.46 48.87 65.8
H 46.543 54.758 70.762
H 46.909 56.194 70.429
H 53.197 52.59 63.37
H 45.257 53.927 59.921
H 45.879 52.908 60.86
H 53.735 53.905 63.909
H 47.347 51.462 67.82
H 48.339 51.613 66.68
H 45.851 49.843 65.082
H 46.756 51.05 65.257
H 51.159 47.028 61.29
H 49.683 46.669 61.333
H 53.952 46.913 67.736
H 50.577 61.345 59.767
H 50.717 59.885 60.162
H 45.632 52.801 63.368
H 44.301 52.553 62.681
H 49.091 54.498 59.69
H 48.068 53.818 60.583
H 52.395 61.348 67.784
H 53.046 60.486 68.851
H 57.362 54.424 61.404
H 47.852 51.612 62.796
H 47.324 51.338 61.399
H 49.159 54.654 64.091
H 49.361 55.443 65.373
H 55.929 58.108 59.467
H 56.484 57.329 58.287
H 45.596 50.734 62.619
H 47.002 53.359 66.717
H 47.867 54.578 66.986
H 55.971 59.639 62.028
H 56.11 58.767 63.263
