88
xyz format
O 71.279 56.117 59.229
O 72.191 52.326 56.892
O 70.947 50.65 59.738
O 70.082 54.827 62.669
O 72.346 50.641 55.342
O 73.432 53.05 59.428
O 71.0 53.484 60.153
O 74.985 54.128 52.411
O 71.85 55.05 56.796
O 75.243 50.565 51.292
O 74.787 49.243 53.663
O 76.358 53.895 56.06
O 68.523 55.167 58.358
O 76.421 51.178 53.86
O 70.507 57.39 55.906
O 69.56 50.759 56.025
O 74.079 55.06 50.382
O 75.681 57.295 52.075
O 75.907 56.241 55.375
O 74.87 54.001 57.937
O 73.767 52.484 50.24
O 75.155 50.796 56.369
O 72.686 51.383 52.983
O 73.18 56.033 53.525
O 71.047 54.057 50.982
O 73.844 53.827 55.999
O 74.053 56.966 60.125
O 71.739 54.065 53.176
H 72.949 48.885 51.568
H 75.629 56.232 54.451
H 76.818 55.924 55.343
H 76.369 56.662 52.318
H 74.87 56.891 52.409
H 74.211 57.164 59.193
H 74.827 54.617 58.679
H 75.335 53.237 58.301
H 74.856 54.73 49.913
H 71.105 48.146 53.068
H 70.148 50.728 55.261
H 69.895 50.061 56.601
H 70.839 53.188 51.346
H 70.473 54.656 51.476
H 69.144 54.116 53.142
H 73.335 51.695 53.625
H 73.092 51.583 52.131
H 74.005 48.677 53.685
H 74.884 49.535 54.578
H 75.259 51.229 51.992
H 71.336 58.417 57.684
H 72.117 58.902 56.476
H 77.289 53.676 55.93
H 75.968 53.761 55.187
H 68.396 55.824 57.662
H 69.213 54.591 58.007
H 76.989 50.626 53.307
H 76.95 51.971 54.011
H 70.252 56.608 56.411
H 71.012 57.031 55.165
H 75.919 54.076 52.17
H 74.787 53.247 52.75
H 75.821 51.259 56.893
H 74.492 50.535 57.02
H 69.046 51.4 60.586
H 73.709 55.305 53.876
H 73.42 56.781 54.086
H 69.222 57.308 53.91
H 71.213 54.634 56.201
H 72.351 55.639 56.219
H 72.084 50.153 56.133
H 72.394 49.961 54.658
H 69.472 54.975 61.935
H 69.812 52.525 62.307
H 71.718 58.864 54.175
H 73.087 53.702 55.414
H 74.171 52.93 56.146
H 70.042 53.4 60.241
H 71.306 53.576 61.063
H 77.999 51.592 51.238
H 73.319 53.762 60.07
H 73.384 52.248 59.964
H 70.601 56.477 58.644
H 71.976 56.785 59.21
H 70.958 49.858 59.188
H 71.469 51.287 59.235
H 71.652 53.226 53.646
H 71.439 54.72 53.819
H 72.713 51.77 57.485
H 71.674 52.878 57.491
