100
xyz format
O 66.298 65.926 54.185
O 67.504 68.334 48.91
O 66.081 64.437 51.062
O 70.392 65.806 48.912
O 66.394 67.533 57.174
O 67.719 68.723 45.768
O 64.751 70.124 53.396
O 69.302 68.926 56.655
O 65.069 66.505 49.189
O 64.193 63.194 52.568
O 71.274 63.123 47.551
O 65.593 68.66 46.358
O 62.932 65.063 51.091
O 69.162 67.138 54.708
O 69.555 68.937 50.703
O 72.188 65.307 47.107
O 63.034 70.06 51.11
O 62.089 69.299 55.23
O 68.635 71.238 54.809
O 69.937 69.552 53.348
O 66.157 70.708 55.349
O 68.886 65.327 52.273
O 70.268 63.435 54.333
O 66.579 69.031 52.834
O 65.453 66.525 51.355
O 69.139 63.701 50.781
O 70.246 65.83 56.323
O 65.837 64.717 46.944
O 65.906 69.426 50.77
O 64.154 70.009 56.571
O 63.435 67.588 46.967
O 72.44 67.385 52.61
H 66.117 65.556 46.557
H 70.459 65.447 55.463
H 70.636 66.712 56.285
H 68.974 64.485 50.242
H 69.256 62.997 50.131
H 70.684 63.405 53.463
H 69.338 63.25 54.149
H 72.851 65.312 46.405
H 72.686 65.553 47.896
H 64.035 61.994 50.076
H 65.894 68.354 52.763
H 67.402 68.534 52.748
H 65.831 72.387 49.788
H 62.899 72.215 50.683
H 62.761 68.735 54.828
H 69.395 70.744 55.14
H 68.256 71.635 55.603
H 63.7 69.442 50.786
H 63.015 69.899 52.062
H 70.4 68.954 52.747
H 69.17 69.84 52.838
H 72.596 64.339 50.788
H 63.215 65.577 51.858
H 69.591 65.238 52.926
H 68.109 64.976 52.725
H 68.346 66.682 54.466
H 69.62 64.473 46.311
H 69.633 67.225 53.871
H 65.288 66.204 52.251
H 66.394 66.738 51.357
H 69.172 69.664 50.198
H 69.927 68.358 50.026
H 69.948 68.775 55.954
H 68.736 68.145 56.618
H 65.18 69.258 46.993
H 65.02 62.866 52.192
H 71.657 63.553 48.326
H 64.283 66.428 48.634
H 65.763 66.09 48.661
H 66.763 68.485 48.31
H 68.252 68.19 48.318
H 65.724 68.638 50.243
H 66.743 69.75 50.416
H 70.826 61.563 50.983
H 61.244 68.105 52.453
H 66.955 62.571 54.494
H 72.332 68.165 52.052
H 71.632 66.879 52.457
H 67.782 67.857 46.191
H 67.774 69.343 46.506
H 64.638 71.011 53.759
H 64.696 69.55 54.17
H 64.429 70.913 56.769
H 64.733 69.468 57.121
H 66.73 61.463 52.055
H 66.54 68.26 56.557
H 65.934 66.871 56.644
H 66.511 70.438 56.206
H 66.046 71.662 55.438
H 66.831 63.862 51.26
H 65.89 64.252 50.133
H 66.382 65.453 55.022
H 65.959 66.792 54.445
H 63.599 72.684 52.715
H 67.81 61.494 49.43
H 66.478 62.218 49.525
H 70.531 66.252 49.757
H 70.599 66.484 48.257
