228
xyz format
O 24.901 52.29 51.995
O 28.13 60.544 48.062
O 30.136 64.261 49.929
O 29.178 61.196 49.884
O 26.849 60.057 54.334
O 30.798 55.98 50.701
O 30.685 62.111 51.835
O 32.848 56.56 52.79
O 31.491 59.184 57.652
O 25.545 57.242 53.404
O 26.463 66.289 46.959
O 26.051 54.568 53.65
O 29.263 57.353 47.75
O 27.97 51.193 54.054
O 27.03 56.027 62.615
O 24.982 60.288 44.773
O 26.283 62.573 46.28
O 24.853 62.174 53.682
O 31.547 56.696 55.17
O 31.427 60.912 59.062
O 28.664 61.178 56.943
O 29.459 67.221 47.295
O 30.054 65.574 59.418
O 24.667 54.222 59.785
O 23.41 55.128 53.207
O 32.843 62.11 56.765
O 28.001 55.325 50.766
O 29.895 70.243 51.165
O 31.681 64.007 47.357
O 32.129 64.169 59.621
O 28.74 68.696 48.934
O 26.658 61.408 43.162
O 34.687 59.579 60.557
O 22.32 55.094 50.577
O 30.135 65.473 56.644
O 27.349 60.726 52.297
O 29.409 64.522 61.444
O 31.949 61.294 48.233
O 29.75 66.513 51.072
O 23.282 58.677 55.427
O 23.237 53.586 54.766
O 26.615 54.378 57.226
O 30.982 59.397 51.281
O 32.798 64.958 50.387
O 34.107 60.949 58.473
O 28.495 54.48 53.532
O 24.858 59.765 52.328
O 27.82 67.286 56.005
O 28.553 66.023 53.282
O 34.377 62.425 61.472
O 26.198 57.436 59.973
O 27.203 64.702 56.516
O 30.695 53.439 53.104
O 28.05 64.412 46.663
O 32.056 63.298 53.082
O 34.279 58.0 56.305
O 24.032 62.468 48.26
O 27.778 54.359 59.092
O 22.733 55.279 57.197
O 26.679 52.413 55.351
O 30.114 62.254 55.04
O 34.128 64.994 52.731
O 31.733 59.795 54.694
O 26.254 53.848 50.583
O 27.727 63.301 54.51
O 26.189 66.308 50.019
O 26.172 65.533 53.707
O 24.417 57.124 57.337
O 33.372 60.588 52.768
O 29.809 57.686 52.617
O 28.119 58.058 51.151
O 30.045 68.417 54.438
O 31.771 65.823 54.513
O 25.51 60.993 57.648
O 25.482 63.546 50.171
O 27.915 63.368 51.704
O 27.673 64.819 49.37
O 27.706 62.051 61.204
O 28.419 58.854 61.089
O 27.274 56.449 55.15
O 27.133 58.615 57.404
O 27.628 63.755 58.981
H 32.406 63.661 52.259
H 32.675 63.613 53.753
H 28.679 65.066 46.992
H 28.06 64.545 45.707
H 26.901 55.283 57.048
H 25.663 54.404 57.07
H 26.745 65.363 55.981
H 27.444 65.183 57.318
H 27.748 55.321 59.153
H 34.222 58.802 56.839
H 33.928 57.313 56.884
H 23.917 62.328 49.208
H 24.515 63.302 48.208
H 27.156 57.344 59.901
H 26.034 58.346 59.698
H 30.194 67.042 51.746
H 22.332 55.241 56.319
H 22.679 54.368 57.512
H 28.836 66.822 51.104
H 33.975 61.552 61.382
H 31.593 59.294 52.022
H 31.561 59.566 50.528
H 28.382 66.109 54.229
H 29.175 65.286 53.228
H 31.938 65.247 50.717
H 32.578 64.417 49.618
H 23.885 54.065 55.297
H 23.368 52.664 55.021
H 30.68 57.406 52.927
H 29.313 57.834 53.432
H 31.706 63.5 60.173
H 32.828 64.524 60.185
H 23.905 57.597 58.004
H 23.36 57.915 54.839
H 23.173 59.422 54.823
H 24.81 56.391 57.828
H 28.771 69.482 48.374
H 27.09 61.954 43.831
H 29.66 68.563 49.193
H 31.553 62.133 48.501
H 30.101 53.514 52.347
H 27.438 62.786 55.274
H 28.415 63.876 54.867
H 30.772 59.786 54.785
H 31.921 59.004 54.174
H 29.825 63.652 61.476
H 28.516 64.362 61.774
H 28.145 61.271 52.337
H 26.927 60.996 51.471
H 29.499 64.75 56.577
H 29.791 66.138 56.034
H 21.531 54.561 50.421
H 23.033 54.444 50.609
H 29.239 65.564 58.902
H 30.747 65.647 58.75
H 23.914 55.345 52.413
H 22.539 54.888 52.867
H 33.281 61.758 55.981
H 32.153 62.682 56.405
H 24.413 54.434 58.878
H 33.305 60.795 51.827
H 33.345 61.452 53.196
H 31.93 64.916 47.568
H 30.972 64.109 46.71
H 27.664 55.654 51.609
H 28.608 56.018 50.476
H 27.677 58.605 51.812
H 27.996 58.549 50.329
H 30.601 56.925 50.707
H 30.488 55.676 51.563
H 26.583 60.985 54.341
H 27.286 59.936 55.186
H 28.539 67.456 47.118
H 29.961 67.804 46.711
H 26.377 65.455 52.767
H 26.008 64.623 53.983
H 27.259 53.169 55.504
H 26.016 52.488 56.049
H 30.001 62.64 55.917
H 30.398 63.0 54.496
H 31.148 61.79 58.776
H 28.287 62.039 57.164
H 29.286 61.008 57.661
H 31.902 61.078 59.885
H 27.235 57.712 57.73
H 27.773 59.119 57.922
H 27.455 64.121 59.857
H 27.686 62.804 59.137
H 31.911 56.412 56.018
H 30.613 56.848 55.361
H 27.701 56.614 54.3
H 27.911 56.781 55.795
H 28.046 59.464 60.44
H 29.184 59.329 61.436
H 28.327 62.052 61.944
H 27.092 61.339 61.421
H 26.073 65.439 46.72
H 26.753 66.655 46.114
H 25.833 54.781 54.566
H 25.67 53.69 53.522
H 26.45 62.792 47.205
H 25.925 61.678 46.317
H 29.492 68.809 53.751
H 30.643 67.838 53.949
H 31.529 65.022 54.994
H 31.281 65.75 53.685
H 28.188 68.061 55.564
H 28.119 67.378 56.918
H 29.052 55.22 53.26
H 28.95 54.123 54.305
H 25.663 59.242 52.432
H 24.149 59.13 52.494
H 33.723 61.786 58.762
H 34.669 61.199 57.728
H 25.873 57.821 54.103
H 24.913 56.67 53.858
H 26.523 55.882 61.806
H 29.339 56.964 48.63
H 29.119 58.291 47.926
H 25.983 54.666 50.147
H 26.977 53.523 50.032
H 28.941 60.445 47.547
H 27.523 59.914 47.655
H 31.043 61.398 52.38
H 25.783 65.677 50.626
H 26.638 66.933 50.602
H 29.978 62.481 52.379
H 30.901 58.516 57.281
H 31.708 59.743 56.896
H 24.38 59.622 45.128
H 24.723 63.006 53.209
H 24.111 61.628 53.395
H 25.018 60.163 57.638
H 30.656 63.466 50.101
H 30.256 64.412 48.983
H 26.257 60.824 57.061
H 28.057 65.647 49.056
H 27.079 64.556 48.656
H 25.625 51.777 52.376
H 24.828 51.949 51.095
H 27.048 63.16 52.074
H 25.114 63.424 51.055
H 26.039 62.768 50.046
H 27.929 64.333 51.685
H 29.228 60.523 50.574
H 29.024 62.014 50.372
