607
xyz format
O 36.431 65.411 42.414
O 48.932 74.673 45.769
O 39.117 70.614 42.097
O 36.862 74.537 51.0
O 34.964 69.177 43.22
O 33.994 67.104 54.839
O 28.13 60.544 48.062
O 40.58 71.96 51.324
O 33.676 67.464 34.202
O 30.136 64.261 49.929
O 41.949 71.846 45.23
O 33.547 55.93 43.381
O 41.412 59.904 45.339
O 29.178 61.196 49.884
O 42.55 60.666 40.761
O 41.503 67.511 37.057
O 43.898 59.337 44.775
O 41.578 68.754 43.816
O 33.588 72.568 49.856
O 39.268 67.762 44.279
O 43.758 73.963 38.954
O 31.745 65.226 35.258
O 40.043 73.587 37.153
O 30.685 62.111 51.835
O 35.047 57.531 39.733
O 38.605 65.223 44.081
O 43.198 71.925 49.376
O 32.516 68.551 39.64
O 37.82 65.132 59.359
O 37.424 59.543 39.401
O 44.544 69.498 54.368
O 32.873 59.85 43.046
O 47.572 65.923 41.657
O 26.463 66.289 46.959
O 41.36 64.47 42.569
O 36.685 59.221 51.626
O 39.974 61.558 41.697
O 44.064 70.738 47.13
O 34.149 71.105 39.703
O 36.051 66.287 35.211
O 39.375 60.307 55.966
O 41.376 64.83 58.256
O 47.46 69.791 41.186
O 36.648 67.56 41.388
O 37.697 70.486 44.696
O 33.794 56.833 46.106
O 44.923 69.41 49.975
O 32.012 59.02 39.058
O 40.028 61.029 33.684
O 44.215 68.372 39.428
O 38.371 70.189 48.289
O 39.659 72.374 53.94
O 48.185 65.582 49.733
O 33.895 62.403 48.551
O 32.05 65.561 43.145
O 31.879 55.375 48.019
O 39.261 63.363 48.649
O 42.7 66.81 51.56
O 39.394 58.119 42.329
O 43.801 59.878 48.48
O 42.36 74.43 51.431
O 36.158 68.14 47.875
O 33.429 56.825 48.595
O 31.974 67.306 45.976
O 45.669 62.484 44.645
O 44.145 66.322 55.699
O 45.392 75.422 45.818
O 34.384 57.658 42.083
O 41.83 65.049 38.855
O 35.206 61.71 44.431
O 49.133 66.643 45.444
O 36.922 62.85 34.472
O 34.706 64.629 41.292
O 44.504 70.149 44.291
O 36.026 71.251 53.232
O 29.459 67.221 47.295
O 31.973 67.659 42.066
O 42.018 63.872 45.28
O 39.124 61.219 37.284
O 39.264 72.287 46.072
O 34.074 64.267 46.582
O 40.58 66.22 48.573
O 40.433 75.629 51.747
O 36.625 68.739 52.341
O 28.566 60.137 43.225
O 35.681 68.425 39.15
O 34.821 68.652 36.56
O 43.316 64.901 49.42
O 35.843 64.144 45.28
O 40.594 75.02 44.73
O 36.849 64.13 38.33
O 31.681 64.007 47.357
O 31.612 63.976 40.661
O 29.415 64.564 38.189
O 29.251 61.711 40.82
O 37.42 62.98 54.343
O 48.912 72.1 44.547
O 34.303 62.494 41.642
O 32.022 63.804 38.5
O 36.772 61.67 37.716
O 28.74 68.696 48.934
O 26.658 61.408 43.162
O 34.096 66.866 37.684
O 31.815 57.263 45.075
O 41.462 60.503 49.131
O 43.485 63.394 56.677
O 35.641 60.734 40.835
O 27.453 65.675 43.042
O 40.987 73.689 47.57
O 38.169 64.465 40.819
O 38.714 68.244 49.258
O 45.646 66.102 46.816
O 36.032 56.502 49.186
O 35.041 64.222 34.011
O 37.86 65.411 53.471
O 31.949 61.294 48.233
O 46.604 71.79 52.932
O 33.56 58.405 51.13
O 29.75 66.513 51.072
O 36.886 65.07 47.437
O 39.761 69.231 57.438
O 48.328 69.737 43.505
O 41.988 74.705 42.66
O 35.254 60.288 36.134
O 45.601 66.564 49.948
O 32.416 70.089 49.615
O 45.913 75.626 50.034
O 38.876 74.138 40.585
O 33.747 62.702 36.677
O 36.687 71.866 49.769
O 43.634 67.596 53.742
O 37.313 73.439 56.155
O 34.639 70.179 56.839
O 46.061 73.681 54.138
O 46.679 73.192 38.953
O 41.672 65.82 55.48
O 30.982 59.397 51.281
O 34.127 65.404 56.244
O 43.63 68.584 47.013
O 32.798 64.958 50.387
O 37.019 62.904 56.579
O 47.284 70.715 45.176
O 39.893 67.174 52.309
O 44.951 63.541 49.997
O 40.938 68.178 49.511
O 43.137 74.945 48.592
O 42.982 73.392 53.7
O 40.224 65.104 34.051
O 38.662 70.096 38.776
O 44.499 64.204 53.591
O 36.061 67.482 45.142
O 45.801 64.68 44.688
O 46.99 75.288 48.146
O 38.92 76.07 49.131
O 49.549 69.373 47.7
O 36.981 68.8 36.949
O 42.049 57.107 45.768
O 44.197 62.054 47.458
O 40.191 69.018 55.291
O 44.177 64.688 41.352
O 34.831 63.241 53.989
O 38.029 73.072 42.967
O 38.105 64.816 56.457
O 31.187 61.561 44.972
O 28.05 64.412 46.663
O 32.056 63.298 53.082
O 39.413 66.158 35.805
O 35.492 58.963 47.841
O 34.786 72.078 41.96
O 40.528 62.488 46.463
O 37.305 72.804 37.689
O 45.492 72.766 46.761
O 43.908 72.08 41.848
O 36.464 71.509 40.554
O 31.017 70.342 47.136
O 45.407 72.069 49.331
O 38.37 58.492 36.904
O 38.824 72.795 48.166
O 43.051 65.884 44.539
O 34.128 64.994 52.731
O 46.644 68.847 52.456
O 47.759 65.644 47.534
O 38.052 59.85 42.629
O 32.643 70.762 53.145
O 41.973 63.089 34.166
O 34.86 72.365 55.699
O 39.258 63.299 36.579
O 40.496 68.562 45.922
O 46.269 67.635 39.724
O 49.873 69.62 45.066
O 35.321 64.73 36.865
O 37.832 70.091 54.695
O 42.028 61.824 43.179
O 36.339 63.293 50.164
O 44.655 67.068 42.12
O 42.133 66.588 46.963
O 43.944 71.675 52.405
O 31.325 60.57 36.467
O 39.716 67.168 59.899
O 31.771 65.823 54.513
O 33.79 61.374 38.43
O 43.992 75.074 41.265
O 38.197 65.74 51.026
O 33.263 70.338 46.724
O 28.058 60.946 39.135
O 44.975 72.911 43.91
O 38.49 63.281 46.223
O 41.782 73.087 39.81
O 46.46 73.561 50.56
O 34.507 67.204 46.762
O 41.787 76.941 48.916
O 42.354 69.544 51.287
O 35.559 67.152 51.233
O 30.686 61.382 39.184
O 43.115 70.201 40.65
O 49.013 70.417 51.058
O 36.74 60.665 55.989
O 27.673 64.819 49.37
O 39.213 66.005 38.559
O 41.381 71.369 42.682
O 29.996 63.967 43.94
O 40.835 70.15 38.439
O 46.713 74.289 41.021
H 37.427 71.517 40.625
H 38.772 66.554 39.22
H 36.242 72.425 40.346
H 32.406 63.661 52.259
H 32.675 63.613 53.753
H 43.08 72.324 41.417
H 39.05 65.104 38.864
H 31.104 69.565 47.702
H 30.257 70.135 46.578
H 44.567 72.175 41.149
H 46.283 73.282 46.563
H 44.852 73.066 46.104
H 45.561 71.49 48.575
H 45.131 72.903 48.929
H 38.742 65.061 57.14
H 37.724 65.66 56.185
H 31.399 62.502 44.946
H 30.3 61.535 45.352
H 28.679 65.066 46.992
H 28.06 64.545 45.707
H 34.804 62.462 54.558
H 34.685 63.975 54.599
H 37.515 73.312 43.747
H 38.678 72.442 43.304
H 43.814 69.959 41.27
H 42.302 69.994 41.128
H 30.393 60.477 39.352
H 31.457 61.483 39.757
H 47.287 75.485 47.249
H 47.197 74.352 48.255
H 39.239 75.232 49.489
H 39.003 76.682 49.872
H 37.777 73.34 38.339
H 36.794 72.187 38.229
H 35.941 59.571 48.441
H 34.178 72.461 42.605
H 35.446 71.631 42.505
H 35.045 58.346 48.433
H 34.813 67.242 50.627
H 38.785 66.494 36.458
H 39.439 66.852 35.134
H 36.262 66.79 50.68
H 37.473 69.055 36.158
H 37.154 67.854 37.031
H 42.573 56.542 46.35
H 41.572 57.683 46.378
H 41.431 62.378 46.784
H 40.582 62.226 45.535
H 28.836 66.822 51.104
H 46.791 71.289 45.776
H 47.518 69.956 45.725
H 34.318 66.534 46.093
H 34.24 66.785 47.589
H 38.693 64.204 46.029
H 44.58 64.97 53.01
H 45.428 73.171 43.099
H 44.248 73.543 43.979
H 31.561 59.566 50.528
H 38.409 62.876 45.351
H 38.295 65.428 50.117
H 43.991 75.847 41.844
H 44.01 74.329 41.879
H 38.852 65.226 51.515
H 43.173 68.226 53.175
H 32.994 60.84 38.32
H 43.064 66.817 53.729
H 33.472 62.172 38.87
H 37.713 70.233 38.659
H 38.712 69.317 39.344
H 36.488 66.658 44.875
H 36.498 68.152 44.602
H 44.598 71.665 51.695
H 43.106 71.532 51.947
H 36.339 63.389 57.065
H 37.611 62.584 57.271
H 34.971 65.48 56.706
H 47.589 69.124 43.409
H 46.143 72.419 38.736
H 42.081 73.855 43.108
H 48.935 69.476 42.801
H 45.257 73.338 53.729
H 44.395 68.569 47.602
H 42.877 68.63 47.615
H 44.136 67.75 42.563
H 45.271 66.769 42.8
H 41.484 65.54 54.575
H 41.425 66.753 55.488
H 31.938 65.247 50.717
H 32.578 64.417 49.618
H 41.334 74.531 41.971
H 48.519 72.564 45.297
H 49.333 72.804 44.037
H 32.07 58.101 45.48
H 42.603 61.857 43.954
H 35.662 72.094 55.234
H 41.232 61.384 43.503
H 35.003 66.697 37.969
H 33.611 66.974 38.512
H 34.194 72.408 55.001
H 33.184 69.989 52.94
H 31.256 63.303 38.192
H 32.212 64.404 37.769
H 32.208 70.524 53.973
H 33.749 61.978 41.043
H 33.671 62.903 42.245
H 49.691 70.311 45.715
H 47.114 67.989 39.419
H 29.015 64.553 37.311
H 29.434 62.407 41.463
H 28.611 61.145 41.27
H 30.651 64.063 40.675
H 31.776 63.158 41.147
H 46.141 66.848 39.179
H 36.096 65.477 47.059
H 49.742 68.801 45.561
H 36.893 63.76 54.557
H 36.89 62.52 53.68
H 37.591 65.692 47.218
H 36.206 60.265 35.973
H 35.141 59.728 36.912
H 38.777 73.222 40.296
H 38.086 74.297 41.117
H 33.055 63.03 36.09
H 39.278 63.573 35.654
H 38.316 63.217 36.773
H 45.859 67.44 50.262
H 45.103 66.193 50.687
H 34.397 62.319 36.074
H 28.771 69.482 48.374
H 27.09 61.954 43.831
H 29.66 68.563 49.193
H 38.445 70.545 54.104
H 36.942 61.558 38.66
H 35.814 61.778 37.667
H 37.445 70.805 55.217
H 31.576 69.677 49.853
H 32.612 70.661 50.367
H 45.186 75.72 49.407
H 46.761 71.459 52.039
H 38.457 60.378 43.328
H 37.718 60.51 42.008
H 46.335 65.206 44.08
H 46.427 64.417 45.374
H 31.352 60.967 47.549
H 31.553 62.133 48.501
H 46.658 70.999 53.483
H 44.485 62.926 47.161
H 43.398 62.237 47.968
H 37.481 66.12 54.005
H 38.796 65.421 53.708
H 41.244 73.182 48.35
H 41.093 74.607 47.849
H 27.813 66.422 43.537
H 27.881 64.907 43.442
H 36.125 71.78 50.549
H 45.817 68.84 51.958
H 46.798 67.916 52.657
H 47.774 66.54 47.174
H 48.05 65.095 46.796
H 43.6 64.392 40.637
H 45.06 64.441 41.052
H 33.817 58.675 50.24
H 39.384 68.564 55.019
H 40.39 69.599 54.546
H 35.579 64.437 33.239
H 36.239 72.534 49.235
H 34.19 64.637 33.82
H 38.851 68.923 57.532
H 40.289 68.447 57.632
H 37.64 65.231 40.564
H 38.902 64.849 41.317
H 37.982 59.375 36.918
H 42.496 66.034 43.763
H 43.921 65.695 44.165
H 38.676 67.625 49.999
H 38.928 67.683 48.502
H 44.978 65.415 46.708
H 45.549 66.643 46.023
H 35.253 60.753 39.952
H 36.144 61.557 40.883
H 43.654 64.068 56.006
H 36.566 57.216 49.556
H 36.083 55.808 49.856
H 42.522 63.356 56.726
H 35.098 67.984 39.781
H 36.28 68.935 39.71
H 40.259 68.211 46.79
H 41.12 69.27 46.123
H 35.601 64.16 36.137
H 34.38 64.865 36.701
H 32.889 67.809 42.33
H 35.052 68.897 35.655
H 34.041 69.188 36.75
H 31.485 68.352 42.528
H 36.872 63.862 50.733
H 31.93 64.916 47.568
H 34.118 63.308 46.479
H 33.384 64.533 45.961
H 39.252 72.947 45.368
H 39.446 71.46 45.607
H 30.972 64.109 46.71
H 35.113 64.064 44.653
H 36.63 64.103 44.723
H 40.76 74.539 45.551
H 41.393 75.547 44.608
H 36.957 62.608 49.881
H 36.876 63.692 39.19
H 36.763 65.065 38.551
H 43.836 65.591 48.991
H 43.006 64.358 48.685
H 40.153 66.017 47.731
H 41.079 65.419 48.776
H 37.934 73.095 47.945
H 38.945 73.091 49.077
H 42.962 63.672 45.304
H 41.921 64.593 45.916
H 39.921 74.009 38.013
H 32.254 65.654 35.958
H 28.539 67.456 47.118
H 29.961 67.804 46.711
H 35.828 72.175 53.035
H 39.896 60.674 37.088
H 39.137 61.296 38.247
H 35.158 70.861 53.398
H 44.455 69.756 43.411
H 45.255 70.753 44.23
H 34.093 65.179 40.788
H 35.244 64.204 40.613
H 40.767 71.632 43.379
H 42.185 71.135 43.161
H 34.105 61.673 47.955
H 34.584 62.352 49.226
H 30.446 64.498 44.609
H 29.439 63.372 44.457
H 36.872 62.404 35.326
H 37.3 63.713 34.686
H 34.999 60.807 44.701
H 36.023 61.91 44.905
H 45.999 74.634 40.471
H 48.293 66.398 45.037
H 42.178 64.157 38.975
H 41.138 64.938 38.191
H 35.143 58.222 41.891
H 33.726 57.929 41.431
H 45.874 76.255 45.748
H 45.782 74.873 45.126
H 32.618 57.281 48.853
H 44.669 65.966 54.97
H 44.798 66.768 56.253
H 38.386 63.77 48.673
H 39.732 63.871 47.978
H 43.039 65.92 51.397
H 43.279 67.375 51.033
H 32.156 66.398 45.705
H 32.633 67.825 45.498
H 42.162 62.267 36.198
H 37.408 69.092 52.781
H 35.931 68.824 53.007
H 39.772 74.94 51.603
H 36.512 69.032 47.985
H 36.671 67.611 48.499
H 43.184 60.036 47.754
H 42.071 73.541 51.674
H 43.081 74.275 50.809
H 31.485 66.182 43.621
H 31.607 65.454 42.294
H 40.362 72.142 54.559
H 39.028 72.864 54.482
H 31.262 61.334 37.055
H 31.403 59.822 37.072
H 46.714 66.132 41.267
H 26.073 65.439 46.72
H 26.753 66.655 46.114
H 36.961 70.202 45.253
H 38.329 69.76 44.763
H 34.508 57.097 46.7
H 40.945 64.153 41.756
H 42.299 64.294 42.43
H 43.077 66.458 47.116
H 44.35 70.178 50.093
H 45.811 69.788 49.948
H 31.829 58.86 39.992
H 32.58 58.282 38.806
H 41.918 65.467 57.774
H 40.81 64.448 57.574
H 38.888 61.13 56.094
H 34.711 71.424 38.986
H 34.521 70.241 39.919
H 36.349 66.518 34.322
H 36.837 65.907 35.623
H 37.524 67.215 41.601
H 36.205 67.605 42.245
H 42.101 67.072 46.129
H 39.887 61.839 34.19
H 37.731 70.886 48.098
H 39.162 70.466 47.811
H 43.791 67.872 40.137
H 43.476 68.783 38.964
H 33.397 59.588 43.813
H 41.03 65.325 33.568
H 31.529 65.022 54.994
H 31.281 65.75 53.685
H 39.956 64.256 33.675
H 40.86 72.82 39.71
H 41.738 74.05 39.86
H 43.526 75.571 47.969
H 43.363 74.083 48.222
H 43.237 72.641 54.25
H 42.115 73.644 54.043
H 28.169 61.81 38.719
H 28.383 60.327 38.469
H 41.832 67.821 49.434
H 40.898 68.848 48.817
H 39.806 68.132 52.396
H 40.27 67.057 51.428
H 33.502 70.209 47.65
H 45.184 62.696 49.593
H 44.458 63.29 50.787
H 33.687 69.597 46.272
H 32.095 60.271 43.432
H 44.864 70.622 46.602
H 43.353 70.702 46.479
H 37.061 59.047 40.145
H 38.211 59.964 39.769
H 44.888 70.363 54.624
H 45.311 68.917 54.439
H 36.653 59.111 50.668
H 45.608 73.496 51.01
H 47.104 73.494 51.277
H 39.8 60.892 41.021
H 39.726 62.388 41.27
H 32.56 69.246 38.972
H 32.633 69.025 40.472
H 41.793 60.139 40.475
H 43.312 60.15 40.469
H 42.762 71.265 48.823
H 42.484 72.273 49.924
H 34.973 58.493 39.727
H 38.182 65.963 43.628
H 39.364 65.017 43.522
H 48.192 69.965 51.288
H 34.373 68.687 43.805
H 35.35 69.85 43.795
H 34.573 67.535 55.48
H 33.65 67.836 54.312
H 28.941 60.445 47.547
H 39.515 71.261 41.501
H 38.72 69.967 41.501
H 37.264 74.264 50.165
H 36.086 75.041 50.726
H 40.053 72.667 50.93
H 40.613 71.287 50.633
H 43.844 73.006 39.047
H 42.08 68.207 43.199
H 33.997 72.338 50.7
H 33.162 73.416 50.032
H 41.003 69.276 43.244
H 39.099 68.189 43.43
H 40.04 67.209 44.108
H 43.953 59.514 45.723
H 43.284 58.593 44.717
H 40.942 67.08 37.713
H 37.423 65.225 60.234
H 37.65 65.984 58.938
H 33.612 65.555 53.324
H 34.242 65.539 51.942
H 36.591 59.928 56.595
H 33.955 66.659 34.656
H 33.214 67.964 34.886
H 30.656 63.466 50.101
H 30.256 64.412 48.983
H 28.057 65.647 49.056
H 46.852 69.057 41.337
H 42.106 77.715 48.437
H 36.674 64.478 42.437
H 35.786 65.498 43.127
H 35.864 61.058 55.887
H 42.202 69.789 50.365
H 33.614 56.725 43.924
H 41.648 68.914 51.476
H 41.459 72.302 45.926
H 42.481 72.545 44.829
H 42.022 60.569 45.68
H 40.637 59.988 45.909
