38
xyz format
O 65.522 73.736 52.528
O 63.466 72.94 53.637
O 61.896 75.612 52.647
O 58.364 75.563 50.245
O 64.751 70.124 53.396
O 59.743 73.301 51.058
O 57.823 72.214 52.872
O 56.691 74.124 48.591
O 66.157 70.708 55.349
O 58.988 70.621 48.589
O 62.884 73.044 50.188
O 56.987 77.517 49.447
O 66.579 69.031 52.834
O 58.497 76.398 53.348
H 58.082 70.935 48.7
H 56.287 76.808 46.598
H 62.899 72.215 50.683
H 63.788 73.375 50.269
H 56.351 74.74 49.252
H 56.973 72.866 50.432
H 57.643 74.118 48.751
H 63.015 69.899 52.062
H 65.947 72.91 52.791
H 65.292 74.154 53.367
H 64.638 71.011 53.759
H 64.696 69.55 54.17
H 60.39 74.011 50.965
H 59.545 73.052 50.147
H 58.76 76.434 50.37
H 58.498 75.126 51.096
H 57.826 75.752 53.095
H 58.537 76.321 54.31
H 57.727 77.783 48.888
H 66.046 71.662 55.438
H 61.177 75.968 52.108
H 61.878 74.666 52.456
H 63.599 72.684 52.715
H 62.505 72.968 53.73
