144
xyz format
Cl 41.259 60.751 72.504
O 40.501 62.894 63.585
O 42.041 62.691 62.027
O 47.424 54.104 66.271
O 49.199 54.548 65.05
O 40.764 50.231 68.466
O 46.699 55.348 70.014
O 43.274 49.346 66.01
O 47.298 56.666 66.583
O 47.068 55.584 75.391
O 43.247 60.061 70.726
O 43.318 58.978 68.133
O 45.332 62.126 71.237
O 44.582 51.93 66.294
O 42.331 51.399 63.601
O 45.791 57.047 72.962
O 42.532 51.14 70.219
O 41.727 60.218 65.82
O 42.291 57.22 66.609
O 40.328 58.319 65.298
O 39.651 55.792 66.746
O 46.598 60.076 71.351
O 43.846 53.612 67.873
O 49.498 55.815 69.244
O 43.627 58.729 63.446
O 46.166 50.465 65.749
O 43.705 55.211 72.213
O 46.858 53.389 72.654
O 40.68 60.52 63.249
O 40.225 56.434 62.301
O 45.484 55.421 68.155
O 42.684 59.327 73.528
O 41.46 54.421 67.434
O 42.855 56.962 61.352
O 44.71 49.266 68.374
O 44.781 57.993 70.55
O 45.016 57.813 65.766
O 43.674 60.899 63.094
O 41.594 51.597 66.938
O 43.662 53.147 64.699
O 45.143 55.064 64.304
O 42.631 53.482 71.005
O 44.827 51.62 69.107
O 41.748 55.727 63.732
O 44.961 53.241 62.831
O 46.676 54.87 62.737
O 43.461 55.677 69.217
H 44.285 59.029 64.086
H 43.225 60.715 62.26
H 44.557 61.179 62.823
H 44.875 57.855 66.72
H 45.843 58.294 65.635
H 43.01 58.21 63.978
H 42.975 57.89 61.111
H 47.931 52.021 74.001
H 41.487 54.352 66.472
H 41.95 55.232 67.619
H 50.306 57.651 64.378
H 45.053 55.486 67.293
H 45.827 54.519 68.172
H 40.094 60.579 64.014
H 41.552 60.379 63.638
H 40.245 60.629 70.459
H 40.823 57.189 62.371
H 40.362 56.116 61.4
H 47.273 53.004 71.872
H 47.334 54.219 72.781
H 43.3 56.069 72.036
H 44.055 55.302 73.108
H 42.013 55.195 62.971
H 41.492 55.071 64.392
H 43.31 53.857 64.148
H 41.845 56.68 65.945
H 42.428 58.065 66.163
H 49.599 55.493 70.149
H 48.635 55.477 68.976
H 45.841 60.001 71.945
H 47.193 59.377 71.648
H 43.574 53.887 66.988
H 43.073 53.145 68.215
H 42.89 52.83 65.185
H 39.486 58.643 64.953
H 40.875 58.217 64.51
H 44.471 58.295 71.413
H 45.739 58.102 70.6
H 43.818 49.004 68.115
H 40.041 56.314 67.458
H 39.349 54.989 67.188
H 45.029 55.997 64.522
H 45.41 54.664 65.141
H 41.188 51.759 66.077
H 44.493 52.47 72.319
H 41.149 52.222 67.523
H 45.613 51.075 69.241
H 45.137 52.517 69.281
H 39.379 58.815 62.761
H 41.348 61.094 65.967
H 42.594 60.27 66.241
H 42.124 51.624 69.49
H 43.066 50.469 69.777
H 44.903 57.508 62.127
H 42.129 52.192 63.088
H 42.9 50.885 63.013
H 46.754 57.029 73.012
H 45.594 56.554 72.155
H 43.314 59.93 68.291
H 43.323 58.597 69.02
H 42.711 60.809 70.435
H 42.594 59.399 70.986
H 44.472 62.122 70.798
H 45.112 62.221 72.172
H 44.123 55.641 69.92
H 46.35 56.042 74.936
H 47.304 54.178 62.981
H 42.625 55.755 69.693
H 43.529 53.636 70.686
H 42.078 53.693 70.242
H 47.955 57.038 65.981
H 46.642 56.275 65.992
H 45.253 52.047 66.979
H 43.806 51.628 66.783
H 40.859 60.162 68.399
H 39.775 60.497 67.389
H 43.36 49.982 65.29
H 48.302 61.289 72.514
H 46.543 54.758 70.762
H 46.909 56.194 70.429
H 41.372 49.514 68.247
H 40.098 50.188 67.769
H 47.347 51.462 67.82
H 48.339 51.613 66.68
H 47.189 50.49 70.662
H 45.851 49.843 65.082
H 46.756 51.05 65.257
H 45.632 52.801 63.368
H 44.301 52.553 62.681
H 46.198 60.619 68.663
H 49.159 54.654 64.091
H 49.361 55.443 65.373
H 41.295 62.258 61.594
H 41.269 62.762 64.155
H 47.002 53.359 66.717
H 47.867 54.578 66.986
H 45.521 54.124 74.249
