169
xyz format
O 49.082 73.724 49.746
O 40.58 71.96 51.324
O 41.949 71.846 45.23
O 41.578 68.754 43.816
O 39.268 67.762 44.279
O 43.198 71.925 49.376
O 44.544 69.498 54.368
O 41.36 64.47 42.569
O 44.064 70.738 47.13
O 44.923 69.41 49.975
O 38.371 70.189 48.289
O 39.659 72.374 53.94
O 46.719 72.536 55.898
O 39.261 63.363 48.649
O 42.7 66.81 51.56
O 42.36 74.43 51.431
O 36.158 68.14 47.875
O 45.392 75.422 45.818
O 42.549 75.651 53.252
O 44.504 70.149 44.291
O 42.018 63.872 45.28
O 40.58 66.22 48.573
O 40.433 75.629 51.747
O 43.316 64.901 49.42
O 38.714 68.244 49.258
O 45.646 66.102 46.816
O 46.604 71.79 52.932
O 48.334 69.772 54.208
O 45.601 66.564 49.948
O 45.913 75.626 50.034
O 49.537 73.242 53.011
O 43.634 67.596 53.742
O 46.061 73.681 54.138
O 44.778 74.834 55.99
O 43.63 68.584 47.013
O 47.284 70.715 45.176
O 39.893 67.174 52.309
O 40.938 68.178 49.511
O 43.137 74.945 48.592
O 42.982 73.392 53.7
O 40.528 62.488 46.463
O 45.492 72.766 46.761
O 45.407 72.069 49.331
O 43.051 65.884 44.539
O 44.864 75.995 53.24
O 46.644 68.847 52.456
O 40.496 68.562 45.922
O 41.966 73.232 56.525
O 42.133 66.588 46.963
O 43.944 71.675 52.405
O 38.197 65.74 51.026
O 44.975 72.911 43.91
O 46.46 73.561 50.56
O 42.354 69.544 51.287
O 49.013 70.417 51.058
H 46.283 73.282 46.563
H 44.852 73.066 46.104
H 45.561 71.49 48.575
H 45.131 72.903 48.929
H 46.544 65.642 52.266
H 47.197 74.352 48.255
H 41.431 62.378 46.784
H 40.582 62.226 45.535
H 46.791 71.289 45.776
H 47.518 69.956 45.725
H 38.693 64.204 46.029
H 44.58 64.97 53.01
H 38.295 65.428 50.117
H 38.852 65.226 51.515
H 43.173 68.226 53.175
H 49.916 72.436 52.638
H 43.064 66.817 53.729
H 44.598 71.665 51.695
H 43.106 71.532 51.947
H 45.375 75.335 55.421
H 44.189 74.387 55.368
H 45.257 73.338 53.729
H 46.608 73.942 53.387
H 44.395 68.569 47.602
H 42.877 68.63 47.615
H 44.136 67.75 42.563
H 45.271 66.769 42.8
H 37.591 65.692 47.218
H 49.962 75.332 53.602
H 48.872 75.478 54.649
H 45.859 67.44 50.262
H 45.103 66.193 50.687
H 45.903 76.458 50.523
H 45.186 75.72 49.407
H 46.761 71.459 52.039
H 46.658 70.999 53.483
H 41.244 73.182 48.35
H 45.821 75.997 53.37
H 44.707 75.207 52.706
H 45.817 68.84 51.958
H 46.798 67.916 52.657
H 48.598 73.036 53.098
H 42.496 66.034 43.763
H 43.921 65.695 44.165
H 38.676 67.625 49.999
H 38.928 67.683 48.502
H 44.978 65.415 46.708
H 45.549 66.643 46.023
H 48.784 70.064 53.405
H 48.371 70.545 54.786
H 40.259 68.211 46.79
H 41.12 69.27 46.123
H 39.446 71.46 45.607
H 43.836 65.591 48.991
H 43.006 64.358 48.685
H 40.153 66.017 47.731
H 41.079 65.419 48.776
H 38.945 73.091 49.077
H 42.962 63.672 45.304
H 41.921 64.593 45.916
H 44.455 69.756 43.411
H 45.255 70.753 44.23
H 42.185 71.135 43.161
H 42.841 76.003 54.102
H 45.782 74.873 45.126
H 39.732 63.871 47.978
H 43.039 65.92 51.397
H 43.279 67.375 51.033
H 39.772 74.94 51.603
H 36.512 69.032 47.985
H 36.671 67.611 48.499
H 42.071 73.541 51.674
H 43.081 74.275 50.809
H 40.362 72.142 54.559
H 47.473 65.04 50.095
H 47.767 66.44 49.586
H 46.711 73.444 56.227
H 42.299 64.294 42.43
H 43.077 66.458 47.116
H 44.35 70.178 50.093
H 45.811 69.788 49.948
H 42.101 67.072 46.129
H 39.162 70.466 47.811
H 43.363 74.083 48.222
H 43.237 72.641 54.25
H 42.115 73.644 54.043
H 41.832 67.821 49.434
H 40.898 68.848 48.817
H 39.806 68.132 52.396
H 40.27 67.057 51.428
H 44.864 70.622 46.602
H 43.353 70.702 46.479
H 44.888 70.363 54.624
H 45.311 68.917 54.439
H 50.726 72.476 54.906
H 45.608 73.496 51.01
H 47.104 73.494 51.277
H 44.458 72.812 56.977
H 41.193 73.543 56.038
H 42.145 72.365 56.14
H 42.762 71.265 48.823
H 42.484 72.273 49.924
H 48.192 69.965 51.288
H 48.72 71.282 50.748
H 49.252 74.669 49.843
H 40.053 72.667 50.93
H 40.613 71.287 50.633
H 42.08 68.207 43.199
H 41.003 69.276 43.244
H 40.04 67.209 44.108
H 42.202 69.789 50.365
H 41.648 68.914 51.476
H 41.459 72.302 45.926
H 42.481 72.545 44.829
