126
xyz format
O 61.102 36.683 55.334
O 60.252 42.998 62.523
O 60.196 35.981 57.618
O 52.158 39.247 55.029
O 53.19 36.105 58.391
O 54.276 40.381 53.43
O 51.802 36.488 56.136
O 62.014 41.787 56.626
O 51.408 38.624 57.022
O 58.929 40.688 62.381
O 57.282 42.24 61.23
O 60.977 37.685 58.77
O 53.238 39.604 64.257
O 56.461 40.54 54.051
O 56.747 40.431 57.061
O 60.895 35.423 60.618
O 53.981 39.841 56.11
O 56.806 42.436 65.682
O 58.309 42.437 58.624
O 63.009 38.757 59.777
O 53.432 41.067 61.428
O 62.748 38.229 57.524
O 58.739 38.574 54.443
O 51.472 40.468 59.169
O 56.197 39.221 61.485
O 55.46 34.327 55.566
O 56.768 37.691 59.228
O 55.738 41.345 62.921
O 57.213 45.272 59.184
O 52.185 42.86 61.964
O 53.958 38.329 59.97
O 55.714 36.678 61.742
O 58.669 39.086 60.436
O 54.926 38.322 54.83
O 59.013 39.325 57.048
O 56.832 46.309 62.245
O 55.178 36.925 57.186
O 61.613 40.045 58.66
O 56.712 36.168 54.569
O 55.489 44.035 61.792
H 56.1 38.345 59.467
H 57.025 37.942 58.332
H 60.73 39.916 58.291
H 61.585 40.943 59.014
H 56.529 41.663 63.375
H 55.121 42.085 62.992
H 58.095 39.04 64.167
H 58.331 40.196 65.124
H 62.325 38.865 56.935
H 57.466 45.708 62.655
H 56.299 46.62 62.988
H 54.701 44.182 62.33
H 55.81 39.098 52.074
H 56.194 43.929 62.443
H 59.432 39.224 54.615
H 59.463 38.471 57.069
H 58.623 39.4 57.928
H 55.492 39.304 62.139
H 57.003 39.215 62.015
H 58.09 38.741 55.137
H 60.557 39.313 63.532
H 52.845 43.186 61.339
H 51.593 42.329 61.416
H 53.913 41.632 64.775
H 51.05 39.992 59.895
H 52.007 41.137 59.615
H 56.976 40.622 54.864
H 56.039 41.872 65.516
H 53.646 40.315 60.862
H 54.85 36.491 62.13
H 56.153 37.221 62.409
H 53.142 38.071 60.416
H 53.652 38.812 59.192
H 62.36 39.0 60.448
H 58.939 35.152 59.222
H 60.454 36.12 61.119
H 53.903 39.054 56.662
H 55.033 43.985 65.273
H 56.385 44.671 65.207
H 56.359 40.384 57.943
H 56.737 39.515 56.757
H 54.594 40.404 56.598
H 58.193 41.501 58.42
H 58.195 42.874 57.771
H 53.533 40.716 62.322
H 57.904 39.49 60.008
H 59.422 39.526 60.023
H 50.837 40.251 63.411
H 53.998 42.077 54.804
H 60.048 37.666 59.032
H 61.431 37.246 59.5
H 53.39 38.923 63.589
H 51.929 37.373 63.031
H 57.052 42.978 60.651
H 57.661 41.587 60.63
H 60.09 42.948 56.643
H 59.769 35.717 56.793
H 61.07 35.574 57.564
H 57.784 44.494 59.201
H 50.092 40.012 55.911
H 54.396 45.632 63.962
H 58.649 41.508 62.806
H 59.503 40.987 61.664
H 59.221 44.403 60.865
H 61.722 41.195 55.921
H 52.324 36.437 55.326
H 52.0 35.658 56.588
H 57.607 35.621 57.455
H 54.164 38.089 54.285
H 55.62 38.51 54.185
H 51.997 38.881 57.743
H 50.821 37.973 57.427
H 55.254 34.72 56.423
H 53.798 39.747 52.881
H 53.329 35.15 58.404
H 52.653 36.269 59.176
H 59.008 41.449 54.69
H 51.856 38.544 54.44
H 51.875 40.056 54.584
H 54.405 36.738 56.639
H 54.83 37.484 57.891
H 60.771 42.372 63.044
H 57.665 36.007 60.973
H 60.365 42.471 60.02
H 57.53 36.641 54.768
H 56.09 36.498 55.229
