459
xyz format
O 67.443 45.63 45.603
O 68.359 43.086 54.523
O 61.102 36.683 55.334
O 63.38 32.816 56.995
O 63.784 46.708 48.397
O 64.909 40.94 43.163
O 69.063 34.281 57.54
O 71.236 40.427 49.196
O 60.59 39.059 52.721
O 65.304 43.889 46.505
O 63.448 36.398 59.761
O 64.17 33.117 48.956
O 69.456 35.353 54.513
O 60.196 35.981 57.618
O 70.084 34.179 42.561
O 64.14 35.152 56.3
O 62.194 42.612 47.902
O 60.649 44.321 52.543
O 67.561 37.754 41.403
O 70.887 45.059 49.576
O 63.509 35.883 46.965
O 71.902 37.543 42.603
O 66.393 42.618 45.076
O 59.113 42.284 54.217
O 72.754 38.695 44.273
O 61.473 44.715 48.2
O 67.316 36.873 45.045
O 62.098 31.907 51.568
O 62.904 31.666 54.133
O 67.296 31.438 55.417
O 68.506 46.737 47.887
O 63.502 41.26 46.724
O 69.998 38.521 46.452
O 62.014 41.787 56.626
O 66.673 43.966 42.372
O 72.978 36.736 54.334
O 66.14 43.802 53.398
O 60.264 31.615 47.188
O 74.299 42.512 49.231
O 59.735 44.46 49.947
O 74.787 41.464 51.604
O 69.742 33.516 53.337
O 68.857 42.968 45.345
O 65.584 36.578 46.605
O 60.551 33.734 49.626
O 62.906 39.422 43.925
O 59.491 41.082 51.615
O 66.572 35.879 42.058
O 64.024 32.977 44.916
O 66.843 29.96 45.926
O 62.426 43.614 45.743
O 63.943 37.252 50.03
O 61.029 38.18 50.048
O 63.522 44.213 54.656
O 63.755 33.909 52.547
O 62.591 35.002 50.5
O 64.067 41.072 56.855
O 67.157 36.481 56.673
O 59.052 40.635 45.899
O 63.183 34.26 59.274
O 61.117 37.571 41.945
O 66.814 46.949 52.976
O 60.505 43.448 55.93
O 70.231 31.588 56.036
O 66.119 29.495 53.873
O 66.986 42.563 49.955
O 60.977 37.685 58.77
O 72.318 38.561 47.268
O 67.957 29.996 50.551
O 60.473 36.334 47.206
O 65.474 34.816 58.02
O 68.683 34.041 48.925
O 61.991 41.178 50.57
O 68.392 41.272 55.898
O 56.461 40.54 54.051
O 63.531 43.32 52.289
O 66.915 40.92 53.767
O 68.973 30.499 53.348
O 73.4 37.316 49.901
O 58.4 34.241 47.166
O 64.435 39.502 50.039
O 66.349 33.769 46.959
O 69.784 35.492 51.381
O 65.903 43.125 57.056
O 66.7 32.576 50.147
O 71.021 36.693 56.206
O 66.581 36.905 53.668
O 63.009 38.757 59.777
O 69.046 35.921 46.022
O 67.153 39.17 51.721
O 67.928 44.615 47.791
O 71.943 43.874 48.046
O 72.258 39.458 51.406
O 62.748 38.229 57.524
O 56.144 35.509 52.173
O 68.57 43.342 51.808
O 58.739 38.574 54.443
O 71.505 31.613 53.708
O 69.876 40.911 44.022
O 66.965 32.37 52.918
O 74.46 36.18 52.49
O 64.586 43.393 49.489
O 68.2 38.386 55.036
O 70.151 37.013 44.08
O 61.435 34.115 47.557
O 65.635 38.831 58.909
O 59.805 41.423 48.572
O 70.24 45.853 51.53
O 66.43 35.696 51.309
O 58.55 44.819 46.721
O 69.867 37.018 41.266
O 63.815 45.919 53.122
O 58.668 39.011 49.076
O 73.341 33.543 50.234
O 67.926 40.622 43.046
O 68.274 30.779 47.532
O 56.327 38.29 51.963
O 61.358 35.36 43.722
O 59.266 36.379 51.227
O 63.587 31.934 46.821
O 61.18 45.78 50.956
O 64.654 39.384 52.712
O 66.21 44.838 51.374
O 64.679 37.913 45.103
O 72.584 34.022 52.243
O 70.68 38.392 52.51
O 60.695 40.219 43.778
O 62.552 38.645 54.658
O 71.313 39.745 56.801
O 56.932 33.895 50.321
O 69.778 41.124 54.197
O 59.477 32.586 51.539
O 66.476 35.428 49.127
O 64.577 30.162 51.188
O 70.384 41.215 47.306
O 65.466 38.983 56.324
O 63.389 41.099 54.481
O 61.191 37.962 45.881
O 73.845 36.116 44.6
O 57.043 40.261 49.869
O 66.353 46.773 48.338
O 67.555 37.264 48.467
O 65.226 47.043 46.374
O 69.449 41.964 49.151
O 69.57 38.454 49.617
O 60.293 33.608 56.385
O 57.6 42.914 50.605
O 67.077 39.77 48.91
O 64.673 34.846 43.952
O 65.652 39.855 45.902
O 62.634 36.921 52.631
O 65.962 30.659 49.346
O 59.013 39.325 57.048
O 72.581 34.149 46.699
O 59.597 30.668 50.29
O 72.055 41.22 54.258
O 62.357 41.464 42.486
O 64.177 47.751 50.972
O 66.282 34.326 55.018
O 57.525 42.61 46.168
O 61.724 31.721 45.545
O 56.94 40.673 47.041
O 61.613 40.045 58.66
O 61.075 41.491 53.069
O 67.634 32.752 44.674
O 62.579 30.466 49.483
O 70.797 34.651 48.911
H 61.663 38.974 54.839
H 62.73 38.946 53.759
H 60.73 39.916 58.291
H 61.585 40.943 59.014
H 69.06 44.009 51.312
H 68.945 42.506 51.501
H 71.217 30.759 53.364
H 71.663 32.139 52.914
H 58.375 42.6 46.627
H 66.193 33.58 55.624
H 67.167 34.219 54.649
H 61.248 40.821 44.291
H 62.149 35.668 44.182
H 58.99 36.77 52.064
H 60.12 35.978 51.432
H 68.212 36.816 49.014
H 64.53 31.997 47.018
H 63.232 31.423 47.56
H 63.153 37.592 56.922
H 62.325 38.865 56.935
H 72.002 40.262 54.152
H 71.885 41.559 53.37
H 64.5 42.452 49.293
H 64.941 43.766 48.672
H 56.984 35.924 52.404
H 73.793 36.627 51.954
H 58.441 38.08 48.96
H 58.867 39.311 48.18
H 67.212 40.133 43.472
H 67.73 40.542 42.104
H 72.472 33.197 49.994
H 73.78 33.669 49.383
H 75.022 35.743 51.838
H 71.809 33.791 47.156
H 72.72 40.018 52.041
H 72.652 38.587 51.539
H 73.326 33.724 47.14
H 68.92 31.495 47.57
H 68.793 29.991 47.737
H 59.432 39.224 54.615
H 65.356 37.907 58.872
H 59.463 38.471 57.069
H 62.05 33.523 47.106
H 61.99 34.581 48.194
H 69.437 36.386 43.907
H 70.917 36.449 44.241
H 58.09 38.741 55.137
H 66.339 31.044 48.545
H 65.102 30.328 49.058
H 68.049 38.49 54.088
H 69.145 38.198 55.098
H 62.717 40.61 50.855
H 62.168 42.016 51.016
H 68.917 31.353 52.903
H 62.976 29.752 48.968
H 62.531 30.104 50.377
H 66.715 38.682 51.012
H 67.491 39.96 51.281
H 69.448 40.53 44.799
H 70.802 40.989 44.285
H 67.914 40.443 55.771
H 68.136 41.55 56.786
H 66.618 31.568 53.328
H 70.941 41.247 46.518
H 69.633 40.672 47.034
H 66.26 33.017 53.045
H 69.377 38.704 50.529
H 70.269 37.794 49.704
H 64.206 43.101 51.635
H 62.937 43.916 51.816
H 65.636 47.891 46.584
H 65.12 47.07 45.415
H 62.672 33.029 41.543
H 67.722 40.549 53.388
H 66.476 34.467 49.042
H 65.565 35.676 48.926
H 58.66 33.719 47.934
H 69.81 40.183 53.986
H 69.685 41.55 53.336
H 72.206 43.377 48.83
H 71.387 43.254 47.557
H 63.966 37.594 44.535
H 65.423 38.021 44.498
H 66.907 37.586 49.106
H 72.26 34.859 51.888
H 61.158 46.652 50.543
H 61.9 45.847 51.595
H 64.42 40.158 52.185
H 64.777 38.688 52.055
H 70.606 38.201 53.454
H 70.428 37.562 52.087
H 66.986 44.584 50.859
H 65.523 44.965 50.708
H 69.237 34.867 50.889
H 70.388 35.842 50.715
H 64.854 40.371 50.009
H 64.485 39.191 49.126
H 63.801 38.548 60.288
H 62.36 39.0 60.448
H 66.609 32.913 47.322
H 66.299 40.936 53.024
H 65.959 33.547 46.105
H 69.458 35.081 46.261
H 68.719 36.264 46.863
H 72.67 36.702 50.046
H 73.045 37.948 49.262
H 67.88 43.892 47.153
H 67.267 44.382 48.453
H 65.852 32.467 50.596
H 67.267 32.969 50.822
H 70.246 37.075 56.637
H 71.07 37.164 55.364
H 67.286 36.436 53.204
H 65.786 36.671 53.174
H 65.82 35.647 58.367
H 66.242 34.232 58.012
H 57.658 43.835 50.322
H 60.341 33.801 55.441
H 57.335 42.445 49.804
H 60.048 37.666 59.032
H 61.431 37.246 59.5
H 73.367 36.749 45.151
H 61.892 37.759 45.249
H 66.295 42.461 50.622
H 67.407 41.695 49.926
H 63.578 41.631 53.698
H 64.218 40.633 54.647
H 60.032 35.849 47.915
H 56.568 39.522 49.47
H 57.341 39.91 50.718
H 61.322 36.583 47.591
H 69.051 33.152 49.011
H 68.406 34.086 48.002
H 68.724 29.945 49.967
H 67.995 30.894 50.902
H 69.23 42.651 48.509
H 70.21 42.326 49.622
H 72.538 37.67 46.971
H 73.148 39.046 47.173
H 62.659 34.351 58.469
H 70.303 32.427 55.564
H 57.73 34.436 50.28
H 66.563 47.803 53.349
H 66.301 46.896 52.16
H 71.219 39.28 55.96
H 58.905 33.112 52.112
H 59.791 31.879 52.116
H 63.466 34.666 55.807
H 64.202 35.994 55.833
H 70.874 34.714 42.709
H 69.403 34.83 42.352
H 59.769 35.717 56.793
H 61.07 35.574 57.564
H 64.389 33.46 51.975
H 64.269 34.124 53.336
H 63.204 35.464 51.085
H 61.949 34.61 51.105
H 64.235 41.736 57.535
H 63.989 40.248 57.353
H 59.987 40.51 46.103
H 59.06 41.024 45.015
H 65.349 29.176 53.387
H 66.904 36.302 55.758
H 66.54 37.169 56.951
H 64.721 36.984 50.534
H 63.379 37.679 50.688
H 64.092 43.539 55.047
H 62.754 43.714 54.35
H 60.586 37.739 49.312
H 63.469 32.911 44.129
H 63.587 33.653 45.449
H 66.336 30.644 46.381
H 60.635 39.061 50.058
H 61.781 42.897 45.714
H 61.894 44.407 45.599
H 65.874 35.601 41.452
H 66.15 36.56 42.597
H 59.215 41.171 50.694
H 59.046 41.815 52.059
H 63.609 39.764 44.492
H 63.292 39.45 43.04
H 60.062 32.924 49.433
H 59.86 34.4 49.73
H 66.305 35.962 46.785
H 65.641 37.216 47.328
H 68.507 42.758 44.47
H 68.568 42.226 45.891
H 70.406 35.225 48.241
H 71.683 35.013 49.035
H 59.813 43.731 49.319
H 75.57 41.95 51.891
H 74.828 40.644 52.111
H 65.913 46.087 48.857
H 66.261 47.565 48.881
H 65.847 39.687 55.784
H 64.728 38.66 55.792
H 66.155 43.108 52.727
H 65.279 44.222 53.274
H 60.959 31.65 47.857
H 59.449 31.678 47.702
H 74.059 41.827 48.594
H 69.085 33.53 52.63
H 70.49 34.0 52.964
H 70.174 44.494 49.253
H 61.722 41.195 55.921
H 62.471 42.496 56.155
H 67.686 39.449 48.234
H 66.339 40.13 48.402
H 62.986 36.758 53.515
H 61.678 36.943 52.766
H 65.402 34.563 43.387
H 64.376 35.671 43.548
H 66.558 39.828 46.234
H 65.137 39.448 46.611
H 57.456 40.955 47.807
H 66.602 44.13 43.32
H 66.314 43.076 42.265
H 72.363 36.884 53.605
H 68.535 46.485 48.818
H 69.389 46.52 47.563
H 61.581 31.117 44.805
H 61.554 32.592 45.166
H 70.171 36.215 40.825
H 69.576 37.583 40.538
H 64.667 47.081 50.478
H 60.412 30.714 49.774
H 58.901 30.765 49.628
H 60.517 40.788 48.719
H 60.105 41.931 47.808
H 69.542 46.328 51.998
H 70.928 46.519 51.406
H 66.908 36.49 51.038
H 67.131 35.059 51.495
H 64.111 45.758 52.218
H 63.301 46.734 53.053
H 66.443 42.006 44.331
H 72.911 39.309 45.001
H 61.528 45.592 47.8
H 61.845 44.842 49.082
H 67.525 37.412 44.272
H 66.901 36.086 44.671
H 66.377 42.039 45.848
H 62.848 35.635 46.306
H 63.928 35.044 47.195
H 71.542 38.227 42.024
H 71.922 36.756 42.044
H 59.008 41.449 54.69
H 58.249 42.705 54.301
H 61.852 32.648 52.136
H 62.115 32.293 50.683
H 62.429 41.917 48.529
H 62.988 43.16 47.859
H 65.315 40.484 42.415
H 64.614 41.779 42.788
H 64.737 30.839 51.856
H 68.888 35.479 55.284
H 69.507 36.233 54.119
H 64.297 33.779 49.647
H 63.933 32.319 49.444
H 63.401 36.427 58.797
H 67.134 38.421 41.956
H 59.823 43.841 52.686
H 60.942 44.543 53.436
H 69.773 34.854 57.225
H 68.312 34.879 57.64
H 62.793 40.988 46.128
H 64.219 41.511 46.128
H 72.075 40.901 49.254
H 71.501 39.506 49.079
H 61.279 42.362 53.431
H 60.981 40.934 53.852
H 62.845 32.628 54.099
H 61.991 31.375 54.013
H 67.582 30.553 55.158
H 68.043 31.781 55.924
H 70.622 39.044 45.934
H 69.139 38.753 46.079
H 67.034 32.279 44.084
H 67.614 32.233 45.487
H 61.31 39.333 52.138
H 59.892 38.788 52.111
H 67.938 46.44 45.779
H 67.8 45.321 44.761
H 68.338 43.926 54.048
H 67.497 43.045 54.956
H 60.784 36.135 54.606
H 62.015 36.395 55.456
H 63.766 45.75 48.52
H 63.642 32.358 56.187
H 62.857 32.159 57.472
H 65.69 44.741 46.743
H 64.681 44.108 45.8
