173
xyz format
O 54.575 43.013 67.823
O 60.252 42.998 62.523
O 50.845 32.383 67.979
O 55.378 40.424 69.073
O 52.341 36.905 65.243
O 50.543 34.192 69.4
O 56.277 43.541 70.46
O 55.757 39.152 67.204
O 64.694 41.658 68.189
O 59.913 34.417 65.395
O 64.93 40.913 70.963
O 61.028 40.557 73.524
O 61.12 35.495 70.299
O 58.929 40.688 62.381
O 51.588 39.224 68.646
O 57.535 36.731 73.386
O 52.012 41.385 68.688
O 50.889 33.83 72.315
O 55.782 32.223 65.02
O 55.442 37.586 73.44
O 65.077 35.392 65.902
O 53.641 33.982 72.375
O 56.375 46.639 69.781
O 60.249 38.508 63.968
O 55.207 36.551 65.795
O 53.39 32.551 66.205
O 58.777 43.403 65.603
O 56.806 42.436 65.682
O 62.869 34.55 68.12
O 63.218 39.463 67.738
O 56.881 44.175 67.708
O 62.695 41.199 68.982
O 64.287 33.038 66.929
O 56.145 35.469 68.343
O 61.827 44.232 70.126
O 62.04 34.867 65.062
O 58.568 45.13 70.561
O 56.197 39.221 61.485
O 57.788 41.35 72.185
O 60.783 41.805 66.739
O 54.289 33.527 70.004
O 47.896 34.388 72.314
O 62.059 41.298 64.773
O 57.834 39.373 65.035
O 54.771 36.225 71.526
O 61.007 36.409 67.457
O 59.362 40.431 69.088
O 53.773 38.205 67.29
O 58.55 37.607 67.065
O 55.738 41.345 62.921
O 61.113 32.967 68.549
O 53.99 33.576 63.828
O 62.493 38.106 65.071
O 57.452 37.525 70.293
O 60.214 38.647 70.545
O 52.395 35.805 68.419
O 56.777 34.943 65.455
O 61.593 43.859 64.625
O 56.672 34.39 62.816
O 53.953 44.795 70.772
O 60.575 36.57 72.614
H 56.529 41.663 63.375
H 53.591 39.031 67.757
H 53.964 37.579 67.999
H 57.957 37.187 67.701
H 59.057 38.229 67.601
H 53.207 45.391 70.636
H 54.389 44.773 69.91
H 60.416 36.074 66.772
H 61.335 37.24 67.091
H 61.964 41.694 68.59
H 62.258 40.472 69.442
H 58.095 39.04 64.167
H 58.331 40.196 65.124
H 59.707 41.146 68.539
H 58.559 40.156 68.629
H 62.05 35.534 64.365
H 62.086 34.031 64.58
H 62.655 41.812 65.332
H 62.491 41.306 63.91
H 56.138 44.738 67.962
H 57.652 44.74 67.84
H 58.307 45.966 70.967
H 58.69 44.539 71.314
H 56.597 35.234 63.278
H 56.227 34.55 61.974
H 64.729 33.228 66.092
H 57.003 39.215 62.015
H 63.387 32.807 66.666
H 59.434 38.439 70.016
H 60.904 38.795 69.887
H 62.046 43.767 69.309
H 58.575 41.017 71.736
H 57.205 41.612 71.461
H 53.575 33.178 69.457
H 54.912 33.891 69.363
H 60.235 41.193 66.23
H 60.737 42.627 66.235
H 60.557 39.313 63.532
H 60.415 37.817 63.315
H 57.442 36.584 70.506
H 56.963 37.931 71.019
H 63.603 38.591 67.585
H 63.649 40.022 67.079
H 56.033 36.416 68.494
H 56.957 35.255 68.819
H 55.885 37.096 66.214
H 54.988 35.897 66.47
H 56.039 41.872 65.516
H 57.223 42.033 66.453
H 60.017 32.267 62.779
H 58.604 44.125 64.987
H 58.898 42.636 65.029
H 53.953 36.739 71.522
H 55.259 36.565 70.766
H 61.112 32.281 67.87
H 60.423 33.577 68.26
H 62.674 35.375 68.583
H 62.227 34.534 67.4
H 55.321 38.348 74.019
H 55.429 36.834 74.045
H 57.104 46.618 69.149
H 55.592 46.508 69.231
H 54.573 33.828 72.175
H 52.521 39.243 64.793
H 53.649 34.799 72.888
H 54.784 34.099 63.993
H 52.765 41.037 68.195
H 51.212 33.412 71.506
H 50.598 34.702 72.021
H 56.548 44.393 70.096
H 51.019 34.888 69.87
H 49.821 34.662 68.965
H 56.366 42.934 69.715
H 56.576 32.757 65.142
H 62.327 38.719 65.798
H 62.859 37.326 65.507
H 58.004 36.522 74.204
H 58.14 36.438 72.693
H 52.129 39.32 69.44
H 51.363 38.285 68.634
H 58.649 41.508 62.806
H 59.503 40.987 61.664
H 61.688 36.167 70.695
H 60.176 36.752 73.474
H 60.976 37.411 72.364
H 60.668 35.967 69.589
H 53.013 36.68 65.899
H 53.352 35.79 63.59
H 63.991 40.857 70.743
H 65.263 41.601 70.374
H 61.473 41.366 73.806
H 60.669 40.195 74.344
H 53.073 35.545 67.782
H 51.732 36.252 67.878
H 57.332 35.717 65.296
H 56.898 34.764 66.396
H 48.59 34.673 72.922
H 47.285 33.897 72.878
H 61.446 44.633 64.068
H 62.011 44.221 65.416
H 59.073 34.445 65.871
H 60.005 33.488 65.149
H 55.803 39.296 66.25
H 56.669 38.954 67.45
H 55.046 40.983 69.787
H 55.417 41.02 68.315
H 51.704 37.434 65.739
H 51.326 32.17 68.789
H 65.334 40.935 68.214
H 65.191 42.391 67.803
H 54.362 42.899 68.757
H 54.12 43.83 67.582
