312
xyz format
Na 46.336 56.344 34.969
O 48.262 50.179 24.401
O 44.251 57.008 30.865
O 54.182 49.336 31.495
O 51.415 41.073 23.372
O 45.733 48.509 31.953
O 49.36 58.68 25.953
O 49.594 50.321 28.425
O 48.66 49.362 33.595
O 38.829 49.07 31.297
O 50.528 47.952 30.327
O 43.6 42.791 24.648
O 46.529 42.063 30.219
O 47.015 56.218 24.12
O 48.59 41.912 23.242
O 40.307 48.273 23.517
O 51.83 45.651 25.741
O 53.676 55.974 24.5
O 51.38 53.206 23.962
O 51.574 51.153 22.552
O 41.465 50.784 30.986
O 55.916 56.593 25.711
O 38.092 51.296 27.954
O 46.756 45.28 28.776
O 47.059 58.37 29.734
O 48.387 53.642 30.03
O 43.681 50.692 23.486
O 54.553 45.898 25.157
O 48.247 55.485 32.451
O 44.636 45.743 30.719
O 45.616 58.072 22.814
O 51.96 57.512 23.057
O 49.702 57.878 23.027
O 54.32 47.556 22.265
O 42.652 54.309 27.015
O 42.196 50.038 26.32
O 44.294 43.052 29.815
O 51.35 55.173 22.684
O 50.827 43.883 30.833
O 53.405 46.384 31.076
O 44.903 46.984 25.397
O 44.429 56.073 26.017
O 42.041 49.464 28.779
O 43.851 58.259 29.088
O 53.542 54.461 26.093
O 53.706 55.812 28.714
O 51.25 56.499 26.035
O 48.498 54.113 21.474
O 41.344 52.15 24.261
O 49.416 51.428 30.997
O 41.784 54.903 23.623
O 49.677 47.318 35.392
O 52.511 51.435 24.703
O 49.291 43.846 24.583
O 41.037 47.328 30.485
O 49.978 42.608 26.311
O 48.646 40.269 30.2
O 44.469 54.002 29.164
O 40.068 52.462 29.522
O 45.106 43.419 27.047
O 46.113 50.098 34.367
O 40.437 55.974 29.266
O 44.267 51.138 30.976
O 46.923 54.191 35.632
O 48.282 52.62 32.825
O 41.266 46.155 26.218
O 46.963 45.185 32.225
O 47.394 50.357 29.947
O 50.68 48.841 22.118
O 46.539 55.3 29.686
O 42.724 55.002 30.394
O 42.843 53.455 32.678
O 51.229 50.341 30.39
O 45.371 53.799 33.656
O 44.749 49.803 27.586
O 44.893 51.368 25.879
O 50.591 53.675 28.484
O 49.847 44.732 33.838
O 47.192 56.643 28.071
O 38.848 47.839 25.813
O 51.156 42.059 28.588
O 54.387 53.321 24.297
O 53.624 44.997 22.491
O 49.239 55.616 23.884
O 45.152 54.968 22.919
O 41.364 43.526 26.576
O 46.917 49.355 21.679
O 46.743 41.184 28.097
O 49.387 46.449 23.492
O 45.648 52.248 27.755
O 40.098 53.051 26.619
O 47.028 45.182 25.768
O 50.148 46.313 31.866
O 46.129 57.247 32.393
O 49.153 52.077 26.007
O 40.338 50.895 27.642
O 48.298 43.553 28.503
O 46.627 52.684 24.989
O 51.482 44.896 22.983
O 57.63 53.784 23.62
O 38.084 50.946 24.48
O 52.876 52.59 28.746
O 48.858 46.918 28.19
O 46.329 41.858 25.392
O 54.759 58.174 27.922
O 46.74 54.581 27.217
O 47.77 49.6 26.866
O 52.559 49.22 28.088
O 42.973 49.986 33.639
O 42.271 46.033 28.182
O 46.348 51.833 31.199
O 47.9 47.945 25.418
O 38.956 49.056 28.378
O 44.126 45.483 23.225
O 51.804 48.349 33.324
H 38.792 48.246 28.876
H 39.143 49.712 29.062
H 53.636 44.038 22.602
H 49.558 54.738 24.128
H 49.736 56.208 24.461
H 51.593 42.395 29.38
H 54.671 53.832 23.529
H 55.107 53.437 24.929
H 54.356 45.301 23.042
H 52.92 51.905 25.441
H 51.648 51.174 25.048
H 52.456 48.412 28.606
H 52.64 49.912 28.756
H 44.395 50.602 25.565
H 44.211 52.029 26.053
H 41.872 46.912 28.194
H 43.441 50.145 32.81
H 44.026 49.252 27.262
H 44.518 49.966 28.509
H 42.256 54.185 23.183
H 41.946 54.743 24.561
H 44.762 54.875 22.041
H 45.595 54.123 23.064
H 48.272 48.931 27.349
H 46.929 49.641 27.338
H 51.33 49.833 31.204
H 51.625 51.195 30.602
H 43.45 54.072 32.251
H 45.915 49.214 34.7
H 42.234 53.207 31.971
H 45.49 50.214 33.639
H 42.022 46.462 25.703
H 47.158 55.091 26.512
H 47.462 54.049 27.574
H 45.181 52.905 33.346
H 45.892 54.185 32.94
H 47.109 41.678 24.852
H 45.609 41.894 24.749
H 41.815 54.677 30.39
H 42.686 55.798 29.85
H 45.809 55.929 29.748
H 46.826 55.191 30.601
H 38.41 51.108 25.374
H 47.736 45.464 31.719
H 46.405 44.749 31.569
H 44.201 51.511 30.088
H 44.008 51.868 31.552
H 40.941 55.62 28.522
H 47.557 52.831 33.426
H 49.01 52.39 33.416
H 50.287 43.511 31.541
H 51.717 43.896 31.206
H 55.662 57.423 23.229
H 42.104 53.933 27.715
H 43.254 54.898 27.486
H 51.454 45.86 22.929
H 51.209 44.608 22.103
H 52.555 45.927 31.089
H 51.979 55.457 22.009
H 51.821 55.32 23.514
H 42.046 49.363 25.647
H 42.225 50.861 25.816
H 39.46 53.211 29.567
H 44.403 42.766 27.152
H 45.138 43.571 26.094
H 40.903 47.07 31.405
H 41.992 47.256 30.363
H 50.037 43.601 24.022
H 48.572 43.996 23.956
H 44.719 54.05 30.095
H 43.684 53.44 29.165
H 44.521 43.712 29.147
H 44.499 42.212 29.385
H 49.428 52.561 25.218
H 49.639 51.245 25.946
H 50.448 43.264 26.84
H 50.682 42.154 25.831
H 48.814 41.209 30.06
H 42.712 48.795 28.966
H 41.261 49.143 29.248
H 49.146 54.697 21.887
H 47.772 54.089 22.11
H 45.092 56.417 25.406
H 43.723 55.76 25.438
H 45.985 56.297 32.307
H 47.995 56.14 28.255
H 47.433 57.19 27.313
H 50.491 53.277 29.358
H 50.785 54.601 28.675
H 49.201 44.623 33.129
H 50.345 43.905 33.824
H 39.225 48.618 26.239
H 54.105 54.843 26.777
H 53.029 53.793 26.565
H 54.106 55.098 29.226
H 53.015 56.152 29.295
H 48.498 46.796 23.639
H 49.258 45.76 22.829
H 51.812 55.815 26.419
H 40.927 52.874 29.366
H 51.737 56.783 25.251
H 40.379 52.144 24.238
H 41.596 52.059 23.333
H 49.718 52.325 31.185
H 49.549 50.962 31.832
H 44.415 46.302 25.875
H 44.994 47.695 26.044
H 49.006 58.533 22.892
H 49.858 57.522 22.143
H 53.401 47.477 22.549
H 54.822 47.455 23.083
H 46.911 51.768 25.101
H 47.33 53.195 25.408
H 48.844 44.269 28.154
H 48.764 42.754 28.226
H 45.65 58.069 23.779
H 44.87 57.494 22.61
H 53.913 56.847 24.836
H 54.072 55.951 23.62
H 48.721 56.157 31.944
H 48.452 54.663 31.989
H 49.386 46.896 31.974
H 50.014 45.92 30.994
H 43.838 46.062 30.279
H 47.569 48.648 21.594
H 47.347 50.113 21.263
H 43.104 50.045 23.062
H 44.196 51.055 22.754
H 54.283 45.711 26.065
H 46.605 42.136 28.021
H 47.455 41.005 27.47
H 55.354 45.373 25.043
H 44.533 46.048 31.63
H 46.424 51.79 27.409
H 45.839 52.344 28.696
H 40.813 53.337 26.036
H 39.334 52.992 26.033
H 46.669 46.07 29.324
H 46.541 44.558 29.38
H 46.243 58.371 30.251
H 47.538 57.601 30.065
H 44.984 45.769 23.564
H 43.498 45.832 23.87
H 50.981 48.114 32.878
H 40.173 50.819 26.693
H 41.155 51.406 27.693
H 37.913 52.106 27.46
H 37.536 50.636 27.522
H 48.591 54.439 29.524
H 47.55 53.341 29.656
H 52.533 57.703 22.304
H 51.897 58.359 23.517
H 51.095 51.526 21.802
H 52.381 50.801 22.156
H 42.06 51.432 30.587
H 42.026 50.01 31.12
H 55.895 56.269 26.621
H 50.628 52.948 23.414
H 52.133 53.147 23.361
H 48.822 46.358 28.975
H 48.088 46.643 27.677
H 46.184 41.467 30.895
H 47.172 42.603 30.695
H 47.109 55.279 24.321
H 47.533 56.652 24.81
H 53.483 51.922 29.088
H 52.107 52.079 28.464
H 47.173 47.468 25.837
H 48.688 47.476 25.723
H 51.692 44.702 25.628
H 51.078 46.048 25.283
H 46.015 52.735 31.29
H 46.391 51.511 32.108
H 50.608 48.626 21.179
H 50.069 49.58 22.231
H 46.897 49.637 29.538
H 47.823 49.939 30.703
H 49.095 41.464 23.931
H 48.529 41.255 22.537
H 49.172 51.166 28.627
H 49.445 49.795 29.22
H 43.898 56.461 31.578
H 44.254 57.898 31.239
H 49.121 58.268 25.113
H 43.263 42.23 23.939
H 44.054 43.503 24.181
H 51.45 47.744 30.522
H 50.468 47.849 29.369
H 47.921 45.427 25.495
H 47.163 44.402 26.321
H 39.782 49.003 31.163
H 49.037 49.627 24.564
H 48.41 48.755 32.888
H 51.061 41.912 23.053
H 47.851 49.776 23.626
H 45.723 49.277 31.369
H 46.085 47.803 31.397
