261
xyz format
Cl 62.646 58.926 60.688
O 71.279 56.117 59.229
O 63.168 58.198 58.623
O 62.038 56.92 63.279
O 70.082 54.827 62.669
O 66.925 61.162 65.676
O 71.41 61.627 54.881
O 66.038 60.789 52.061
O 67.1 66.698 63.22
O 64.954 62.354 66.872
O 64.423 56.929 66.829
O 67.472 70.208 60.375
O 66.394 67.533 57.174
O 71.535 55.489 64.188
O 61.224 67.401 63.609
O 61.826 62.956 59.73
O 72.95 56.414 62.771
O 70.928 59.159 53.705
O 63.319 59.946 67.882
O 67.461 64.799 62.139
O 65.671 61.294 58.902
O 67.277 61.685 54.283
O 65.263 69.121 61.854
O 66.099 67.001 66.451
O 69.161 52.654 63.008
O 71.719 61.327 50.7
O 64.268 53.989 62.977
O 68.79 66.91 61.533
O 69.302 68.926 56.655
O 67.82 55.291 60.46
O 71.85 55.05 56.796
O 67.848 60.506 61.688
O 70.478 65.422 59.228
O 64.113 56.623 64.676
O 64.193 63.194 52.568
O 64.364 61.958 70.047
O 63.967 57.638 61.957
O 72.953 61.649 53.31
O 68.284 54.102 67.92
O 67.241 56.179 63.668
O 64.807 59.715 55.941
O 61.686 69.979 63.938
O 65.031 69.513 64.007
O 66.727 55.814 66.239
O 72.649 63.494 60.053
O 68.523 55.167 58.358
O 61.481 62.579 66.845
O 69.162 67.138 54.708
O 67.902 52.872 64.805
O 66.554 56.94 69.479
O 64.283 66.522 62.313
O 67.749 62.38 60.54
O 70.507 57.39 55.906
O 62.334 70.071 60.867
O 61.59 60.384 58.908
O 63.496 63.416 65.077
O 70.076 67.526 58.252
O 70.387 56.056 67.936
O 75.061 62.007 52.346
O 72.137 58.897 57.441
O 69.354 58.359 68.053
O 68.635 71.238 54.809
O 69.937 69.552 53.348
O 69.991 57.299 61.878
O 71.422 63.771 56.513
O 69.005 60.911 52.108
O 66.43 57.417 59.538
O 66.157 70.708 55.349
O 68.558 59.38 65.557
O 65.642 54.338 58.112
O 71.309 60.192 64.349
O 62.833 70.559 58.25
O 74.251 59.744 57.75
O 65.142 57.127 57.36
O 65.126 53.966 60.897
O 63.676 66.559 57.751
O 68.886 65.327 52.273
O 68.87 65.363 64.414
O 70.297 61.437 59.632
O 65.904 67.722 59.316
O 70.268 63.435 54.333
O 67.389 62.821 57.353
O 65.587 59.325 64.57
O 70.188 60.699 61.702
O 67.575 63.471 65.438
O 73.324 65.471 56.738
O 62.963 61.964 56.456
O 67.231 58.478 62.253
O 65.969 52.9 66.381
O 62.406 59.781 62.749
O 74.053 56.966 60.125
O 62.641 65.124 62.733
O 69.139 63.701 50.781
O 68.354 69.211 58.622
O 70.246 65.83 56.323
O 69.593 60.828 55.83
O 64.154 70.009 56.571
O 69.996 63.107 63.519
O 63.848 61.673 60.101
O 73.03 60.867 61.177
H 70.459 65.447 55.463
H 70.636 66.712 56.285
H 62.854 64.196 62.576
H 62.469 65.163 63.682
H 64.232 62.862 64.789
H 62.767 63.143 64.506
H 70.684 63.405 53.463
H 69.338 63.25 54.149
H 67.838 62.736 56.502
H 67.122 63.748 57.38
H 63.36 67.103 57.019
H 64.12 65.822 57.314
H 68.182 63.056 60.003
H 66.93 62.804 60.823
H 74.4 58.791 57.712
H 64.857 56.53 58.063
H 73.758 59.867 58.571
H 64.32 57.358 56.909
H 74.211 57.164 59.193
H 65.383 68.502 59.085
H 65.255 67.007 59.322
H 66.384 54.943 57.991
H 71.065 59.259 64.346
H 70.827 60.553 65.103
H 70.449 56.87 61.144
H 69.26 57.764 61.452
H 72.156 63.24 56.181
H 71.217 63.37 57.367
H 61.853 60.771 59.753
H 64.888 62.586 69.535
H 72.579 62.128 52.56
H 73.174 60.784 52.943
H 69.138 54.155 67.474
H 67.648 54.064 67.195
H 67.335 55.252 63.415
H 68.152 56.489 63.742
H 64.537 56.985 62.382
H 64.323 58.483 62.257
H 70.326 56.317 67.009
H 67.229 63.617 64.548
H 70.811 68.069 58.563
H 69.534 67.4 59.04
H 68.411 63.014 65.286
H 69.489 56.176 68.268
H 69.395 70.744 55.14
H 68.256 71.635 55.603
H 72.543 65.938 57.062
H 73.416 64.728 57.348
H 71.336 58.417 57.684
H 72.117 58.902 56.476
H 69.649 59.045 67.441
H 68.394 58.46 68.065
H 70.264 63.766 62.868
H 69.532 62.442 62.995
H 68.396 55.824 57.662
H 72.673 64.135 59.332
H 73.088 62.717 59.685
H 69.591 65.238 52.926
H 68.109 64.976 52.725
H 68.346 66.682 54.466
H 62.402 62.354 66.66
H 69.633 67.225 53.871
H 70.542 61.183 58.734
H 70.987 62.061 59.89
H 68.679 65.919 65.18
H 69.812 65.17 64.501
H 70.929 60.897 62.288
H 69.929 59.803 61.954
H 64.703 65.728 61.959
H 64.922 66.85 62.959
H 66.901 56.671 68.619
H 67.69 53.79 65.016
H 70.252 56.608 56.411
H 71.012 57.031 55.165
H 64.888 60.489 55.369
H 64.124 59.185 55.512
H 67.237 56.532 65.843
H 66.277 55.411 65.487
H 61.624 70.939 64.02
H 62.023 69.697 64.797
H 62.05 69.887 61.771
H 61.527 70.371 60.429
H 65.115 69.274 64.939
H 64.078 69.602 63.878
H 68.277 66.762 60.729
H 69.948 68.775 55.954
H 68.736 68.145 56.618
H 69.513 67.48 61.241
H 64.117 54.942 63.002
H 66.497 57.947 62.587
H 67.664 58.799 63.054
H 63.394 61.494 57.181
H 67.911 61.044 62.487
H 66.915 60.56 61.448
H 67.216 55.298 61.214
H 67.643 61.229 66.318
H 67.381 61.124 64.826
H 69.472 54.975 61.935
H 69.505 54.782 63.441
H 68.119 56.207 60.398
H 71.228 66.0 59.414
H 70.3 64.997 60.077
H 63.613 57.432 64.843
H 65.017 56.934 64.543
H 64.26 62.545 60.131
H 63.907 61.36 61.012
H 63.815 60.55 68.449
H 62.593 59.649 68.444
H 66.936 67.004 65.97
H 65.529 66.435 65.916
H 65.3 68.298 61.351
H 64.894 69.756 61.228
H 66.043 58.754 65.201
H 65.026 59.88 65.126
H 66.955 62.571 54.494
H 66.958 61.145 55.017
H 66.06 60.469 59.218
H 65.9 61.312 57.965
H 66.939 64.946 61.34
H 68.212 64.278 61.83
H 61.967 67.83 63.167
H 72.422 56.343 61.966
H 71.718 58.864 54.175
H 70.251 59.192 54.392
H 64.733 69.468 57.121
H 60.983 63.291 59.402
H 62.324 62.76 58.927
H 73.202 60.248 61.898
H 72.868 61.705 61.628
H 66.73 61.463 52.055
H 66.475 60.009 51.696
H 67.779 67.269 63.601
H 66.856 66.114 63.948
H 63.928 57.532 67.396
H 66.54 68.26 56.557
H 65.934 66.871 56.644
H 64.937 56.399 67.451
H 66.895 58.016 60.135
H 65.997 56.791 60.132
H 68.912 59.551 64.675
H 68.209 58.483 65.494
H 66.511 70.438 56.206
H 68.608 60.579 52.922
H 65.092 61.399 66.876
H 65.707 62.697 67.369
H 70.896 61.318 54.125
H 71.913 60.848 55.151
H 65.255 53.413 65.981
H 70.601 56.477 58.644
H 71.976 56.785 59.21
H 69.161 69.735 58.698
H 67.785 69.749 58.058
H 68.955 60.123 56.0
H 70.176 60.799 56.598
H 66.691 70.772 60.438
H 67.161 69.351 60.694
H 64.079 58.402 58.868
H 62.101 56.541 62.394
H 61.184 57.37 63.276
H 61.728 59.697 63.43
H 62.875 60.589 62.99
