569
xyz format
Cl 31.247 50.946 48.398
Na 35.918 45.033 51.34
Na 36.045 52.744 54.029
O 24.901 52.29 51.995
O 34.03 51.908 48.431
O 27.281 63.282 40.092
O 28.13 60.544 48.062
O 30.136 64.261 49.929
O 33.547 55.93 43.381
O 29.178 61.196 49.884
O 26.849 60.057 54.334
O 31.718 50.328 50.467
O 30.798 55.98 50.701
O 30.685 62.111 51.835
O 35.047 57.531 39.733
O 25.972 52.103 35.086
O 32.848 56.56 52.79
O 32.229 48.197 51.93
O 28.288 44.115 42.157
O 26.166 52.854 46.693
O 25.545 57.242 53.404
O 31.442 49.918 38.638
O 27.779 46.239 43.778
O 37.424 59.543 39.401
O 32.873 59.85 43.046
O 30.128 53.045 49.088
O 35.998 54.064 51.222
O 29.555 46.662 46.322
O 26.463 66.289 46.959
O 37.77 49.323 42.741
O 26.051 54.568 53.65
O 21.944 47.008 50.765
O 29.172 50.2 48.425
O 29.263 57.353 47.75
O 25.063 46.875 39.686
O 31.434 51.37 36.637
O 27.97 51.193 54.054
O 25.132 49.206 37.179
O 24.982 60.288 44.773
O 26.283 62.573 46.28
O 33.267 49.089 41.3
O 29.977 50.025 55.681
O 33.794 56.833 46.106
O 32.012 59.02 39.058
O 33.823 57.49 36.037
O 22.495 54.614 46.407
O 33.548 46.777 43.633
O 27.21 44.915 40.162
O 30.16 50.975 34.524
O 32.254 53.515 45.469
O 32.05 65.561 43.145
O 29.255 55.539 42.532
O 31.879 55.375 48.019
O 31.749 47.537 40.849
O 29.147 42.049 40.598
O 25.847 57.847 47.837
O 33.429 56.825 48.595
O 31.974 67.306 45.976
O 24.341 60.734 42.301
O 32.823 52.029 52.37
O 34.384 57.658 42.083
O 30.114 49.385 53.351
O 27.409 57.141 42.66
O 35.318 54.462 35.57
O 32.252 49.193 47.517
O 35.206 61.71 44.431
O 21.453 51.186 50.793
O 28.487 47.652 53.572
O 22.778 56.337 48.497
O 33.453 54.701 51.781
O 31.211 56.956 35.773
O 33.386 46.348 50.318
O 25.959 43.248 47.027
O 29.931 55.761 44.616
O 36.678 46.875 40.602
O 24.083 55.899 43.304
O 26.055 42.137 41.776
O 32.081 47.191 54.461
O 34.074 64.267 46.582
O 35.934 45.985 42.469
O 28.566 60.137 43.225
O 23.41 55.128 53.207
O 28.001 55.325 50.766
O 26.374 53.253 41.419
O 31.681 64.007 47.357
O 31.612 63.976 40.661
O 29.415 64.564 38.189
O 29.251 61.711 40.82
O 26.362 55.899 44.144
O 30.109 48.309 36.131
O 34.303 62.494 41.642
O 35.879 57.619 36.81
O 30.816 47.124 43.877
O 33.204 55.026 41.103
O 31.13 55.868 33.737
O 26.658 61.408 43.162
O 26.647 49.718 47.157
O 31.815 57.263 45.075
O 26.284 47.246 41.59
O 35.641 60.734 40.835
O 22.32 55.094 50.577
O 29.347 42.171 45.413
O 27.453 65.675 43.042
O 27.074 40.563 39.312
O 29.457 54.438 36.791
O 32.349 54.56 38.524
O 27.349 60.726 52.297
O 24.665 52.096 48.669
O 35.826 54.847 38.167
O 27.725 46.583 48.447
O 31.392 56.378 39.587
O 31.949 61.294 48.233
O 25.714 49.599 55.099
O 33.56 58.405 51.13
O 22.985 51.131 41.585
O 27.125 44.516 37.501
O 36.566 48.865 45.684
O 23.585 49.717 51.698
O 35.002 50.37 53.825
O 34.865 50.637 46.801
O 23.287 46.834 48.818
O 31.234 43.464 43.251
O 35.254 60.288 36.134
O 36.904 54.586 41.793
O 26.554 55.236 47.178
O 31.285 52.849 34.228
O 23.237 53.586 54.766
O 26.397 50.49 49.722
O 29.291 53.725 39.126
O 34.066 53.885 49.408
O 26.615 54.378 57.226
O 35.034 50.578 40.027
O 29.503 53.396 43.912
O 29.309 49.506 45.239
O 30.982 59.397 51.281
O 26.765 48.709 43.978
O 23.247 49.824 48.776
O 34.394 52.84 46.177
O 27.948 43.245 48.572
O 29.41 58.085 34.515
O 37.205 51.46 46.884
O 29.615 57.402 37.347
O 28.495 54.48 53.532
O 24.858 59.765 52.328
O 30.996 43.925 48.06
O 23.17 48.138 40.886
O 29.174 51.139 37.763
O 28.277 58.144 45.471
O 27.037 51.918 43.553
O 29.399 52.358 46.08
O 35.791 57.384 44.901
O 27.34 60.318 36.531
O 30.695 53.439 53.104
O 27.318 50.233 41.013
O 34.463 48.203 38.824
O 28.841 40.928 42.861
O 35.203 50.261 44.664
O 34.023 53.09 43.91
O 23.707 51.944 43.647
O 31.187 61.561 44.972
O 28.05 64.412 46.663
O 24.032 62.468 48.26
O 29.516 50.703 41.081
O 35.492 58.963 47.841
O 30.592 46.561 48.669
O 32.52 45.173 45.866
O 37.669 56.619 40.494
O 26.679 52.413 55.351
O 25.801 44.315 43.516
O 30.83 45.234 41.651
O 30.927 53.199 40.867
O 22.403 48.381 46.593
O 26.254 53.848 50.583
O 29.251 62.415 35.392
O 29.254 46.596 38.507
O 33.772 47.17 47.384
O 30.721 49.255 42.815
O 26.011 55.067 40.228
O 35.656 48.968 42.243
O 28.997 45.557 52.378
O 29.809 57.686 52.617
O 28.119 58.058 51.151
O 27.812 50.917 34.873
O 28.691 56.212 38.95
O 34.262 46.965 52.847
O 31.325 60.57 36.467
O 34.483 52.707 40.128
O 26.258 57.448 38.043
O 33.79 61.374 38.43
O 32.8 48.774 45.137
O 28.058 60.946 39.135
O 32.19 51.182 42.566
O 32.599 53.517 36.145
O 33.689 45.502 38.67
O 25.482 63.546 50.171
O 27.915 63.368 51.704
O 30.686 61.382 39.184
O 33.872 50.523 36.959
O 27.673 64.819 49.37
O 26.018 45.269 48.0
O 35.062 50.156 51.212
O 33.943 44.592 49.112
O 31.411 56.074 42.243
O 28.73 51.543 51.349
O 27.327 49.045 38.502
O 29.996 63.967 43.94
O 24.315 54.869 47.922
O 27.274 56.449 55.15
O 26.497 44.214 51.598
O 26.595 57.174 35.885
O 28.574 44.703 46.284
O 25.994 58.043 40.664
H 35.943 50.747 44.28
H 34.426 50.687 44.28
H 31.498 46.231 48.628
H 30.071 45.776 48.881
H 31.399 62.502 44.946
H 30.3 61.535 45.352
H 28.679 65.066 46.992
H 28.06 64.545 45.707
H 34.931 53.129 43.585
H 24.196 51.319 44.196
H 24.261 52.735 43.651
H 33.49 53.268 43.125
H 33.815 47.679 38.335
H 35.196 48.297 38.203
H 34.831 50.518 36.85
H 33.686 49.679 37.39
H 28.492 41.589 43.472
H 29.477 50.486 37.119
H 30.393 60.477 39.352
H 27.783 51.795 44.153
H 26.281 52.019 44.145
H 31.457 61.483 39.757
H 30.335 52.209 46.263
H 28.948 51.757 46.686
H 28.842 51.862 37.216
H 23.726 50.818 41.051
H 22.62 51.859 41.067
H 23.568 47.685 49.177
H 22.476 47.044 48.339
H 23.917 62.328 49.208
H 24.515 63.302 48.208
H 30.213 50.563 40.428
H 29.982 51.086 41.835
H 27.922 57.249 45.543
H 27.568 58.7 45.819
H 34.721 49.736 50.412
H 23.156 50.624 49.31
H 24.198 49.751 48.633
H 28.316 43.886 49.193
H 35.332 52.755 46.392
H 34.124 53.641 46.644
H 30.041 49.453 45.866
H 29.304 50.434 44.971
H 31.593 59.294 52.022
H 27.721 48.576 43.969
H 26.547 48.869 43.051
H 31.561 59.566 50.528
H 32.994 60.84 38.32
H 33.472 62.172 38.87
H 33.967 50.691 46.451
H 34.847 49.85 47.359
H 28.932 57.254 34.635
H 29.321 58.526 35.369
H 33.829 54.491 48.694
H 33.219 53.519 49.69
H 35.606 50.88 50.877
H 29.392 52.872 43.109
H 28.642 53.816 44.032
H 26.395 49.146 47.893
H 26.965 50.52 47.59
H 30.13 54.135 38.882
H 31.05 48.136 36.002
H 25.991 56.634 44.649
H 25.826 55.143 44.412
H 29.678 47.537 35.742
H 23.885 54.065 55.297
H 32.07 58.101 45.48
H 31.605 56.699 45.83
H 24.803 55.486 48.482
H 23.368 52.664 55.021
H 32.927 54.104 41.17
H 34.158 54.99 41.243
H 31.205 46.474 44.475
H 30.426 47.777 44.472
H 33.749 61.978 41.043
H 27.193 44.968 36.651
H 36.556 57.518 36.129
H 36.072 56.906 37.432
H 27.498 43.643 37.328
H 33.671 62.903 42.245
H 29.497 65.504 38.392
H 29.015 64.553 37.311
H 30.68 57.406 52.927
H 29.313 57.834 53.432
H 29.434 62.407 41.463
H 28.611 61.145 41.27
H 30.651 64.063 40.675
H 31.776 63.158 41.147
H 23.36 57.915 54.839
H 30.585 42.954 43.75
H 31.742 43.92 43.934
H 26.83 61.877 42.336
H 27.09 61.954 43.831
H 31.852 55.524 33.196
H 23.831 54.321 48.553
H 27.641 50.188 34.264
H 28.034 51.655 34.291
H 26.803 51.363 49.655
H 30.585 53.467 34.474
H 36.354 54.959 41.093
H 36.685 53.646 41.78
H 26.06 55.935 46.731
H 27.379 55.666 47.433
H 26.291 50.359 50.672
H 25.821 55.865 39.719
H 25.695 46.54 41.886
H 27.167 46.881 41.728
H 26.195 54.402 39.553
H 31.548 48.788 42.642
H 30.901 49.748 43.625
H 35.973 50.796 39.986
H 34.759 50.573 39.101
H 31.352 60.967 47.549
H 31.553 62.133 48.501
H 30.619 52.512 53.364
H 30.101 53.514 52.347
H 27.108 41.472 39.634
H 29.152 45.95 37.797
H 29.618 47.371 38.061
H 27.813 66.422 43.537
H 27.881 64.907 43.442
H 26.082 48.808 54.685
H 25.58 50.204 54.359
H 31.149 52.95 41.773
H 31.364 52.526 40.33
H 27.49 50.506 41.923
H 26.363 50.095 40.992
H 26.496 60.509 36.96
H 27.613 61.172 36.173
H 32.827 57.794 50.982
H 29.767 55.065 36.127
H 28.81 53.902 36.316
H 29.503 52.785 39.184
H 27.93 46.11 49.262
H 28.47 47.187 48.338
H 30.799 55.829 40.115
H 32.05 56.682 40.224
H 33.024 54.835 37.891
H 32.193 53.633 38.305
H 30.495 45.408 42.54
H 28.145 61.271 52.337
H 26.927 60.996 51.471
H 26.188 44.541 42.661
H 26.428 43.685 43.892
H 31.776 45.095 41.786
H 36.144 61.557 40.883
H 21.531 54.561 50.421
H 23.033 54.444 50.609
H 25.364 52.757 48.74
H 24.286 52.255 47.796
H 31.937 45.279 46.629
H 33.385 45.005 46.26
H 23.579 50.526 52.225
H 35.155 54.64 38.829
H 36.597 55.095 38.692
H 23.297 49.037 52.32
H 26.455 52.316 41.203
H 25.878 53.256 42.247
H 23.914 55.345 52.413
H 22.539 54.888 52.867
H 26.6 42.629 46.656
H 29.601 55.605 45.509
H 29.763 56.7 44.469
H 34.526 46.575 47.292
H 33.969 47.886 46.767
H 28.305 59.886 44.12
H 29.344 59.592 43.052
H 30.972 64.109 46.71
H 27.664 55.654 51.609
H 28.608 56.018 50.476
H 27.677 58.605 51.812
H 27.996 58.549 50.329
H 26.933 42.382 42.092
H 25.508 42.166 42.571
H 30.601 56.925 50.707
H 30.488 55.676 51.563
H 29.046 62.154 34.486
H 30.196 62.615 35.364
H 31.072 49.863 51.014
H 32.567 50.082 50.855
H 37.038 57.05 41.084
H 28.129 48.462 53.956
H 22.882 57.164 48.983
H 21.838 56.136 48.586
H 37.423 56.942 39.619
H 31.481 57.862 35.968
H 31.623 56.437 36.475
H 33.536 47.094 49.723
H 32.63 54.894 51.315
H 34.117 55.202 51.29
H 27.259 53.169 55.504
H 26.016 52.488 56.049
H 24.471 56.499 42.655
H 23.4 55.433 42.805
H 21.2 50.771 51.627
H 22.194 51.755 51.036
H 26.115 58.011 35.921
H 26.764 57.047 34.943
H 32.155 54.341 45.958
H 31.484 53.501 44.886
H 30.446 64.498 44.609
H 29.676 51.4 51.477
H 28.36 50.652 51.365
H 29.439 63.372 44.457
H 26.772 48.278 38.314
H 28.019 48.998 37.83
H 28.443 44.289 45.422
H 27.701 56.614 54.3
H 27.911 56.781 55.795
H 34.999 60.807 44.701
H 36.023 61.91 44.905
H 31.497 48.593 47.463
H 32.735 48.884 48.294
H 27.763 44.495 46.764
H 35.143 58.222 41.891
H 33.726 57.929 41.431
H 30.347 50.32 53.297
H 29.616 49.225 52.54
H 27.545 57.991 42.225
H 27.007 56.593 41.974
H 25.565 58.412 47.108
H 26.809 57.834 47.758
H 32.618 57.281 48.853
H 33.839 56.592 49.437
H 24.962 60.045 42.57
H 24.467 61.427 42.962
H 30.814 47.356 41.009
H 32.056 46.755 40.374
H 29.5 42.44 41.407
H 29.843 41.444 40.313
H 31.129 55.958 47.847
H 31.733 55.074 48.924
H 31.485 66.182 43.621
H 31.607 65.454 42.294
H 33.205 45.976 43.217
H 33.945 46.458 44.453
H 26.747 44.193 39.719
H 27.744 45.309 39.46
H 30.91 50.689 33.988
H 29.88 50.168 34.976
H 31.428 56.697 42.98
H 31.557 55.217 42.664
H 29.004 54.751 42.033
H 29.248 56.241 41.869
H 35.128 48.58 42.952
H 35.235 49.822 42.084
H 32.788 52.766 52.993
H 32.386 51.309 52.842
H 22.928 53.79 46.15
H 22.535 55.153 45.607
H 26.379 58.926 40.599
H 25.447 58.09 41.458
H 31.262 61.334 37.055
H 30.47 46.917 46.494
H 29.091 47.506 46.25
H 31.403 59.822 37.072
H 26.073 65.439 46.72
H 33.774 55.872 46.184
H 34.508 57.097 46.7
H 30.875 53.096 48.479
H 27.116 52.963 46.831
H 25.996 53.341 45.877
H 25.833 54.781 54.566
H 25.67 53.69 53.522
H 28.816 56.714 39.766
H 28.044 55.538 39.193
H 29.367 52.925 48.506
H 33.926 56.534 36.12
H 33.57 57.614 35.114
H 26.318 44.71 48.728
H 25.117 45.508 48.251
H 31.829 58.86 39.992
H 32.58 58.282 38.806
H 26.45 62.792 47.205
H 25.925 61.678 46.317
H 29.099 50.414 55.776
H 29.797 49.094 55.5
H 33.397 59.588 43.813
H 28.169 61.81 38.719
H 28.383 60.327 38.469
H 23.022 47.849 39.977
H 32.606 49.713 45.027
H 33.673 48.672 44.737
H 29.052 55.22 53.26
H 28.95 54.123 54.305
H 25.663 59.242 52.432
H 25.429 57.649 38.496
H 26.92 57.501 38.743
H 28.839 57.029 36.91
H 30.058 43.837 47.85
H 22.613 48.921 40.972
H 29.278 58.202 37.768
H 32.095 60.271 43.432
H 34.705 52.812 41.061
H 28.536 51.852 53.635
H 27.407 50.882 53.334
H 33.615 52.284 40.144
H 32.481 51.351 43.471
H 32.977 51.359 42.036
H 24.568 49.939 36.902
H 25.862 49.226 36.547
H 25.873 57.821 54.103
H 24.913 56.67 53.858
H 32.1 50.622 38.596
H 31.533 49.467 37.79
H 28.468 46.382 44.439
H 37.061 59.047 40.145
H 38.211 59.964 39.769
H 27.003 46.003 44.302
H 33.378 53.24 35.647
H 28.597 50.209 49.2
H 29.206 49.268 48.175
H 32.292 54.302 35.674
H 29.339 56.964 48.63
H 29.119 58.291 47.926
H 24.688 47.016 38.807
H 25.973 46.61 39.506
H 32.043 51.162 35.917
H 30.916 52.108 36.292
H 22.787 47.225 51.182
H 32.666 55.886 53.458
H 33.076 57.341 53.309
H 21.784 48.325 45.854
H 23.262 48.216 46.186
H 26.54 52.671 35.622
H 25.983 54.666 50.147
H 26.977 53.523 50.032
H 34.531 57.256 38.964
H 34.973 58.493 39.727
H 27.809 63.929 39.608
H 26.673 63.824 40.611
H 28.941 60.445 47.547
H 27.523 59.914 47.655
H 31.043 61.398 52.38
H 29.978 62.481 52.379
H 28.386 45.065 42.017
H 28.785 43.95 42.968
H 32.564 48.625 52.728
H 31.552 47.593 52.261
H 24.38 59.622 45.128
H 25.858 59.932 44.967
H 30.656 63.466 50.101
H 30.256 64.412 48.983
H 27.079 64.556 48.656
H 33.096 49.687 40.562
H 33.879 48.44 40.931
H 25.625 51.777 52.376
H 24.828 51.949 51.095
H 34.706 51.801 49.111
H 33.457 51.141 48.554
H 34.102 55.289 43.842
H 33.614 56.725 43.924
H 27.048 63.16 52.074
H 26.039 62.768 50.046
H 27.929 64.333 51.685
H 29.228 60.523 50.574
H 29.024 62.014 50.372
