203
xyz format
O 57.564 54.032 32.004
O 56.077 50.987 30.501
O 59.394 49.104 23.261
O 54.182 49.336 31.495
O 63.318 56.846 29.469
O 61.956 55.119 25.085
O 65.638 56.162 29.199
O 60.857 42.33 27.258
O 61.001 51.267 23.796
O 56.201 49.297 25.156
O 56.128 49.545 27.927
O 55.942 47.335 32.968
O 57.432 47.613 30.077
O 62.119 48.05 24.336
O 65.861 53.496 29.931
O 60.892 54.228 28.697
O 66.045 49.349 32.194
O 65.234 55.066 32.016
O 58.721 58.317 25.544
O 61.694 59.243 29.052
O 57.768 51.798 33.928
O 65.24 50.362 26.166
O 58.688 50.203 26.442
O 55.916 56.593 25.711
O 58.569 52.523 28.233
O 61.402 58.089 26.958
O 60.787 51.273 31.003
O 63.979 46.591 31.346
O 60.727 45.296 32.895
O 54.553 45.898 25.157
O 63.267 47.106 33.72
O 58.175 43.39 27.245
O 54.32 47.556 22.265
O 62.539 54.401 30.282
O 65.031 52.972 27.961
O 56.982 56.852 31.554
O 57.692 43.331 24.311
O 62.176 42.232 29.016
O 65.331 49.893 29.792
O 57.12 58.002 29.495
O 62.057 48.702 30.499
O 59.8 52.798 25.368
O 58.31 55.312 26.587
O 58.902 49.145 28.359
O 60.193 56.514 24.13
O 60.942 45.956 29.562
O 58.318 47.048 25.715
O 59.849 56.469 30.648
O 58.436 47.377 32.045
O 66.913 54.088 27.641
O 62.378 50.704 28.496
O 60.189 41.505 24.371
O 55.716 50.3 33.078
O 60.364 48.822 31.943
O 64.349 47.257 27.192
O 63.094 53.899 32.832
O 54.387 53.321 24.297
O 53.624 44.997 22.491
O 62.93 50.149 25.631
O 61.243 44.699 26.709
O 58.176 49.376 31.163
O 55.535 41.724 27.054
O 60.991 45.408 23.713
O 51.482 44.896 22.983
O 57.63 53.784 23.62
O 67.061 43.58 29.222
O 52.876 52.59 28.746
O 58.439 45.375 30.012
O 60.785 47.793 26.633
O 52.591 52.933 32.31
O 56.58 44.706 27.996
O 64.169 55.732 26.589
O 67.305 50.844 30.686
O 62.801 52.843 25.943
O 66.205 46.987 28.342
H 63.285 50.493 24.802
H 62.172 50.719 25.811
H 53.636 44.038 22.602
H 63.452 56.379 26.592
H 64.836 56.131 26.016
H 56.951 45.537 28.32
H 55.869 44.987 27.407
H 54.671 53.832 23.529
H 55.107 53.437 24.929
H 54.356 45.301 23.042
H 62.385 53.25 32.746
H 62.646 54.745 32.709
H 60.497 48.025 32.471
H 60.185 49.506 32.601
H 56.502 49.988 33.544
H 55.17 50.68 33.778
H 60.203 47.252 27.181
H 61.341 48.254 27.274
H 67.463 53.326 27.42
H 66.577 54.383 26.786
H 60.51 46.007 30.424
H 61.04 46.88 29.299
H 58.65 46.475 32.313
H 58.093 47.781 32.852
H 66.315 44.16 29.417
H 62.752 50.101 27.841
H 62.175 51.498 27.987
H 58.072 53.127 23.068
H 57.922 53.566 24.514
H 60.093 53.59 25.836
H 59.57 52.185 26.077
H 62.289 48.784 29.566
H 62.798 49.116 30.957
H 57.96 54.601 27.139
H 57.719 55.322 25.824
H 57.002 43.728 24.857
H 65.238 48.935 29.721
H 64.686 50.138 30.467
H 57.893 57.169 31.516
H 56.934 56.208 30.837
H 57.5 42.386 24.35
H 58.379 46.281 25.132
H 59.381 55.956 29.977
H 60.509 56.959 30.143
H 57.976 47.746 25.142
H 61.424 45.494 24.571
H 60.056 45.313 23.936
H 63.578 52.58 25.436
H 62.092 52.854 25.288
H 56.059 41.682 26.245
H 59.811 49.149 28.682
H 58.443 49.745 28.959
H 54.623 41.719 26.737
H 59.885 56.298 25.02
H 60.664 57.348 24.247
H 63.889 46.489 27.554
H 64.784 46.912 26.402
H 60.349 44.877 26.389
H 61.114 44.489 27.643
H 53.401 47.477 22.549
H 54.822 47.455 23.083
H 64.205 52.552 28.229
H 65.094 52.775 27.018
H 63.4 54.642 30.645
H 62.053 55.235 30.271
H 60.199 42.626 26.617
H 61.512 41.87 26.717
H 58.461 50.26 31.426
H 57.243 49.353 31.41
H 60.879 44.698 32.153
H 54.283 45.711 26.065
H 58.001 42.606 26.709
H 58.305 44.089 26.592
H 64.126 47.37 30.794
H 64.597 45.939 30.991
H 61.607 51.156 30.506
H 60.101 51.23 30.326
H 65.525 46.798 29.001
H 67.026 46.723 28.777
H 61.484 57.379 26.309
H 65.158 49.619 25.555
H 57.934 50.449 25.892
H 59.243 49.681 25.849
H 65.348 51.125 25.585
H 59.373 51.989 28.26
H 57.96 51.994 27.704
H 60.985 59.058 29.68
H 58.388 51.38 33.318
H 55.895 56.269 26.621
H 55.823 57.549 25.806
H 59.107 58.553 26.397
H 58.018 57.697 25.774
H 65.172 54.644 32.882
H 55.832 46.495 33.431
H 55.591 47.986 33.589
H 53.483 51.922 29.088
H 61.625 47.515 23.702
H 61.838 48.953 24.142
H 56.54 47.509 30.429
H 57.293 47.728 29.129
H 65.133 53.292 30.531
H 66.572 53.777 30.519
H 57.751 44.791 30.355
H 58.846 44.86 29.305
H 60.519 51.842 23.188
H 60.311 50.907 24.367
H 56.334 50.327 27.4
H 56.476 48.815 27.399
H 55.844 50.188 25.258
H 55.79 48.976 24.344
H 65.415 55.353 28.72
H 53.486 49.532 30.855
H 54.326 48.387 31.395
H 67.639 50.595 29.815
H 66.64 51.517 30.493
H 60.96 54.281 27.736
H 61.033 53.292 28.886
H 65.728 48.731 32.865
H 66.486 50.038 32.707
H 58.037 54.856 32.178
H 58.544 48.75 22.97
H 59.671 48.494 23.955
H 63.373 56.171 28.781
H 63.233 57.671 28.975
H 56.147 51.587 29.748
H 55.732 51.547 31.208
H 61.479 54.741 24.336
H 62.604 55.703 24.672
