58
xyz format
O 69.039 44.121 31.613
O 66.045 49.349 32.194
O 69.679 46.657 34.673
O 70.193 47.655 29.788
O 70.551 50.08 31.041
O 71.678 50.996 32.939
O 63.979 46.591 31.346
O 65.331 49.893 29.792
O 72.137 46.081 33.254
O 69.305 52.469 30.53
O 67.39 45.465 35.564
O 72.648 50.152 35.389
O 64.349 47.257 27.192
O 72.325 48.476 33.692
O 72.557 53.274 33.777
O 73.779 48.14 35.829
O 71.557 44.209 35.465
O 67.061 43.58 29.222
O 67.305 50.844 30.686
O 66.205 46.987 28.342
H 73.104 48.619 33.14
H 71.626 48.281 33.056
H 72.001 49.477 35.627
H 67.015 46.334 35.753
H 67.605 43.63 30.018
H 66.315 44.16 29.417
H 62.289 48.784 29.566
H 62.798 49.116 30.957
H 65.238 48.935 29.721
H 64.686 50.138 30.467
H 73.031 47.53 35.823
H 63.889 46.489 27.554
H 64.784 46.912 26.402
H 64.578 45.354 33.495
H 65.616 46.459 33.579
H 72.504 46.213 34.137
H 72.803 46.463 32.669
H 69.021 52.048 31.351
H 64.126 47.37 30.794
H 64.597 45.939 30.991
H 72.56 50.857 33.306
H 71.122 50.388 33.441
H 65.525 46.798 29.001
H 67.026 46.723 28.777
H 69.807 49.487 31.202
H 71.322 49.551 31.283
H 65.158 49.619 25.555
H 70.627 44.329 35.695
H 71.563 44.257 34.501
H 69.501 47.127 30.205
H 70.966 47.501 30.346
H 69.269 46.078 34.019
H 69.445 46.251 35.517
H 72.867 52.895 34.609
H 71.621 53.04 33.753
H 69.78 44.555 31.172
H 68.838 44.705 32.355
H 67.639 50.595 29.815
