41
xyz format
O 28.13 60.544 48.062
O 30.136 64.261 49.929
O 26.463 66.289 46.959
O 26.283 62.573 46.28
O 24.853 62.174 53.682
O 29.459 67.221 47.295
O 29.75 66.513 51.072
O 28.05 64.412 46.663
O 24.032 62.468 48.26
O 26.189 66.308 50.019
O 25.482 63.546 50.171
O 27.915 63.368 51.704
O 27.673 64.819 49.37
H 28.679 65.066 46.992
H 28.06 64.545 45.707
H 23.917 62.328 49.208
H 24.515 63.302 48.208
H 28.836 66.822 51.104
H 27.09 61.954 43.831
H 27.813 66.422 43.537
H 27.881 64.907 43.442
H 26.927 60.996 51.471
H 30.972 64.109 46.71
H 28.539 67.456 47.118
H 26.377 65.455 52.767
H 29.439 63.372 44.457
H 26.073 65.439 46.72
H 26.753 66.655 46.114
H 26.45 62.792 47.205
H 25.925 61.678 46.317
H 25.783 65.677 50.626
H 26.638 66.933 50.602
H 25.858 59.932 44.967
H 24.723 63.006 53.209
H 30.256 64.412 48.983
H 28.057 65.647 49.056
H 27.079 64.556 48.656
H 27.048 63.16 52.074
H 25.114 63.424 51.055
H 26.039 62.768 50.046
H 27.929 64.333 51.685
