326
xyz format
Na 41.179 68.089 69.505
O 48.932 74.673 45.769
O 49.082 73.724 49.746
O 36.862 74.537 51.0
O 40.58 71.96 51.324
O 41.834 69.645 59.551
O 41.949 71.846 45.23
O 43.198 71.925 49.376
O 44.78 72.802 57.887
O 49.25 73.189 64.786
O 44.544 69.498 54.368
O 50.752 72.257 50.495
O 49.587 74.158 56.85
O 37.013 71.187 63.435
O 51.937 69.553 51.704
O 51.37 72.079 54.307
O 49.158 68.118 50.586
O 44.064 70.738 47.13
O 44.98 72.035 63.862
O 50.124 71.066 62.912
O 39.239 72.091 57.694
O 57.043 72.786 59.531
O 37.736 73.589 59.468
O 39.841 71.263 61.205
O 44.923 69.41 49.975
O 38.371 70.189 48.289
O 39.659 72.374 53.94
O 46.719 72.536 55.898
O 56.736 71.876 56.756
O 41.645 65.357 60.377
O 35.516 72.018 57.872
O 42.7 66.81 51.56
O 42.36 74.43 51.431
O 44.145 66.322 55.699
O 45.392 75.422 45.818
O 49.436 65.964 51.511
O 42.549 75.651 53.252
O 54.567 68.535 53.18
O 47.457 65.997 56.091
O 36.026 71.251 53.232
O 42.154 71.945 60.486
O 40.217 74.827 57.991
O 46.985 74.753 59.777
O 42.727 71.353 65.521
O 39.046 75.707 55.203
O 40.433 75.629 51.747
O 47.555 76.079 57.71
O 36.625 68.739 52.341
O 53.628 73.72 48.648
O 48.548 71.202 59.898
O 38.248 67.756 61.842
O 47.662 68.301 55.971
O 40.987 73.689 47.57
O 51.532 69.267 56.597
O 51.35 75.601 51.898
O 37.86 65.411 53.471
O 46.604 71.79 52.932
O 52.438 69.578 54.231
O 39.761 69.231 57.438
O 48.334 69.772 54.208
O 52.317 76.433 49.131
O 45.913 75.626 50.034
O 52.982 73.85 58.814
O 42.977 69.149 57.488
O 43.83 66.339 58.582
O 49.8 68.0 55.179
O 49.537 73.242 53.011
O 43.634 67.596 53.742
O 37.313 73.439 56.155
O 34.639 70.179 56.839
O 46.061 73.681 54.138
O 52.319 76.485 54.067
O 41.672 65.82 55.48
O 47.029 71.051 63.464
O 43.588 75.185 57.835
O 44.778 74.834 55.99
O 43.63 68.584 47.013
O 39.893 67.174 52.309
O 50.798 67.973 52.906
O 40.951 70.726 63.494
O 40.938 68.178 49.511
O 43.137 74.945 48.592
O 42.982 73.392 53.7
O 46.99 75.288 48.146
O 38.92 76.07 49.131
O 49.549 69.373 47.7
O 45.886 73.601 62.148
O 43.308 73.884 60.755
O 40.191 69.018 55.291
O 51.519 74.229 62.427
O 48.587 71.379 57.705
O 44.074 77.278 46.493
O 53.114 71.179 59.877
O 49.961 72.902 59.884
O 45.492 72.766 46.761
O 50.457 68.681 61.555
O 45.407 72.069 49.331
O 38.824 72.795 48.166
O 48.96 76.541 60.738
O 44.864 75.995 53.24
O 46.644 68.847 52.456
O 51.672 68.261 59.316
O 49.831 75.433 54.553
O 34.86 72.365 55.699
O 41.049 76.021 56.058
O 49.99 77.625 54.651
O 37.832 70.091 54.695
O 41.966 73.232 56.525
O 54.32 75.359 50.973
O 43.944 71.675 52.405
O 39.716 67.168 59.899
O 46.46 73.561 50.56
O 41.787 76.941 48.916
O 53.207 72.816 52.667
O 42.354 69.544 51.287
O 35.559 67.152 51.233
O 49.013 70.417 51.058
O 44.167 77.187 57.112
O 48.954 76.999 48.202
O 46.357 78.554 52.067
O 49.688 78.273 52.177
O 43.266 77.536 50.451
O 51.262 71.473 57.669
H 49.055 72.215 57.829
H 48.913 71.058 56.855
H 45.561 71.49 48.575
H 45.131 72.903 48.929
H 50.63 78.437 52.31
H 49.668 77.595 51.491
H 50.777 67.808 61.295
H 49.644 68.789 61.046
H 43.114 77.202 46.55
H 44.309 77.8 47.27
H 46.995 77.883 51.796
H 45.776 78.085 52.679
H 45.508 74.345 62.633
H 46.532 73.232 62.763
H 47.287 75.485 47.249
H 47.197 74.352 48.255
H 39.239 75.232 49.489
H 39.003 76.682 49.872
H 54.08 72.405 52.63
H 53.147 73.149 53.571
H 53.406 70.897 59.002
H 53.801 71.796 60.16
H 50.888 72.654 59.994
H 49.908 73.776 60.29
H 49.112 69.992 48.298
H 50.217 68.951 48.254
H 46.866 70.1 63.435
H 46.968 71.265 64.403
H 36.453 73.853 56.297
H 43.173 68.226 53.175
H 49.916 72.436 52.638
H 43.064 66.817 53.729
H 39.072 67.617 59.338
H 40.221 66.626 59.28
H 44.598 71.665 51.695
H 43.106 71.532 51.947
H 54.526 76.226 51.343
H 54.016 74.851 51.735
H 43.285 75.768 58.543
H 43.135 74.352 58.015
H 53.076 76.696 49.667
H 45.375 75.335 55.421
H 51.69 76.083 49.777
H 44.189 74.387 55.368
H 35.393 70.153 56.237
H 37.26 72.62 56.663
H 52.61 75.848 54.731
H 52.176 77.295 54.572
H 45.257 73.338 53.729
H 46.608 73.942 53.387
H 41.425 66.753 55.488
H 34.24 69.305 56.745
H 35.662 72.094 55.234
H 34.194 72.408 55.001
H 39.072 68.248 61.74
H 50.252 67.172 55.383
H 49.229 67.773 54.435
H 49.962 75.332 53.602
H 48.872 75.478 54.649
H 38.445 70.545 54.104
H 49.116 77.965 54.421
H 49.972 77.581 55.615
H 37.445 70.805 55.217
H 53.795 73.528 58.405
H 52.615 74.45 58.153
H 43.404 69.298 56.635
H 45.903 76.458 50.523
H 45.186 75.72 49.407
H 43.713 68.945 58.079
H 46.761 71.459 52.039
H 48.023 68.256 56.865
H 46.725 68.488 56.111
H 46.658 70.999 53.483
H 44.214 65.47 58.411
H 41.244 73.182 48.35
H 41.093 74.607 47.849
H 51.576 73.349 62.034
H 51.441 74.816 61.665
H 45.821 75.997 53.37
H 44.707 75.207 52.706
H 45.817 68.84 51.958
H 46.798 67.916 52.657
H 50.689 74.995 51.542
H 51.895 75.04 52.463
H 48.598 73.036 53.098
H 39.384 68.564 55.019
H 40.39 69.599 54.546
H 42.713 74.57 60.428
H 43.828 73.641 59.979
H 38.851 68.923 57.532
H 52.193 69.939 56.391
H 51.852 68.481 56.136
H 40.289 68.447 57.632
H 52.552 68.636 54.056
H 51.513 69.742 54.01
H 48.784 70.064 53.405
H 48.371 70.545 54.786
H 41.434 76.781 55.604
H 41.775 75.684 56.597
H 49.267 70.565 59.803
H 48.146 70.97 60.744
H 38.644 75.024 54.652
H 39.303 76.39 54.571
H 37.934 73.095 47.945
H 38.945 73.091 49.077
H 48.204 76.604 60.141
H 49.569 75.951 60.277
H 40.659 73.98 58.129
H 39.705 74.69 57.184
H 35.828 72.175 53.035
H 42.766 71.387 60.982
H 41.695 72.447 61.171
H 35.158 70.861 53.398
H 46.184 74.781 60.315
H 47.352 73.878 59.957
H 42.841 76.003 54.102
H 42.577 76.418 52.665
H 44.669 65.966 54.97
H 44.798 66.768 56.253
H 36.207 72.143 58.535
H 34.699 72.047 58.384
H 47.056 76.759 58.18
H 37.408 69.092 52.781
H 35.931 68.824 53.007
H 46.874 75.569 57.253
H 39.772 74.94 51.603
H 40.153 76.046 52.572
H 42.071 73.541 51.674
H 43.081 74.275 50.809
H 40.362 72.142 54.559
H 39.028 72.864 54.482
H 43.903 77.183 51.085
H 42.548 77.863 51.007
H 46.731 72.001 56.702
H 46.711 73.444 56.227
H 50.96 71.054 58.485
H 51.676 72.291 57.972
H 50.935 72.474 49.572
H 50.957 71.316 50.554
H 39.47 71.074 60.334
H 40.444 70.525 61.362
H 37.664 70.582 63.059
H 48.867 73.882 56.269
H 50.36 74.163 56.272
H 37.489 72.024 63.501
H 44.35 70.178 50.093
H 45.811 69.788 49.948
H 38.722 71.277 57.657
H 39.444 72.275 56.769
H 38.579 73.954 59.171
H 37.079 74.11 58.99
H 48.318 77.346 48.84
H 43.526 75.571 47.969
H 43.363 74.083 48.222
H 43.237 72.641 54.25
H 42.115 73.644 54.043
H 40.898 68.848 48.817
H 39.806 68.132 52.396
H 40.27 67.057 51.428
H 50.13 68.548 52.511
H 51.194 67.527 52.147
H 41.185 69.8 63.634
H 39.986 70.723 63.505
H 44.581 72.354 64.681
H 44.864 70.622 46.602
H 43.353 70.702 46.479
H 44.642 71.135 63.778
H 44.888 70.363 54.624
H 45.311 68.917 54.439
H 52.024 71.688 54.9
H 50.726 72.476 54.906
H 45.608 73.496 51.01
H 47.104 73.494 51.277
H 51.909 69.275 50.78
H 48.715 68.416 49.781
H 50.077 68.005 50.313
H 43.388 77.179 56.542
H 45.34 73.587 57.941
H 44.458 72.812 56.977
H 41.193 73.543 56.038
H 42.145 72.365 56.14
H 42.762 71.265 48.823
H 42.484 72.273 49.924
H 48.192 69.965 51.288
H 48.72 71.282 50.748
H 49.18 73.57 48.798
H 49.252 74.669 49.843
H 37.264 74.264 50.165
H 36.086 75.041 50.726
H 40.053 72.667 50.93
H 40.613 71.287 50.633
H 51.13 68.268 58.517
H 52.245 69.031 59.21
H 48.499 72.678 65.115
H 40.879 69.573 59.427
H 42.129 68.727 59.59
H 50.769 70.739 62.272
H 49.499 71.566 62.373
H 44.905 77.227 56.491
H 42.106 77.715 48.437
H 41.079 77.291 49.472
H 42.202 69.789 50.365
H 41.648 68.914 51.476
