57
xyz format
Cl 36.479 47.994 74.989
O 37.593 51.641 71.486
O 33.862 45.486 72.012
O 36.147 44.891 69.357
O 35.06 50.375 70.509
O 40.079 48.43 70.027
O 41.642 47.008 74.741
O 39.373 48.924 72.787
O 34.806 44.777 73.891
O 38.212 46.403 67.42
O 38.207 46.359 70.377
O 37.603 44.812 75.428
O 34.192 44.376 67.594
O 34.367 47.331 70.925
O 37.273 44.178 72.248
O 36.54 48.667 71.704
O 35.862 42.396 70.807
O 39.178 42.533 69.52
O 40.805 46.606 71.031
O 39.608 45.092 73.903
H 38.975 41.922 70.239
H 34.254 44.527 66.643
H 34.328 43.425 67.685
H 34.518 48.284 70.928
H 35.214 46.965 70.641
H 38.016 44.0 71.659
H 36.561 44.435 71.649
H 37.01 48.214 70.993
H 36.802 49.59 71.601
H 36.796 42.5 70.588
H 35.872 42.137 71.737
H 41.473 45.916 70.939
H 40.554 46.559 71.962
H 37.644 45.571 74.833
H 37.575 44.054 74.831
H 41.151 43.114 74.273
H 37.828 46.188 71.248
H 38.62 45.52 70.138
H 38.897 46.186 68.064
H 37.403 46.427 67.946
H 36.491 43.781 67.262
H 35.545 45.027 74.459
H 34.906 43.822 73.792
H 39.676 49.677 72.265
H 35.479 41.739 68.738
H 39.262 44.317 73.444
H 40.534 45.126 73.631
H 34.602 50.689 69.719
H 35.123 51.16 71.066
H 39.189 48.794 70.116
H 35.499 44.266 69.706
H 35.615 45.505 68.835
H 35.204 49.673 67.583
H 40.742 47.164 74.431
H 38.137 51.622 70.689
H 33.089 45.481 72.59
H 34.029 44.55 71.845
