278
xyz format
Cl 37.891 57.32 40.296
O 32.315 48.439 42.319
O 40.731 52.618 34.97
O 44.321 54.657 34.68
O 37.31 55.407 44.233
O 35.102 57.256 39.707
O 46.388 51.236 36.999
O 44.069 47.956 40.226
O 36.513 45.187 44.505
O 32.992 43.017 44.145
O 38.103 49.843 35.277
O 39.125 47.015 42.626
O 40.704 45.48 41.823
O 35.319 59.972 44.317
O 37.686 50.475 43.12
O 42.43 47.909 31.602
O 39.744 43.129 35.642
O 34.655 55.46 41.57
O 42.585 54.301 45.253
O 41.486 47.874 38.301
O 38.138 55.175 35.939
O 36.562 56.608 42.523
O 43.042 51.639 34.407
O 40.121 46.21 33.33
O 44.906 45.19 40.024
O 37.529 49.065 38.5
O 37.765 58.814 36.107
O 44.064 46.383 37.315
O 38.888 55.233 33.869
O 39.922 59.249 36.609
O 31.906 45.28 42.71
O 36.796 42.031 38.817
O 41.102 44.437 46.925
O 44.1 51.001 41.247
O 35.632 49.123 47.64
O 38.257 56.669 38.227
O 39.259 47.395 39.757
O 38.444 52.753 37.304
O 34.273 53.97 43.81
O 39.885 48.691 45.835
O 33.535 52.256 39.381
O 35.824 41.369 40.858
O 40.999 51.611 41.83
O 39.313 55.61 40.56
O 35.544 51.339 36.206
O 37.699 46.1 35.331
O 38.456 59.041 42.329
O 37.461 39.923 40.593
O 34.51 56.651 43.926
O 44.009 50.923 36.672
O 37.299 43.243 42.414
O 45.55 48.223 36.763
O 40.844 53.566 39.733
O 36.119 44.928 36.341
O 41.645 58.397 35.001
O 34.138 58.556 42.15
O 39.21 42.905 38.977
O 32.503 58.575 43.62
O 41.817 51.745 38.294
O 34.155 46.117 42.69
O 35.262 46.446 39.261
O 46.152 50.531 39.628
O 42.701 49.659 39.971
O 40.522 49.641 34.139
O 35.005 49.085 37.852
O 40.971 57.859 43.256
O 42.512 53.63 32.996
O 36.748 52.714 41.824
O 35.084 50.509 42.688
O 38.651 51.289 39.796
O 36.645 48.305 43.311
O 36.793 49.098 45.475
O 44.61 53.731 37.393
O 42.782 48.568 35.436
O 33.992 46.27 44.88
O 42.318 43.768 39.839
O 39.437 48.317 37.332
O 44.274 54.36 40.268
O 34.455 48.584 40.111
O 35.683 53.865 36.088
O 40.893 52.177 32.284
O 39.714 45.591 37.707
O 38.247 52.869 34.141
O 39.694 54.139 43.373
O 36.593 54.58 39.25
O 43.503 48.732 33.362
O 39.632 44.887 44.418
O 40.747 56.994 36.653
O 42.88 56.96 38.906
O 41.906 55.174 37.849
O 41.538 55.31 35.458
H 42.374 54.575 33.138
H 43.136 53.597 32.26
H 45.048 48.34 37.579
H 43.44 48.212 36.047
H 35.617 48.865 37.139
H 42.121 48.964 36.017
H 35.202 49.066 40.488
H 46.467 46.824 39.909
H 36.269 47.645 43.907
H 36.538 47.911 42.436
H 36.832 50.024 45.744
H 37.222 48.629 46.202
H 34.345 49.644 37.423
H 43.948 53.904 36.713
H 42.069 57.933 34.268
H 36.39 53.579 42.062
H 37.507 52.611 42.412
H 36.773 44.779 37.036
H 40.794 54.002 40.593
H 40.216 52.837 39.808
H 35.287 44.655 36.748
H 41.636 58.138 42.614
H 40.322 57.384 42.722
H 39.815 45.266 38.61
H 38.52 52.583 35.021
H 37.317 52.615 34.095
H 41.953 49.751 39.367
H 43.461 49.921 39.436
H 40.562 45.387 37.293
H 34.553 59.319 41.729
H 33.376 58.37 41.586
H 36.522 53.39 36.051
H 38.767 43.563 39.528
H 39.508 42.24 39.61
H 35.297 53.585 36.928
H 32.913 59.165 44.265
H 32.052 57.918 44.164
H 34.266 47.904 40.769
H 39.102 50.545 40.213
H 38.361 51.829 40.541
H 40.592 49.548 33.18
H 41.418 43.889 39.513
H 40.166 50.531 34.257
H 44.063 54.573 39.351
H 42.317 44.227 40.689
H 44.066 51.599 37.359
H 43.79 50.119 37.158
H 38.592 57.548 38.012
H 38.314 45.529 34.853
H 37.9 46.983 34.997
H 44.382 51.166 44.406
H 36.041 50.848 35.541
H 35.974 51.099 37.037
H 34.927 41.595 40.585
H 35.76 41.296 41.819
H 33.029 53.051 39.173
H 34.396 52.596 39.651
H 41.502 52.427 41.945
H 41.274 51.293 40.961
H 38.79 55.404 41.345
H 40.063 56.108 40.908
H 34.068 57.148 44.626
H 35.331 56.355 44.339
H 37.993 40.728 40.55
H 37.515 39.564 39.699
H 37.977 59.406 43.083
H 39.37 59.31 42.486
H 37.376 56.657 37.833
H 38.574 49.718 47.793
H 40.887 43.115 37.523
H 39.338 48.034 46.283
H 39.255 49.372 45.57
H 34.384 49.993 43.107
H 44.184 48.935 32.71
H 43.574 47.776 33.478
H 34.825 51.424 42.853
H 36.041 55.127 38.677
H 37.486 54.727 38.917
H 46.38 51.88 41.561
H 36.608 43.547 41.813
H 38.017 43.873 42.274
H 40.914 45.368 47.099
H 37.563 41.513 38.54
H 36.214 42.008 38.047
H 44.231 50.214 41.791
H 44.051 51.719 41.891
H 39.267 52.932 37.776
H 37.986 52.122 37.873
H 39.144 48.31 40.041
H 38.731 46.891 40.388
H 34.212 53.534 42.951
H 35.063 53.582 44.208
H 45.026 44.381 36.62
H 40.84 59.325 36.897
H 39.416 59.548 37.375
H 43.209 45.993 37.536
H 32.197 44.528 42.179
H 31.543 45.893 42.059
H 44.588 46.257 38.115
H 38.742 56.172 34.038
H 34.526 45.642 45.381
H 39.534 55.227 33.152
H 33.607 46.837 45.56
H 40.719 57.242 37.586
H 39.906 56.54 36.512
H 39.644 47.048 33.379
H 40.388 46.045 34.243
H 44.228 45.319 40.699
H 39.171 47.393 43.513
H 38.823 46.111 42.777
H 43.98 51.416 34.346
H 43.035 52.461 34.913
H 37.228 48.209 38.831
H 37.272 49.683 39.196
H 37.698 57.855 36.023
H 37.319 59.003 36.942
H 37.382 57.109 42.426
H 34.15 55.908 46.928
H 36.771 55.75 42.134
H 32.856 56.171 46.178
H 38.278 54.904 36.854
H 37.243 55.536 35.941
H 42.502 57.796 39.208
H 34.119 56.251 41.707
H 41.665 47.196 38.965
H 41.504 47.388 37.467
H 34.038 54.83 41.178
H 42.952 56.437 39.714
H 41.695 54.027 45.505
H 42.601 55.244 45.458
H 41.66 48.426 31.336
H 42.247 47.028 31.253
H 45.623 48.395 34.301
H 38.645 50.485 43.011
H 37.363 50.122 42.282
H 43.827 56.179 37.077
H 40.167 44.955 41.216
H 35.146 59.025 44.252
H 41.111 46.144 41.254
H 38.911 42.775 35.306
H 46.134 50.344 36.732
H 45.998 51.799 36.318
H 41.436 52.402 31.518
H 41.432 51.539 32.768
H 32.378 43.756 44.233
H 39.857 53.006 46.695
H 37.986 50.495 34.576
H 35.408 58.17 39.65
H 36.576 55.605 46.475
H 35.755 56.831 40.277
H 38.507 49.091 34.826
H 39.934 48.998 36.863
H 39.442 47.568 36.722
H 39.367 42.053 45.361
H 41.357 55.401 38.61
H 34.754 46.979 38.636
H 35.713 45.803 38.7
H 34.492 47.018 42.771
H 42.277 54.314 38.083
H 34.487 45.824 41.832
H 45.674 51.261 39.216
H 42.413 55.717 35.434
H 41.126 55.604 34.636
H 41.939 52.151 37.427
H 40.94 51.344 38.238
H 36.474 45.478 43.586
H 37.459 45.155 44.695
H 37.245 57.336 45.292
H 43.377 47.337 40.489
H 44.676 47.954 40.977
H 32.868 50.839 44.537
H 37.034 42.604 46.121
H 38.188 55.77 44.06
H 39.709 53.245 43.009
H 39.629 53.997 44.326
H 37.477 54.469 44.391
H 39.922 44.245 45.078
H 39.585 45.716 44.91
H 32.411 47.711 42.946
H 40.482 53.25 34.284
H 41.058 53.175 35.688
H 37.891 61.58 43.406
H 31.939 48.018 41.536
H 34.284 40.677 43.327
H 44.425 53.932 34.052
H 44.181 55.429 34.118
H 45.475 52.387 32.081
