274
xyz format
Na 35.533 36.977 44.303
O 32.33 43.493 36.27
O 45.733 48.509 31.953
O 37.519 46.932 31.979
O 39.522 44.361 34.858
O 37.603 54.09 36.874
O 43.128 47.633 32.968
O 42.098 48.166 37.965
O 38.829 49.07 31.297
O 36.801 54.519 43.989
O 34.33 47.058 35.839
O 31.442 49.918 38.638
O 35.8 40.266 38.185
O 37.77 49.323 42.741
O 37.329 43.272 36.635
O 36.087 52.32 37.839
O 33.267 49.089 41.3
O 38.961 38.536 35.998
O 37.747 40.213 34.957
O 33.548 46.777 43.633
O 37.008 46.736 44.303
O 41.465 50.784 30.986
O 42.509 44.712 31.816
O 38.688 48.38 45.352
O 40.644 44.475 37.494
O 35.692 41.76 34.177
O 37.155 38.97 40.989
O 36.678 46.875 40.602
O 36.405 46.299 37.519
O 35.244 44.44 37.319
O 44.389 40.113 42.537
O 44.636 45.743 30.719
O 44.369 38.201 36.674
O 35.934 45.985 42.469
O 43.966 42.991 35.457
O 39.199 39.015 43.964
O 47.559 41.166 41.228
O 44.16 44.06 38.098
O 42.857 41.054 38.169
O 32.668 41.843 39.067
O 34.092 44.254 44.32
O 45.549 38.002 39.053
O 45.985 42.402 42.479
O 41.846 41.941 31.692
O 40.196 51.677 39.231
O 40.838 40.131 41.614
O 40.324 42.635 36.016
O 33.894 43.538 40.384
O 38.604 51.744 41.346
O 38.638 48.827 37.901
O 36.566 48.865 45.684
O 38.251 41.413 37.661
O 39.528 47.063 40.557
O 41.28 38.824 37.499
O 41.037 47.328 30.485
O 39.748 54.056 36.206
O 36.516 44.034 34.174
O 36.904 54.586 41.793
O 44.581 47.833 40.163
O 42.205 43.697 34.264
O 46.137 41.844 36.528
O 46.113 50.098 34.367
O 38.04 44.595 39.198
O 35.034 50.578 40.027
O 42.39 45.371 38.656
O 45.346 46.34 35.392
O 38.589 51.006 35.766
O 47.657 43.455 34.18
O 39.52 41.949 40.861
O 45.069 46.488 38.492
O 38.559 49.318 40.297
O 40.534 50.018 36.069
O 38.189 41.608 43.127
O 38.686 49.873 33.379
O 34.463 48.203 38.824
O 44.661 39.923 34.84
O 40.346 41.032 38.222
O 35.203 50.261 44.664
O 35.964 42.155 43.105
O 40.099 40.717 33.761
O 41.215 52.032 41.657
O 36.251 49.122 35.91
O 46.292 38.488 41.071
O 38.862 54.0 40.963
O 41.915 43.483 39.942
O 35.656 48.968 42.243
O 39.247 47.14 34.961
O 41.935 47.489 35.878
O 44.806 43.652 32.61
O 46.084 44.182 40.467
O 42.65 40.602 34.256
O 34.483 52.707 40.128
O 32.8 48.774 45.137
O 41.942 55.608 42.03
O 32.19 51.182 42.566
O 33.689 45.502 38.67
O 40.71 45.32 41.849
O 42.973 49.986 33.639
O 33.872 50.523 36.959
O 38.523 46.114 42.817
O 37.774 43.969 44.9
O 41.843 53.022 34.695
O 36.483 51.152 35.074
O 42.779 49.169 40.93
O 44.328 40.414 39.675
H 35.943 50.747 44.28
H 34.426 50.687 44.28
H 35.896 43.002 42.648
H 38.939 44.363 39.461
H 37.713 43.796 38.768
H 40.624 38.31 37.986
H 42.116 38.58 37.913
H 37.947 49.704 33.977
H 39.427 50.044 33.974
H 33.815 47.679 38.335
H 35.196 48.297 38.203
H 40.529 41.777 38.809
H 40.191 40.296 38.827
H 44.658 40.253 35.747
H 41.722 52.163 35.118
H 38.848 51.921 42.263
H 37.64 51.705 41.368
H 43.141 50.784 34.155
H 43.441 50.145 32.81
H 38.213 40.449 37.7
H 37.475 41.694 38.161
H 46.345 42.774 36.374
H 39.907 46.938 39.678
H 40.031 47.803 40.92
H 45.915 49.214 34.7
H 44.206 46.609 38.076
H 45.694 46.632 37.771
H 38.719 41.813 40.338
H 39.548 42.905 40.992
H 47.284 44.243 34.593
H 38.769 47.408 35.757
H 45.621 41.857 37.343
H 41.758 46.071 38.864
H 42.969 45.348 39.428
H 39.152 47.897 34.371
H 45.204 47.131 34.858
H 44.993 45.627 34.845
H 45.908 37.144 38.796
H 45.783 38.58 38.316
H 43.073 41.431 34.0
H 45.014 43.04 31.893
H 44.538 43.074 33.335
H 42.361 41.65 37.594
H 43.325 40.478 37.552
H 40.204 53.212 36.315
H 41.826 49.069 41.047
H 42.932 50.109 41.083
H 40.903 47.07 31.405
H 41.992 47.256 30.363
H 33.936 43.348 44.025
H 34.805 44.562 43.748
H 35.723 44.247 34.681
H 36.182 43.88 33.281
H 36.685 53.646 41.78
H 45.332 48.37 40.446
H 44.185 48.349 39.45
H 39.43 54.596 41.467
H 38.871 54.372 40.072
H 40.574 41.721 35.834
H 39.373 42.586 36.174
H 35.973 50.796 39.986
H 34.759 50.573 39.101
H 41.967 43.302 33.416
H 37.751 49.496 39.8
H 39.244 49.774 39.792
H 46.625 43.114 42.361
H 45.388 42.503 41.727
H 42.759 41.648 31.801
H 41.511 41.387 30.976
H 38.163 42.44 42.638
H 37.725 40.989 42.55
H 41.289 49.984 35.468
H 40.647 50.856 36.534
H 42.733 44.467 34.018
H 34.579 43.721 41.039
H 36.89 48.524 35.503
H 35.499 49.101 35.305
H 41.197 40.45 40.777
H 39.943 39.851 41.387
H 42.06 52.126 41.201
H 40.625 52.623 41.173
H 39.583 48.933 37.734
H 38.565 47.928 38.243
H 40.996 51.149 39.344
H 40.296 52.06 38.351
H 36.011 48.132 45.979
H 36.863 49.273 46.506
H 47.067 40.7 40.539
H 48.015 41.868 40.748
H 44.514 39.593 43.341
H 43.849 40.859 42.828
H 45.582 44.88 40.028
H 46.889 44.628 40.759
H 44.529 37.28 36.916
H 35.176 46.504 42.173
H 35.947 45.232 41.865
H 41.049 47.835 36.039
H 41.792 46.543 35.751
H 43.853 42.287 36.108
H 45.04 44.041 37.703
H 43.932 43.127 38.195
H 43.706 43.789 35.935
H 36.273 47.394 39.895
H 37.444 46.469 40.178
H 36.187 51.834 35.69
H 44.533 46.048 31.63
H 34.913 43.577 37.04
H 34.736 45.064 36.786
H 37.092 45.621 37.498
H 36.845 47.081 37.164
H 36.929 51.651 34.378
H 37.426 39.846 40.688
H 44.777 39.932 40.379
H 43.923 41.163 40.131
H 35.667 41.239 34.99
H 36.634 41.845 33.988
H 39.768 44.549 37.095
H 41.243 44.502 36.738
H 38.842 47.977 46.215
H 39.529 48.807 45.145
H 41.867 45.079 31.196
H 43.002 44.074 31.285
H 39.211 38.641 43.074
H 33.205 45.976 43.217
H 33.945 46.458 44.453
H 37.62 46.484 45.005
H 36.154 46.412 44.615
H 35.128 48.58 42.952
H 35.235 49.822 42.084
H 41.733 42.664 40.42
H 41.048 43.756 39.617
H 37.878 50.175 43.182
H 37.559 48.716 43.462
H 33.753 47.768 35.531
H 34.964 46.949 35.119
H 38.388 40.667 35.518
H 37.176 39.754 35.585
H 38.122 46.88 42.387
H 38.07 45.362 42.417
H 36.193 52.631 38.747
H 36.555 51.476 37.83
H 33.873 45.615 39.611
H 32.736 45.639 38.605
H 38.538 51.621 36.509
H 38.182 50.2 36.107
H 33.673 48.672 44.737
H 34.705 52.812 41.061
H 33.615 52.284 40.144
H 32.977 51.359 42.036
H 36.036 39.422 37.781
H 35.35 40.742 37.476
H 37.16 42.566 35.999
H 37.606 44.015 36.085
H 42.982 48.102 32.137
H 42.252 47.607 33.373
H 39.076 45.038 34.334
H 39.977 43.824 34.197
H 41.849 48.299 38.888
H 42.788 48.825 37.817
H 45.757 38.264 41.843
H 46.887 37.733 40.978
H 37.605 53.575 36.058
H 37.299 44.178 44.086
H 33.096 49.687 40.562
H 33.879 48.44 40.931
H 32.673 44.382 36.425
H 39.952 45.044 41.319
H 41.459 45.215 41.249
H 38.322 47.216 32.434
