268
xyz format
Cl 64.214 44.247 60.337
O 68.359 43.086 54.523
O 69.063 34.281 57.54
O 61.976 45.353 59.134
O 67.744 46.953 58.777
O 63.448 36.398 59.761
O 69.456 35.353 54.513
O 64.14 35.152 56.3
O 64.694 41.658 68.189
O 67.252 43.596 62.101
O 68.357 48.068 68.253
O 65.989 41.157 61.39
O 63.124 43.232 58.701
O 64.93 40.913 70.963
O 62.014 41.787 56.626
O 72.978 36.736 54.334
O 70.4 48.793 66.636
O 66.688 44.048 59.049
O 69.345 41.933 58.581
O 69.07 44.581 57.195
O 67.902 36.888 68.453
O 69.271 43.885 67.427
O 65.216 34.181 61.503
O 74.228 38.59 56.528
O 64.067 41.072 56.855
O 67.157 36.481 56.673
O 63.951 44.895 67.329
O 63.183 34.26 59.274
O 64.053 41.016 60.357
O 68.805 38.811 66.129
O 65.57 48.977 59.756
O 67.853 48.054 64.624
O 69.19 46.171 62.472
O 65.077 35.392 65.902
O 65.474 34.816 58.02
O 64.232 40.062 62.331
O 68.861 31.524 60.829
O 64.688 38.506 65.185
O 67.303 47.911 62.304
O 68.392 41.272 55.898
O 66.915 40.92 53.767
O 63.251 35.457 62.214
O 65.078 46.072 59.477
O 65.478 33.409 63.918
O 63.169 46.44 57.641
O 65.903 43.125 57.056
O 71.021 36.693 56.206
O 62.869 34.55 68.12
O 63.009 38.757 59.777
O 63.218 39.463 67.738
O 65.797 38.013 67.021
O 62.748 38.229 57.524
O 64.287 33.038 66.929
O 65.009 47.781 61.968
O 70.629 47.112 60.062
O 68.528 33.361 62.826
O 69.278 44.19 61.184
O 73.282 46.667 61.207
O 67.38 33.776 65.297
O 70.635 47.366 69.373
O 68.2 38.386 55.036
O 62.853 44.146 62.449
O 69.972 37.71 59.081
O 65.635 38.831 58.909
O 69.376 38.541 61.65
O 62.059 41.298 64.773
O 71.486 42.916 64.245
O 65.934 43.22 65.333
O 70.441 37.551 65.37
O 70.712 46.232 66.163
O 72.326 45.152 63.78
O 67.589 36.583 63.648
O 72.054 48.658 62.695
O 70.71 33.893 59.118
O 70.68 38.392 52.51
O 68.013 40.036 68.603
O 68.165 45.241 64.78
O 67.142 37.872 60.19
O 67.26 41.036 63.534
O 71.309 40.347 64.498
O 71.313 39.745 56.801
O 62.493 38.106 65.071
O 66.34 45.882 66.399
O 69.778 41.124 54.197
O 65.466 38.983 56.324
O 69.844 42.63 69.617
O 66.154 41.001 58.781
O 69.148 41.817 65.804
O 72.055 41.22 54.258
O 61.593 43.859 64.625
O 74.722 40.866 57.304
O 71.877 38.432 62.4
O 69.443 41.708 62.433
O 71.725 44.324 58.455
O 61.613 40.045 58.66
O 61.245 42.632 60.381
O 67.151 35.459 61.34
O 68.231 39.781 60.081
O 62.973 37.804 62.188
H 67.801 35.242 60.661
H 66.44 35.89 60.849
H 68.5 40.288 69.398
H 67.124 39.848 68.929
H 60.73 39.916 58.291
H 61.585 40.943 59.014
H 68.941 44.92 64.304
H 67.5 45.351 64.088
H 67.956 37.376 60.038
H 67.142 38.026 61.143
H 67.528 40.222 63.98
H 67.032 41.63 64.259
H 69.868 42.483 62.819
H 68.977 42.06 61.665
H 72.683 45.983 63.443
H 72.668 44.49 63.166
H 71.286 47.229 68.673
H 72.002 40.262 54.152
H 72.397 42.727 64.499
H 71.885 41.559 53.37
H 68.211 33.381 65.003
H 66.866 33.021 65.611
H 71.523 46.318 66.68
H 70.014 46.454 66.792
H 62.491 41.306 63.91
H 66.208 43.663 66.146
H 65.896 43.935 64.685
H 71.211 43.6 64.869
H 66.036 38.947 67.084
H 65.612 37.761 67.934
H 71.084 37.049 64.854
H 70.878 38.398 65.521
H 65.356 37.907 58.872
H 66.427 38.853 58.359
H 64.729 33.228 66.092
H 63.387 32.807 66.666
H 68.781 44.707 60.538
H 69.954 43.749 60.654
H 73.689 46.942 60.376
H 74.013 46.688 61.838
H 62.918 44.977 61.962
H 69.263 40.928 65.446
H 69.381 42.393 65.064
H 62.733 43.484 61.756
H 69.896 38.627 58.79
H 70.826 37.429 58.729
H 68.049 38.49 54.088
H 69.145 38.198 55.098
H 67.096 47.097 62.78
H 63.603 38.591 67.585
H 63.649 40.022 67.079
H 67.914 40.443 55.771
H 68.136 41.55 56.786
H 67.794 33.551 62.229
H 69.264 33.171 62.231
H 69.731 47.321 60.346
H 66.278 40.981 57.824
H 66.063 41.941 58.98
H 65.453 47.239 61.304
H 67.722 40.549 53.388
H 71.921 48.044 63.428
H 69.81 40.183 53.986
H 69.685 41.55 53.336
H 65.474 46.27 66.221
H 66.451 45.995 67.351
H 68.243 36.054 63.174
H 67.643 37.448 63.223
H 70.606 38.201 53.454
H 65.563 46.251 58.662
H 63.801 38.548 60.288
H 62.36 39.0 60.448
H 65.748 42.647 56.232
H 66.58 43.772 56.822
H 66.299 40.936 53.024
H 62.868 46.052 56.809
H 63.819 47.098 57.365
H 70.246 37.075 56.637
H 71.07 37.164 55.364
H 70.811 40.434 63.675
H 72.218 40.538 64.237
H 66.157 32.849 63.522
H 64.693 32.847 63.925
H 64.364 46.721 59.467
H 70.009 37.862 61.387
H 65.82 35.647 58.367
H 66.242 34.232 58.012
H 64.415 40.618 63.098
H 63.268 40.013 62.308
H 68.302 30.777 61.076
H 68.33 32.003 60.181
H 64.305 39.34 64.884
H 64.798 37.997 64.373
H 64.469 44.706 68.121
H 68.458 38.555 65.265
H 68.113 39.374 66.497
H 61.546 48.383 58.805
H 67.538 47.394 65.254
H 65.953 48.365 59.116
H 67.575 48.893 65.012
H 63.566 41.816 60.591
H 63.741 40.81 59.467
H 72.177 39.464 57.124
H 71.219 39.28 55.96
H 63.466 34.666 55.807
H 64.202 35.994 55.833
H 64.235 41.736 57.535
H 63.989 40.248 57.353
H 66.54 37.169 56.951
H 62.859 37.326 65.507
H 75.165 38.59 56.759
H 73.847 37.926 57.115
H 64.674 33.441 61.807
H 65.18 34.112 60.541
H 69.004 40.286 60.364
H 68.176 39.958 59.134
H 62.598 37.411 62.985
H 63.922 37.815 62.362
H 68.607 44.393 67.91
H 69.038 44.024 66.501
H 68.181 37.585 67.846
H 67.299 36.35 67.923
H 64.79 36.308 65.999
H 65.94 35.375 66.335
H 70.082 45.803 62.448
H 69.276 46.943 63.044
H 68.619 42.112 59.192
H 70.098 41.765 59.163
H 69.756 45.122 57.605
H 68.649 45.181 56.567
H 65.847 39.687 55.784
H 64.728 38.66 55.792
H 66.712 44.1 60.013
H 67.62 44.032 58.797
H 69.153 42.353 69.002
H 69.837 43.593 69.55
H 69.786 48.632 65.909
H 71.269 48.662 66.237
H 69.443 38.556 62.613
H 61.722 41.195 55.921
H 62.471 42.496 56.155
H 72.733 35.864 54.668
H 72.363 36.884 53.605
H 63.435 43.753 57.95
H 62.213 43.013 58.466
H 66.744 44.403 62.254
H 67.903 43.597 62.815
H 61.446 44.633 64.068
H 65.888 41.873 62.03
H 66.922 41.197 61.147
H 72.193 38.37 61.489
H 72.516 37.908 62.9
H 68.888 35.479 55.284
H 69.507 36.233 54.119
H 63.401 36.427 58.797
H 64.334 36.058 59.937
H 65.334 40.935 68.214
H 65.191 42.391 67.803
H 69.773 34.854 57.225
H 68.312 34.879 57.64
H 61.635 44.706 59.763
H 61.547 45.113 58.303
H 60.365 42.471 60.02
H 61.384 41.892 60.986
H 68.338 43.926 54.048
H 67.497 43.045 54.956
H 71.825 44.999 59.138
H 71.303 43.589 58.918
H 67.656 46.175 59.341
H 68.618 46.852 58.38
