247
xyz format
O 48.289 54.675 60.198
O 55.752 53.306 41.348
O 54.453 56.755 39.842
O 43.898 59.337 44.775
O 52.703 53.557 40.845
O 59.294 51.231 58.69
O 47.823 59.757 44.75
O 46.216 56.588 52.637
O 57.069 50.944 47.434
O 45.985 42.402 42.479
O 57.548 52.303 44.476
O 57.603 48.38 59.05
O 52.748 42.888 50.036
O 45.512 56.47 48.907
O 56.784 47.336 45.397
O 57.528 54.975 41.331
O 47.703 59.154 48.739
O 54.797 52.536 60.356
O 46.846 56.204 46.256
O 53.856 44.755 52.084
O 51.325 55.259 43.721
O 54.861 45.758 49.41
O 46.363 47.688 49.017
O 45.625 57.874 45.407
O 58.58 48.821 49.111
O 58.316 54.111 48.936
O 56.998 55.032 44.209
O 54.216 54.975 43.071
O 46.084 44.182 40.467
O 57.6 42.914 50.605
O 59.887 50.759 47.083
O 49.132 50.328 60.552
O 48.062 49.495 54.971
O 51.909 51.365 55.163
O 50.686 49.697 48.558
O 49.172 45.68 46.848
O 53.301 46.819 47.257
O 53.93 51.905 51.539
O 48.851 49.071 45.41
O 50.19 53.992 53.244
O 49.286 50.822 51.315
N 51.782 48.251 46.32
N 52.353 53.934 53.978
N 47.582 49.311 51.473
N 47.255 47.449 45.656
N 48.411 51.553 54.037
N 50.479 46.045 45.037
N 51.761 52.453 51.079
N 47.749 49.355 48.296
N 52.84 50.036 49.228
N 50.123 52.271 56.216
N 54.45 50.646 53.996
N 47.151 45.013 48.815
C 48.588 50.626 55.037
C 48.957 45.954 50.29
C 44.622 43.983 46.852
C 52.791 51.562 51.129
C 51.898 49.739 48.263
C 49.365 53.325 56.879
C 51.406 53.938 52.972
C 49.254 46.025 45.639
C 45.26 44.81 45.927
C 50.386 53.922 48.435
C 56.677 51.811 56.155
C 48.16 48.371 50.547
C 49.413 50.996 56.292
C 48.154 46.94 51.113
C 52.893 51.882 46.466
C 48.427 51.155 57.474
C 46.527 44.474 45.431
C 48.124 52.651 57.501
C 51.942 53.806 55.355
C 51.302 56.212 48.639
C 47.032 52.668 52.302
C 46.467 52.748 44.96
C 45.238 42.808 47.286
C 47.799 48.687 45.956
C 52.571 50.405 44.506
C 54.053 49.22 53.886
C 47.138 43.291 45.869
C 55.642 51.408 57.001
C 54.453 52.135 57.049
C 51.714 45.782 45.77
C 46.353 51.272 45.295
C 55.33 53.677 55.408
C 47.358 48.43 49.217
C 52.916 48.985 52.897
C 47.997 46.502 44.861
C 48.149 44.729 49.876
C 51.361 54.801 49.194
C 50.756 46.292 43.628
C 47.511 51.339 52.935
C 53.052 54.098 56.375
C 47.076 49.542 47.028
C 52.735 45.346 44.69
C 48.205 50.485 51.84
C 53.356 49.113 51.453
C 51.331 52.398 55.595
C 47.085 51.016 46.603
C 52.312 46.996 46.517
C 46.197 52.397 51.069
C 52.523 50.115 50.631
C 51.894 53.827 51.502
C 52.271 46.074 43.432
C 46.498 42.464 46.792
C 44.896 50.866 45.352
C 51.055 54.819 50.684
C 52.145 50.677 45.935
C 54.285 53.274 56.25
C 52.412 49.441 46.828
C 56.517 52.946 55.359
C 46.223 53.463 53.307
C 47.172 45.301 44.376
H 51.685 56.05 43.3
H 51.284 54.616 43.003
H 57.346 53.289 54.718
H 46.634 44.163 48.564
H 55.216 50.759 54.669
H 53.18 45.103 52.679
H 54.537 44.422 52.681
H 52.985 54.119 51.425
H 49.343 54.303 48.555
H 47.62 45.375 47.967
H 60.765 50.376 47.203
H 59.906 51.096 46.178
H 50.641 53.926 47.347
H 48.931 50.837 58.421
H 47.517 50.526 57.331
H 51.127 54.581 55.525
H 49.811 45.563 50.91
H 52.605 53.958 57.397
H 50.294 56.66 48.817
H 47.593 44.314 50.765
H 53.529 49.255 46.86
H 47.347 59.094 47.843
H 47.936 53.024 58.534
H 50.906 48.382 45.863
H 53.648 51.217 54.314
H 51.278 55.837 51.105
H 55.236 54.601 54.815
H 49.964 54.621 50.859
H 50.145 50.156 56.452
H 49.06 54.111 56.133
H 51.494 56.201 47.539
H 55.476 46.177 50.024
H 54.223 45.319 49.988
H 57.63 51.259 56.147
H 50.852 52.155 50.786
H 53.315 53.824 53.762
H 45.417 57.425 49.012
H 44.606 56.163 48.773
H 57.151 48.004 45.988
H 49.998 53.803 57.675
H 53.652 51.827 57.739
H 46.373 45.688 43.682
H 52.533 52.166 47.484
H 47.091 46.597 51.226
H 53.777 45.608 44.989
H 50.467 47.345 43.355
H 52.479 45.488 42.506
H 52.675 44.237 44.551
H 46.49 45.733 49.144
H 53.728 48.878 54.911
H 50.166 45.575 42.994
H 44.715 42.134 47.983
H 44.74 45.706 45.551
H 43.611 44.238 47.21
H 46.97 41.517 47.098
H 51.541 44.983 46.545
H 48.118 42.997 45.462
H 55.778 50.537 57.663
H 53.507 43.174 50.56
H 53.14 42.61 49.199
H 48.851 43.939 49.48
H 54.748 50.997 53.073
H 46.003 49.2 47.141
H 46.609 51.625 47.418
H 48.577 49.893 48.452
H 47.86 44.657 43.762
H 46.625 43.114 42.361
H 49.235 48.678 50.337
H 46.759 49.024 51.951
H 51.419 49.877 50.77
H 52.788 47.064 43.347
H 48.594 46.979 52.149
H 47.22 52.871 56.877
H 52.402 54.402 49.034
H 54.965 48.635 53.574
H 52.07 56.86 49.126
H 55.425 53.208 60.649
H 54.943 51.804 60.97
H 50.418 52.866 48.792
H 53.331 55.185 56.28
H 46.863 50.678 44.484
H 45.461 57.822 44.457
H 46.027 58.744 45.522
H 44.793 49.761 45.467
H 48.15 51.357 46.487
H 46.034 56.171 46.776
H 47.543 56.256 46.922
H 47.539 53.054 44.901
H 44.378 51.365 46.206
H 44.382 51.166 44.406
H 46.605 50.784 53.329
H 53.804 50.032 48.986
H 49.412 46.442 49.385
H 54.439 49.401 51.389
H 53.259 48.104 50.963
H 48.927 52.406 54.021
H 52.442 51.33 43.891
H 57.346 49.046 58.401
H 51.955 49.598 44.042
H 51.038 50.892 45.952
H 53.991 51.68 46.508
H 53.645 50.102 44.466
H 52.726 52.754 45.787
H 45.886 54.423 52.845
H 47.941 53.268 52.003
H 45.816 53.364 50.657
H 46.803 51.894 50.278
H 46.828 53.709 54.212
H 45.319 52.89 53.627
H 45.964 53.365 45.744
H 58.232 51.655 44.266
H 52.561 47.933 53.083
H 52.051 49.664 53.13
H 45.981 52.96 43.978
H 45.319 51.753 51.316
H 48.342 47.059 43.932
H 46.477 47.113 46.174
H 57.658 43.835 50.322
H 53.716 54.235 43.438
H 53.656 55.295 42.352
H 46.838 44.605 54.319
H 56.66 50.152 47.804
H 57.307 51.463 48.213
H 57.204 55.861 43.757
H 57.525 54.376 43.735
H 58.753 51.264 59.489
H 53.073 53.784 39.983
H 51.796 53.884 40.799
H 49.091 54.498 59.69
H 57.561 53.53 49.091
H 58.583 49.756 48.871
H 54.799 56.23 40.574
H 55.118 54.032 41.3
H 55.772 52.959 40.447
