534
xyz format
O 46.962 28.622 48.728
O 42.153 30.762 30.427
O 38.146 26.099 47.255
O 43.478 37.536 32.884
O 50.445 29.022 39.465
O 48.09 32.523 34.072
O 51.588 31.083 47.566
O 41.21 27.671 39.253
O 46.433 36.815 32.932
O 55.05 29.987 34.027
O 50.95 28.337 43.547
O 42.524 34.909 32.465
O 44.262 25.013 38.412
O 42.632 28.818 37.602
O 40.733 34.076 46.972
O 43.992 24.817 43.626
O 43.409 31.841 44.157
O 56.908 25.398 37.274
O 44.202 27.859 45.228
O 39.314 31.651 33.129
O 49.76 32.907 36.399
O 45.344 31.758 35.142
O 48.262 32.311 52.325
O 40.376 33.695 31.332
O 38.584 33.255 44.327
O 52.3 31.798 35.173
O 50.454 25.739 52.124
O 51.161 26.738 42.04
O 38.204 28.946 37.059
O 53.874 28.182 34.482
O 53.805 22.386 44.661
O 55.185 25.407 42.795
O 54.066 29.649 51.982
O 46.422 21.704 45.745
O 50.584 26.564 44.804
O 50.329 31.882 38.276
O 42.071 34.804 48.565
O 44.611 31.972 38.288
O 49.805 28.0 47.394
O 39.813 27.995 42.506
O 49.429 23.459 53.394
O 39.501 27.725 48.116
O 45.521 29.325 37.697
O 36.8 31.274 41.013
O 54.953 32.002 51.887
O 50.034 26.616 50.135
O 50.25 37.275 38.303
O 49.028 39.22 42.219
O 51.808 28.999 46.82
O 51.196 35.963 47.241
O 38.696 30.883 43.229
O 48.456 35.872 42.962
O 40.657 31.601 38.058
O 56.87 35.399 44.55
O 51.599 39.451 40.276
O 38.22 29.507 49.033
O 48.445 33.465 39.636
O 49.581 27.309 55.104
O 44.88 26.431 50.601
O 52.181 38.422 42.594
O 54.054 28.79 31.82
O 41.199 31.681 43.378
O 35.931 26.726 42.591
O 50.619 24.336 39.673
O 44.369 38.201 36.674
O 43.704 34.017 44.311
O 51.48 32.473 41.063
O 55.794 25.778 50.403
O 43.206 30.56 46.823
O 43.138 32.651 34.92
O 46.728 32.307 32.048
O 50.48 34.18 45.073
O 41.94 30.858 40.636
O 40.082 27.223 36.893
O 54.612 33.24 33.528
O 39.744 33.042 36.293
O 58.427 26.082 47.382
O 45.549 38.002 39.053
O 44.487 28.948 33.124
O 40.3 36.05 40.7
O 52.194 29.312 37.925
O 35.259 30.555 38.107
O 47.795 28.967 36.092
O 52.681 27.03 38.275
O 49.573 23.219 44.03
O 58.4 34.241 47.166
O 44.366 32.637 42.188
O 54.735 36.665 40.538
O 51.711 31.118 44.052
O 47.945 32.418 44.203
O 46.199 26.648 37.132
O 40.349 33.304 41.177
O 51.875 28.909 52.896
O 39.485 34.394 34.115
O 41.111 30.817 34.847
O 42.281 26.555 37.613
O 43.707 32.264 28.121
O 43.201 34.415 36.909
O 37.159 30.547 46.724
O 44.329 29.101 35.832
O 39.064 29.864 40.771
O 41.733 31.719 49.0
O 56.956 30.53 51.335
O 38.546 26.21 42.283
O 52.252 26.546 47.882
O 54.465 34.504 47.404
O 37.781 33.021 39.052
O 51.196 29.812 33.687
O 47.999 38.989 38.43
O 41.244 23.022 47.716
O 55.123 28.446 40.186
O 47.631 28.186 41.32
O 48.537 35.954 39.136
O 55.289 33.409 42.936
O 55.036 26.209 47.893
O 46.899 27.467 43.896
O 48.488 26.398 38.366
O 51.592 21.91 48.687
O 40.877 36.138 36.382
O 58.026 32.11 37.053
O 48.973 30.032 54.848
O 49.786 37.1 44.85
O 43.763 27.608 39.38
O 43.35 36.09 35.489
O 49.626 32.68 30.746
O 42.659 32.133 32.256
O 49.115 29.342 52.206
O 42.168 23.661 50.343
O 49.399 30.812 46.976
O 49.364 22.466 47.364
O 46.553 31.436 39.232
O 49.57 30.11 35.451
O 50.742 28.711 31.832
O 43.006 29.024 43.006
O 46.485 33.445 45.564
O 49.204 29.958 42.136
O 55.014 28.877 45.193
O 53.489 32.314 44.844
O 45.493 29.707 41.248
O 53.799 31.697 38.314
O 45.389 24.214 46.521
O 56.121 33.819 37.964
O 55.254 30.614 43.803
O 56.932 33.895 50.321
O 38.868 36.834 38.438
O 52.116 26.022 34.088
O 37.144 31.56 33.516
O 53.658 34.319 37.575
O 55.6 28.51 49.681
O 47.799 36.232 36.156
O 45.917 34.532 40.466
O 54.877 29.222 37.498
O 44.234 33.826 30.943
O 36.862 29.017 39.224
O 46.292 38.488 41.071
O 52.97 23.888 49.165
O 54.949 31.345 31.683
O 45.559 27.575 42.147
O 41.868 29.168 31.976
O 45.719 26.103 47.764
O 47.465 26.388 51.066
O 54.151 34.301 35.4
O 52.134 35.937 34.778
O 41.886 32.097 51.535
O 41.964 33.859 39.435
O 44.495 36.267 46.086
O 47.533 29.619 44.772
O 48.361 21.726 49.178
O 44.259 25.477 35.909
O 56.573 27.325 45.185
O 52.751 26.909 50.263
O 55.573 31.175 47.996
O 55.208 24.706 45.187
O 46.534 29.376 53.219
O 44.76 30.019 31.222
O 50.182 27.31 36.279
O 40.981 29.046 45.828
O 34.032 28.321 40.078
O 50.61 37.205 41.65
O 46.121 34.438 36.228
O 57.955 28.652 46.267
O 49.269 31.904 40.95
O 47.02 23.857 43.015
O 41.464 36.253 46.761
O 42.198 26.308 42.487
O 57.554 27.156 41.065
O 42.5 24.114 45.083
O 50.354 29.0 50.421
O 42.477 34.855 41.362
O 42.278 26.575 47.445
O 49.208 24.979 48.276
O 37.9 29.847 35.075
O 58.877 30.145 43.394
O 55.361 32.467 39.741
O 48.103 25.227 44.433
O 46.704 23.572 48.165
H 38.315 29.075 34.672
H 38.528 30.56 34.904
H 49.946 24.844 47.668
H 48.46 25.156 47.693
H 40.265 34.53 34.667
H 45.088 24.902 45.916
H 44.671 24.144 47.164
H 44.962 30.145 40.572
H 45.849 30.437 41.769
H 53.294 33.171 44.446
H 53.085 32.371 45.719
H 50.785 28.831 49.574
H 50.552 29.928 50.597
H 57.996 26.376 41.424
H 57.504 27.758 41.817
H 51.435 32.043 44.034
H 52.404 31.073 43.382
H 49.836 30.31 46.277
H 49.249 31.678 46.577
H 42.93 26.565 41.912
H 41.424 26.369 41.914
H 48.783 32.128 43.821
H 48.55 29.733 51.527
H 49.02 28.392 52.065
H 47.797 31.798 44.928
H 46.728 33.729 35.982
H 45.992 34.926 35.406
H 56.462 34.452 37.321
H 41.653 24.371 50.746
H 42.829 24.128 49.817
H 49.625 29.38 41.488
H 49.937 30.48 42.488
H 54.472 29.544 45.633
H 54.378 28.197 44.938
H 55.764 34.377 38.667
H 55.982 32.894 42.504
H 55.441 33.255 43.877
H 57.478 31.318 37.128
H 51.446 29.172 34.365
H 52.002 29.924 33.168
H 51.9 29.349 53.754
H 51.964 27.973 53.115
H 49.718 29.823 54.27
H 48.284 30.321 54.237
H 38.043 33.896 38.739
H 48.612 38.745 37.725
H 48.572 39.346 39.119
H 40.628 23.668 48.083
H 54.206 34.766 46.511
H 54.999 33.712 47.265
H 41.62 22.595 48.497
H 43.625 28.352 39.98
H 40.409 29.397 46.522
H 42.577 35.751 35.021
H 44.083 35.898 34.891
H 41.415 28.293 46.248
H 43.927 26.863 39.972
H 43.312 31.797 32.883
H 39.438 33.066 40.963
H 41.847 32.18 32.775
H 50.011 33.116 31.516
H 48.713 32.992 30.738
H 40.27 33.791 42.007
H 41.517 36.814 36.638
H 40.701 35.665 37.204
H 50.337 36.391 44.496
H 50.347 37.882 44.781
H 47.681 27.239 41.141
H 47.224 28.549 40.523
H 48.163 36.193 39.993
H 49.338 35.466 39.363
H 46.623 25.807 37.344
H 54.463 31.721 37.613
H 53.851 30.793 38.648
H 42.134 25.621 37.417
H 43.22 26.683 37.428
H 55.181 27.783 40.886
H 54.667 31.45 48.187
H 56.093 31.973 48.154
H 55.637 29.187 40.53
H 46.325 27.176 37.929
H 56.505 26.442 44.802
H 56.844 27.877 44.441
H 43.784 25.99 35.244
H 45.168 25.469 35.585
H 48.708 23.078 47.008
H 49.919 22.256 46.603
H 41.836 30.616 41.564
H 41.885 31.822 40.643
H 51.429 26.447 47.387
H 45.288 28.504 32.819
H 43.841 28.234 33.19
H 52.933 26.28 47.251
H 46.628 33.055 31.447
H 46.819 31.548 31.458
H 52.046 35.375 35.558
H 45.908 37.144 38.796
H 47.868 21.221 49.837
H 48.961 22.267 49.706
H 53.221 33.527 37.237
H 53.57 34.239 38.533
H 42.51 33.367 35.077
H 43.318 32.305 35.803
H 51.43 34.243 44.913
H 50.133 33.812 44.251
H 40.605 30.257 34.244
H 43.372 29.737 47.298
H 42.243 30.599 46.762
H 42.029 30.606 34.639
H 38.654 25.824 41.405
H 38.707 25.469 42.881
H 44.368 31.779 28.631
H 43.098 32.596 28.793
H 56.763 30.863 50.45
H 43.968 29.666 35.138
H 44.548 28.282 35.371
H 42.765 34.868 37.641
H 44.017 34.078 37.3
H 54.129 35.009 34.744
H 55.088 34.22 35.618
H 38.105 30.629 46.896
H 48.044 29.348 43.999
H 48.046 29.282 45.516
H 40.161 28.083 36.461
H 40.292 26.595 36.191
H 55.038 33.313 32.665
H 54.25 32.346 33.53
H 39.468 30.725 40.939
H 38.761 29.929 39.857
H 42.124 32.229 48.28
H 41.082 31.16 48.557
H 39.473 33.244 37.197
H 40.704 33.139 36.314
H 50.065 29.532 36.044
H 49.215 30.79 36.038
H 50.397 23.651 44.288
H 53.633 27.164 38.352
H 52.413 26.766 39.164
H 54.06 30.99 31.808
H 49.044 23.235 44.837
H 55.064 29.792 36.742
H 55.588 29.423 38.12
H 45.676 34.913 39.613
H 45.081 34.5 40.948
H 42.375 28.644 42.383
H 43.567 29.583 42.454
H 46.951 28.519 36.232
H 48.117 29.135 36.987
H 45.219 32.518 42.623
H 44.512 32.294 41.298
H 54.859 35.859 40.022
H 46.326 31.804 40.095
H 36.131 28.451 38.947
H 47.397 30.994 39.385
H 51.065 27.81 31.709
H 49.807 28.593 32.042
H 47.079 34.097 45.955
H 46.25 32.874 46.306
H 36.763 29.066 40.183
H 54.746 31.224 43.254
H 55.881 30.217 43.185
H 40.984 35.817 40.059
H 39.633 35.362 40.583
H 48.407 36.911 36.473
H 36.066 30.631 37.581
H 34.68 30.009 37.561
H 48.01 35.464 36.701
H 51.487 28.777 37.543
H 52.441 29.91 37.208
H 52.682 24.639 49.699
H 53.595 24.276 48.54
H 52.039 32.992 41.655
H 51.703 31.559 41.281
H 48.351 33.855 40.513
H 47.635 33.725 39.18
H 44.675 26.15 49.7
H 45.33 27.276 50.48
H 48.958 26.974 54.447
H 50.311 27.654 54.574
H 44.529 37.28 36.916
H 43.517 38.174 36.221
H 50.845 25.259 39.505
H 50.049 24.377 40.451
H 44.507 36.99 46.725
H 45.287 35.758 46.3
H 42.414 33.146 38.966
H 43.373 34.339 45.159
H 44.657 33.948 44.448
H 41.065 33.833 39.083
H 35.741 26.956 43.509
H 36.647 27.326 42.348
H 56.703 33.753 49.394
H 45.827 30.939 35.308
H 45.467 31.91 34.197
H 47.61 32.601 52.975
H 48.538 33.131 51.896
H 48.764 35.235 42.304
H 47.834 36.424 42.472
H 40.855 31.383 44.23
H 41.444 32.601 43.54
H 52.677 25.942 34.869
H 51.245 25.75 34.403
H 40.892 31.151 37.237
H 40.292 30.898 38.609
H 57.267 36.254 44.34
H 56.33 35.582 45.329
H 53.543 27.982 31.682
H 55.721 28.518 48.723
H 54.867 28.635 31.323
H 56.493 28.385 50.024
H 46.602 26.488 47.83
H 56.012 32.904 40.305
H 48.352 25.421 45.345
H 48.901 25.431 43.929
H 55.369 31.552 40.048
H 38.727 31.722 42.753
H 38.17 31.083 44.013
H 51.804 35.761 46.518
H 50.389 36.242 46.791
H 52.035 28.241 46.267
H 52.585 29.114 47.381
H 50.974 36.676 38.527
H 49.97 37.626 39.157
H 47.376 26.935 51.857
H 48.144 25.746 51.306
H 37.492 31.944 40.948
H 37.149 30.647 41.659
H 49.281 26.998 49.666
H 50.587 26.26 49.429
H 45.171 26.838 47.462
H 46.319 29.406 38.233
H 44.813 29.249 38.349
H 40.126 27.17 47.635
H 39.978 27.966 48.92
H 58.959 30.146 42.432
H 58.003 29.767 43.55
H 44.711 29.438 30.452
H 44.809 30.903 30.838
H 55.935 24.57 45.808
H 54.446 24.865 45.757
H 52.085 26.787 50.951
H 42.82 34.407 48.103
H 44.739 32.725 38.878
H 44.187 31.311 38.848
H 53.584 26.932 50.751
H 46.664 30.171 52.689
H 45.901 28.858 52.706
H 49.317 28.62 47.95
H 49.275 27.194 47.43
H 55.583 26.116 42.276
H 42.989 35.331 42.027
H 42.727 33.932 41.497
H 54.574 25.868 43.383
H 42.074 26.448 48.38
H 40.048 28.067 41.572
H 40.003 28.873 42.858
H 42.27 25.679 47.085
H 49.727 26.708 35.676
H 51.112 27.217 36.038
H 50.166 37.357 42.493
H 51.447 22.684 48.129
H 49.98 36.668 41.153
H 46.66 22.61 48.098
H 46.879 23.728 49.101
H 55.412 25.324 47.808
H 55.101 26.572 47.001
H 46.155 27.987 44.224
H 47.448 27.333 44.679
H 49.217 26.637 38.952
H 48.665 25.475 38.144
H 51.929 26.603 42.61
H 50.451 26.269 42.496
H 38.317 33.166 45.25
H 39.546 33.326 44.373
H 52.696 32.675 35.088
H 51.581 31.807 34.53
H 50.762 24.828 52.212
H 38.163 28.188 37.656
H 38.248 29.704 37.655
H 40.854 33.075 30.768
H 51.059 29.7 39.774
H 50.827 28.2 39.796
H 42.373 28.589 36.701
H 41.873 29.309 37.941
H 39.546 33.842 30.861
H 44.304 31.563 44.388
H 42.913 31.718 44.976
H 44.487 33.043 30.439
H 44.538 33.631 31.838
H 42.424 36.3 46.853
H 46.897 23.468 43.89
H 51.169 30.556 48.257
H 52.053 31.773 48.054
H 46.537 23.261 42.429
H 41.426 28.37 39.883
H 41.047 26.901 39.812
H 48.533 33.204 34.594
H 47.766 31.9 34.735
H 49.562 33.672 36.953
H 50.649 33.087 36.068
H 41.888 29.995 32.474
H 41.693 28.499 32.649
H 39.104 32.258 32.408
H 39.691 32.224 33.809
H 44.5 26.951 45.37
H 43.576 28.009 45.947
H 56.319 26.154 37.392
H 45.427 26.801 41.586
H 44.704 27.692 42.582
H 46.788 22.583 45.902
H 45.627 21.876 45.225
H 51.367 28.795 42.807
H 50.529 29.046 44.049
H 41.919 24.392 44.364
H 41.89 23.833 45.776
H 54.428 30.438 34.612
H 43.124 34.662 33.181
H 41.649 34.701 32.818
H 50.576 25.762 45.341
H 53.188 27.929 33.852
H 53.428 28.137 35.337
H 50.147 27.219 45.363
H 53.311 29.605 51.382
H 51.117 32.027 38.813
H 50.344 30.933 38.097
H 41.45 31.148 29.891
H 42.883 30.651 29.805
H 49.407 31.213 40.29
H 48.355 31.774 41.229
H 47.284 28.164 49.514
H 46.002 28.599 48.826
H 41.496 34.086 46.381
H 43.544 24.899 39.046
H 45.033 25.184 38.967
H 44.221 24.388 42.793
H 57.833 29.594 46.094
H 58.808 28.453 45.863
H 44.233 25.741 43.482
