162
xyz format
O 40.835 39.486 66.723
O 45.322 43.488 68.492
O 41.066 44.348 67.211
O 35.549 49.602 66.684
O 41.814 46.814 68.166
O 36.147 44.891 69.357
O 40.079 48.43 70.027
O 46.198 44.885 70.629
O 36.086 41.205 68.209
O 44.69 45.659 69.211
O 40.764 50.231 68.466
O 40.484 46.959 63.032
O 39.373 48.924 72.787
O 43.274 49.346 66.01
O 37.448 52.083 65.074
O 36.8 43.442 66.413
O 38.212 46.403 67.42
O 44.582 51.93 66.294
O 42.721 45.412 66.232
O 42.331 51.399 63.601
O 35.24 43.816 64.776
O 42.532 51.14 70.219
O 38.207 46.359 70.377
O 39.298 50.135 64.821
O 37.791 47.788 64.487
O 45.084 44.18 65.307
O 39.839 44.713 60.639
O 36.973 43.195 62.621
O 43.497 40.364 66.479
O 35.494 46.774 64.889
O 41.008 43.753 65.09
O 44.837 41.826 64.612
O 41.55 43.194 70.5
O 45.91 45.331 62.631
O 41.46 54.421 67.434
O 42.871 48.179 72.138
O 42.267 41.582 63.243
O 44.71 49.266 68.374
O 38.109 40.259 65.886
O 46.216 45.517 66.637
O 38.245 44.847 65.382
O 39.178 42.533 69.52
O 37.94 49.073 67.089
O 37.411 49.635 61.542
O 45.674 46.127 73.378
O 41.594 51.597 66.938
O 40.748 49.866 63.123
O 40.805 46.606 71.031
O 41.943 42.159 66.751
O 44.827 51.62 69.107
O 36.398 50.531 63.789
O 46.766 48.107 66.076
O 45.983 47.686 70.461
O 48.067 45.836 64.366
O 43.75 46.683 63.049
O 40.244 46.565 66.366
H 43.362 45.812 62.898
H 43.822 46.739 64.01
H 47.389 46.445 64.046
H 41.532 41.635 62.619
H 43.049 41.635 62.68
H 43.33 47.334 72.046
H 42.494 48.331 71.263
H 38.362 42.561 69.005
H 38.975 41.922 70.239
H 46.925 47.624 66.897
H 46.174 47.529 65.58
H 41.487 54.352 66.472
H 41.024 43.678 69.851
H 41.814 42.393 70.03
H 39.113 40.616 68.188
H 38.008 44.174 64.731
H 38.236 45.669 64.876
H 34.254 44.527 66.643
H 34.328 43.425 67.685
H 45.072 41.989 65.534
H 44.086 42.412 64.459
H 40.173 43.823 64.61
H 41.581 43.269 64.482
H 42.309 42.538 67.56
H 41.1 41.785 67.034
H 44.421 44.038 65.995
H 44.869 45.054 64.958
H 43.073 53.145 68.215
H 46.901 42.986 64.827
H 42.89 52.83 65.185
H 46.648 45.261 67.461
H 45.376 45.896 66.926
H 38.678 40.603 65.187
H 43.818 49.004 68.115
H 45.271 48.58 67.991
H 41.254 49.545 62.366
H 41.226 49.514 63.884
H 35.39 46.009 65.469
H 36.071 46.451 64.185
H 45.295 47.009 73.475
H 38.1 49.088 61.937
H 41.188 51.759 66.077
H 43.178 51.714 72.242
H 41.473 45.916 70.939
H 40.554 46.559 71.962
H 41.149 52.222 67.523
H 44.192 40.68 67.069
H 43.0 39.74 67.023
H 38.707 48.538 67.324
H 37.394 49.054 67.884
H 45.613 51.075 69.241
H 45.137 52.517 69.281
H 40.488 51.49 71.131
H 38.415 50.12 65.21
H 39.885 50.056 65.583
H 38.415 48.306 63.963
H 37.039 48.383 64.6
H 43.285 46.192 66.309
H 42.561 45.339 65.282
H 35.138 42.941 64.381
H 35.851 44.267 64.18
H 42.124 51.624 69.49
H 43.066 50.469 69.777
H 38.62 45.52 70.138
H 39.952 51.961 63.686
H 36.339 47.873 62.444
H 38.897 46.186 68.064
H 37.403 46.427 67.946
H 40.153 47.475 66.059
H 40.303 46.052 65.55
H 41.298 40.259 69.065
H 36.491 43.781 67.262
H 37.408 42.733 66.657
H 37.82 52.338 64.22
H 38.17 52.241 65.694
H 43.806 51.628 66.783
H 44.073 48.918 63.377
H 43.36 49.982 65.29
H 42.46 48.87 65.8
H 39.676 49.677 72.265
H 45.712 44.983 71.457
H 47.01 45.385 70.779
H 45.274 47.919 71.072
H 39.648 46.477 63.022
H 40.451 47.46 63.857
H 41.372 49.514 68.247
H 40.098 50.188 67.769
H 45.238 44.98 62.034
H 45.851 49.843 65.082
H 40.534 45.126 73.631
H 40.648 49.131 70.368
H 39.189 48.794 70.116
H 35.615 45.505 68.835
H 36.634 41.052 64.375
H 46.242 43.545 68.778
H 45.354 42.884 67.739
H 40.878 39.737 65.792
H 35.204 49.673 67.583
H 35.3 48.71 66.413
H 40.17 44.339 67.57
H 41.609 44.628 67.959
H 42.432 46.919 68.9
H 42.046 47.534 67.566
H 44.733 46.602 69.01
H 43.961 45.34 68.664
H 42.189 47.502 74.117
