120
xyz format
O 24.901 52.29 51.995
O 28.13 60.544 48.062
O 30.136 64.261 49.929
O 29.178 61.196 49.884
O 30.798 55.98 50.701
O 30.685 62.111 51.835
O 32.848 56.56 52.79
O 31.491 59.184 57.652
O 35.998 54.064 51.222
O 26.051 54.568 53.65
O 29.263 57.353 47.75
O 31.879 55.375 48.019
O 33.429 56.825 48.595
O 32.823 52.029 52.37
O 31.547 56.696 55.17
O 33.453 54.701 51.781
O 35.803 57.681 53.654
O 28.001 55.325 50.766
O 27.349 60.726 52.297
O 31.949 61.294 48.233
O 33.56 58.405 51.13
O 34.066 53.885 49.408
O 30.982 59.397 51.281
O 30.955 54.379 56.495
O 28.495 54.48 53.532
O 30.695 53.439 53.104
O 34.831 63.241 53.989
O 32.056 63.298 53.082
O 34.279 58.0 56.305
O 30.114 62.254 55.04
O 34.128 64.994 52.731
O 31.733 59.795 54.694
O 26.254 53.848 50.583
O 33.372 60.588 52.768
O 29.809 57.686 52.617
O 28.119 58.058 51.151
O 31.771 65.823 54.513
O 27.915 63.368 51.704
O 28.73 51.543 51.349
O 27.274 56.449 55.15
H 32.406 63.661 52.259
H 32.675 63.613 53.753
H 34.804 62.462 54.558
H 33.928 57.313 56.884
H 31.593 59.294 52.022
H 31.561 59.566 50.528
H 33.829 54.491 48.694
H 33.219 53.519 49.69
H 31.496 53.928 55.834
H 30.228 54.75 55.98
H 30.68 57.406 52.927
H 29.313 57.834 53.432
H 26.803 51.363 49.655
H 27.379 55.666 47.433
H 31.553 62.133 48.501
H 30.619 52.512 53.364
H 30.101 53.514 52.347
H 30.772 59.786 54.785
H 31.921 59.004 54.174
H 33.817 58.675 50.24
H 32.827 57.794 50.982
H 28.145 61.271 52.337
H 26.927 60.996 51.471
H 25.364 52.757 48.74
H 36.083 55.808 49.856
H 33.281 61.758 55.981
H 33.305 60.795 51.827
H 33.345 61.452 53.196
H 27.664 55.654 51.609
H 28.608 56.018 50.476
H 27.677 58.605 51.812
H 27.996 58.549 50.329
H 30.601 56.925 50.707
H 30.488 55.676 51.563
H 32.63 54.894 51.315
H 34.117 55.202 51.29
H 27.259 53.169 55.504
H 30.398 63.0 54.496
H 29.286 61.008 57.661
H 31.911 56.412 56.018
H 30.613 56.848 55.361
H 29.676 51.4 51.477
H 27.701 56.614 54.3
H 27.911 56.781 55.795
H 26.809 57.834 47.758
H 32.618 57.281 48.853
H 33.839 56.592 49.437
H 31.129 55.958 47.847
H 31.733 55.074 48.924
H 32.788 52.766 52.993
H 32.386 51.309 52.842
H 35.897 53.928 52.173
H 25.833 54.781 54.566
H 25.67 53.69 53.522
H 29.367 52.925 48.506
H 31.529 65.022 54.994
H 31.281 65.75 53.685
H 29.052 55.22 53.26
H 28.95 54.123 54.305
H 28.536 51.852 53.635
H 35.764 59.128 51.899
H 29.339 56.964 48.63
H 29.119 58.291 47.926
H 32.666 55.886 53.458
H 33.076 57.341 53.309
H 25.983 54.666 50.147
H 26.977 53.523 50.032
H 28.941 60.445 47.547
H 31.043 61.398 52.38
H 29.978 62.481 52.379
H 30.901 58.516 57.281
H 31.708 59.743 56.896
H 33.612 65.555 53.324
H 30.656 63.466 50.101
H 25.625 51.777 52.376
H 24.828 51.949 51.095
H 27.048 63.16 52.074
H 27.929 64.333 51.685
H 29.228 60.523 50.574
H 29.024 62.014 50.372
