176
xyz format
Cl 47.816 30.708 60.247
Na 37.083 30.36 63.863
O 35.394 36.402 63.467
O 41.417 32.357 57.638
O 42.322 26.668 57.849
O 31.736 36.685 67.611
O 43.578 31.445 62.935
O 30.314 34.677 60.446
O 41.967 35.9 58.181
O 32.703 37.109 58.739
O 33.466 28.099 53.863
O 37.573 38.782 63.676
O 35.382 34.223 58.415
O 34.495 31.565 59.76
O 39.899 36.73 64.839
O 39.486 34.653 58.813
O 41.243 25.537 53.974
O 36.863 27.526 57.835
O 37.25 27.481 60.692
O 39.114 25.438 59.867
O 33.17 38.938 66.147
O 31.457 32.241 62.707
O 38.103 30.039 55.727
O 40.034 33.806 65.611
O 40.527 28.843 66.644
O 35.905 36.968 66.666
O 38.841 33.212 60.586
O 41.565 31.817 54.306
O 39.361 30.466 53.336
O 36.116 32.709 54.784
O 33.464 31.615 55.099
O 44.636 25.056 56.7
O 41.856 27.655 60.228
O 43.991 33.441 61.356
O 42.353 36.063 66.932
O 48.415 31.171 65.467
O 47.945 31.018 63.198
O 35.294 34.979 60.513
O 40.033 31.071 63.284
O 30.588 35.023 63.795
O 37.61 34.905 56.095
O 36.433 33.152 65.915
O 36.3 32.58 61.624
O 41.849 31.027 69.365
O 38.576 28.029 51.764
O 40.933 30.223 57.005
O 39.505 27.216 58.129
O 37.642 35.601 63.734
O 31.525 37.855 63.279
O 44.021 30.799 56.917
O 37.958 37.179 61.732
O 33.747 32.487 63.103
O 32.979 35.87 60.593
O 36.324 31.597 57.694
O 45.397 24.125 58.744
O 39.719 29.182 61.997
O 33.02 35.139 64.608
O 38.327 32.878 54.35
O 35.27 29.077 56.845
O 45.519 31.339 64.045
O 41.801 34.548 56.395
O 40.623 27.388 64.392
O 41.656 30.611 61.007
O 32.852 29.488 55.893
O 37.524 35.336 60.016
O 36.833 30.582 59.644
O 42.909 28.724 55.5
O 41.42 33.649 61.33
H 35.571 31.726 57.103
H 37.068 31.469 57.093
H 44.512 24.502 58.827
H 35.257 35.905 60.786
H 35.122 34.493 61.329
H 37.955 37.869 61.058
H 38.768 36.685 61.552
H 33.743 31.688 63.645
H 44.03 30.982 57.865
H 43.11 30.532 56.744
H 33.469 33.18 63.714
H 47.833 31.934 63.482
H 48.406 31.094 62.353
H 33.222 36.713 60.996
H 32.875 35.278 61.348
H 37.202 36.222 59.808
H 37.339 34.831 59.214
H 35.379 32.294 61.64
H 36.662 32.235 62.45
H 36.407 33.866 65.267
H 37.083 32.537 65.554
H 29.769 34.555 63.587
H 30.605 35.749 63.16
H 39.199 27.719 57.364
H 39.415 26.297 57.849
H 41.142 30.513 68.956
H 36.9 34.637 55.498
H 41.732 31.202 61.766
H 42.247 29.88 61.225
H 36.225 31.774 54.999
H 35.345 32.975 55.3
H 40.431 30.327 63.752
H 39.46 31.478 63.946
H 41.213 27.508 63.638
H 40.089 30.554 52.708
H 38.573 30.483 52.779
H 40.255 28.268 64.538
H 38.648 32.328 55.075
H 37.736 35.523 64.691
H 38.526 35.402 63.4
H 44.592 32.997 60.745
H 44.571 33.751 62.063
H 41.204 28.15 59.717
H 41.472 27.616 61.113
H 32.157 37.275 62.837
H 31.642 37.65 64.215
H 39.562 28.341 62.445
H 39.632 28.961 61.061
H 47.89 31.934 65.741
H 45.265 24.938 55.978
H 43.776 24.94 56.277
H 41.973 35.369 66.38
H 39.908 29.566 66.807
H 41.209 28.969 67.316
H 35.544 29.726 56.185
H 35.191 28.257 56.341
H 38.748 33.656 61.438
H 39.191 32.343 60.818
H 38.588 29.448 55.137
H 38.217 29.638 56.598
H 31.415 33.18 62.926
H 30.786 32.135 62.021
H 39.739 34.537 65.054
H 39.367 33.124 65.468
H 37.103 29.969 58.949
H 37.628 31.106 59.808
H 41.913 33.131 60.682
H 40.907 34.263 60.791
H 40.009 25.325 60.212
H 38.604 25.714 60.638
H 37.779 28.089 60.16
H 37.59 27.604 61.587
H 45.48 32.297 63.935
H 36.299 27.977 58.476
H 37.327 26.865 58.364
H 45.759 31.017 63.167
H 42.133 31.417 54.976
H 40.855 32.223 54.819
H 41.787 25.449 54.766
H 42.186 28.313 55.991
H 42.525 28.901 54.632
H 39.128 37.218 64.526
H 40.504 37.421 65.136
H 34.609 31.035 58.962
H 34.044 30.967 60.37
H 41.21 36.493 58.099
H 42.723 36.461 57.965
H 39.213 35.029 57.967
H 39.746 35.424 59.333
H 35.952 33.788 57.769
H 34.517 34.233 57.987
H 36.8 38.402 63.241
H 40.309 30.369 56.284
H 40.656 29.378 57.381
H 33.527 36.626 58.601
H 32.861 28.632 56.338
H 32.815 30.124 56.618
H 32.772 35.267 63.684
H 32.871 36.006 65.006
H 30.452 34.385 61.356
H 34.652 36.118 62.918
H 34.971 36.741 64.266
H 42.083 26.09 57.114
H 43.242 26.439 58.031
H 43.912 31.371 62.032
H 43.618 30.541 63.269
H 41.971 31.801 58.2
H 40.868 32.842 58.267
