323
xyz format
Na 46.336 56.344 34.969
O 48.637 63.626 27.633
O 44.251 57.008 30.865
O 34.331 51.095 28.381
O 43.167 63.664 30.895
O 40.343 65.535 28.373
O 47.057 60.214 27.955
O 45.023 54.088 36.793
O 49.36 58.68 25.953
O 38.108 54.297 27.379
O 37.534 56.033 29.941
O 37.603 54.09 36.874
O 49.496 57.744 28.383
O 42.6 59.874 35.929
O 38.829 49.07 31.297
O 38.916 52.01 32.064
O 34.669 53.535 32.647
O 47.015 56.218 24.12
O 50.118 59.605 35.868
O 46.047 61.631 35.735
O 43.266 61.36 31.959
O 40.028 61.029 33.684
O 33.571 60.472 32.065
O 41.465 50.784 30.986
O 50.403 59.846 32.747
O 46.858 63.734 30.549
O 42.983 62.232 36.705
O 38.092 51.296 27.954
O 41.971 55.703 32.339
O 38.091 53.985 32.814
O 35.318 54.462 35.57
O 36.922 62.85 34.472
O 47.059 58.37 29.734
O 46.576 56.266 38.022
O 49.874 57.374 30.519
O 48.387 53.642 30.03
O 48.247 55.485 32.451
O 39.124 61.219 37.284
O 49.969 54.723 33.618
O 45.616 58.072 22.814
O 46.178 62.324 32.096
O 39.563 62.225 31.07
O 42.253 57.387 25.26
O 40.502 58.425 30.405
O 41.915 55.924 36.92
O 42.652 54.309 27.015
O 38.927 54.71 24.712
O 35.879 57.619 36.81
O 38.278 56.39 34.887
O 40.227 57.338 34.477
O 35.277 59.994 30.358
O 44.429 56.073 26.017
O 33.687 53.546 30.518
O 43.851 58.259 29.088
O 40.535 57.907 37.278
O 41.24 62.051 28.177
O 41.344 52.15 24.261
O 45.759 60.767 25.944
O 41.784 54.903 23.623
O 39.495 59.998 27.26
O 45.506 59.699 32.804
O 48.706 59.716 30.628
O 32.397 53.663 28.188
O 45.524 62.925 28.119
O 35.683 51.386 26.597
O 39.748 54.056 36.206
O 51.132 54.952 35.903
O 44.469 54.002 29.164
O 40.068 52.462 29.522
O 40.437 55.974 29.266
O 44.15 58.19 34.028
O 36.886 51.982 29.661
O 46.923 54.191 35.632
O 48.282 52.62 32.825
O 35.44 54.642 28.067
O 39.134 55.815 32.179
O 40.224 65.104 34.051
O 46.539 55.3 29.686
O 38.547 65.3 29.963
O 42.724 55.002 30.394
O 42.843 53.455 32.678
O 43.822 55.229 35.077
O 45.371 53.799 33.656
O 34.707 55.884 33.208
O 39.988 57.619 27.493
O 44.893 51.368 25.879
O 47.192 56.643 28.071
O 38.686 49.873 33.379
O 51.332 56.014 38.196
O 43.197 60.591 29.351
O 45.152 54.968 22.919
O 33.038 56.375 30.754
O 38.37 58.492 36.904
O 42.012 67.128 29.474
O 45.648 52.248 27.755
O 40.098 53.051 26.619
O 35.059 57.15 28.243
O 46.129 57.247 32.393
O 49.132 54.37 36.61
O 41.973 63.089 34.166
O 35.275 54.96 31.084
O 48.047 50.59 35.994
O 40.338 50.895 27.642
O 39.258 63.299 36.579
O 38.266 65.462 32.948
O 48.454 60.024 37.289
O 43.399 62.901 25.854
O 43.431 54.516 38.25
O 41.026 65.701 31.399
O 39.422 58.85 32.292
O 47.215 54.53 39.914
O 46.74 54.581 27.217
O 44.457 62.713 34.642
O 46.348 51.833 31.199
O 41.843 53.022 34.695
O 38.956 49.056 28.378
O 36.483 51.152 35.074
O 36.132 57.776 33.006
O 42.38 58.904 26.848
O 45.127 59.031 38.776
H 38.792 48.246 28.876
H 39.143 49.712 29.062
H 41.15 53.047 34.023
H 33.219 53.433 27.738
H 46.012 63.738 27.935
H 46.171 62.228 27.957
H 50.568 56.014 38.786
H 37.947 49.704 33.977
H 39.427 50.044 33.974
H 35.456 55.846 33.815
H 33.939 55.891 33.793
H 44.211 52.029 26.053
H 39.138 57.662 27.947
H 40.625 57.873 28.172
H 42.513 60.266 29.951
H 43.138 61.551 29.435
H 42.256 54.185 23.183
H 41.946 54.743 24.561
H 44.762 54.875 22.041
H 45.595 54.123 23.064
H 40.697 62.613 27.609
H 40.671 61.877 28.937
H 43.45 54.072 32.251
H 42.234 53.207 31.971
H 40.287 60.022 27.812
H 38.83 60.449 27.794
H 47.158 55.091 26.512
H 47.462 54.049 27.574
H 43.471 54.553 34.484
H 44.172 55.9 34.478
H 45.181 52.905 33.346
H 45.892 54.185 32.94
H 38.32 64.363 29.929
H 37.755 65.74 29.629
H 41.815 54.677 30.39
H 42.686 55.798 29.85
H 45.809 55.929 29.748
H 46.826 55.191 30.601
H 44.837 59.828 32.121
H 46.297 59.453 32.307
H 34.966 54.698 27.228
H 35.317 53.725 28.34
H 48.285 60.189 29.899
H 49.543 60.183 30.751
H 47.59 54.415 34.97
H 46.692 53.277 35.423
H 43.773 58.237 34.915
H 37.214 51.628 30.496
H 36.002 52.304 29.88
H 45.09 58.034 34.185
H 39.533 55.687 29.088
H 40.941 55.62 28.522
H 47.557 52.831 33.426
H 49.01 52.39 33.416
H 47.607 57.156 40.645
H 39.603 58.062 34.344
H 42.104 53.933 27.715
H 43.254 54.898 27.486
H 40.728 57.313 33.652
H 35.26 59.762 29.421
H 38.722 55.731 34.339
H 37.932 55.877 35.628
H 36.556 57.518 36.129
H 39.01 54.873 23.764
H 39.46 53.211 29.567
H 39.769 55.017 25.072
H 42.414 56.625 36.483
H 42.009 55.17 36.325
H 41.675 62.948 33.259
H 42.57 63.845 34.097
H 39.278 63.573 35.654
H 40.204 53.212 36.315
H 40.143 54.429 35.408
H 50.985 55.7 35.311
H 44.719 54.05 30.095
H 43.684 53.44 29.165
H 43.388 57.548 28.627
H 44.327 58.717 28.384
H 33.616 52.858 29.845
H 45.092 56.417 25.406
H 43.723 55.76 25.438
H 47.015 57.312 32.772
H 45.985 56.297 32.307
H 33.117 54.251 30.186
H 47.995 56.14 28.255
H 47.433 57.19 27.313
H 46.309 60.648 25.16
H 44.858 60.701 25.605
H 40.753 58.258 36.405
H 40.057 57.091 37.085
H 40.927 52.874 29.366
H 40.379 52.144 24.238
H 41.596 52.059 23.333
H 41.646 56.983 24.627
H 42.913 57.817 24.701
H 38.57 65.019 32.146
H 48.614 59.083 37.436
H 43.843 62.601 25.051
H 43.006 62.096 26.214
H 47.679 60.212 37.833
H 39.584 58.228 30.182
H 40.84 57.588 30.746
H 45.65 58.069 23.779
H 44.87 57.494 22.61
H 50.535 54.855 32.847
H 50.379 53.98 34.078
H 40.114 62.96 30.772
H 38.954 62.081 30.335
H 41.638 67.651 28.754
H 42.69 66.594 29.041
H 48.721 56.157 31.944
H 48.452 54.663 31.989
H 50.058 57.37 27.694
H 49.453 58.683 28.159
H 37.333 55.72 29.05
H 37.838 56.939 29.803
H 39.896 60.674 37.088
H 40.813 53.337 26.036
H 39.334 52.992 26.033
H 36.929 51.651 34.378
H 50.371 58.184 30.353
H 50.553 56.687 30.536
H 45.734 58.568 38.186
H 47.12 56.892 38.516
H 45.99 55.892 38.693
H 44.485 59.432 38.177
H 36.921 57.769 32.449
H 35.414 57.95 32.385
H 46.243 58.371 30.251
H 47.538 57.601 30.065
H 41.719 59.3 26.266
H 42.427 59.517 27.592
H 35.834 55.214 35.889
H 42.414 55.966 33.156
H 41.198 55.213 32.645
H 37.431 54.322 32.197
H 37.618 53.942 33.655
H 40.173 50.819 26.693
H 41.155 51.406 27.693
H 37.913 52.106 27.46
H 37.536 50.636 27.522
H 35.772 54.471 30.416
H 35.877 55.667 31.346
H 48.591 54.439 29.524
H 47.55 53.341 29.656
H 45.41 61.908 31.684
H 48.746 55.252 36.686
H 49.016 53.993 37.491
H 47.853 51.308 36.61
H 46.531 64.534 30.117
H 46.937 63.1 29.826
H 42.06 51.432 30.587
H 42.026 50.01 31.12
H 33.889 59.58 32.252
H 50.638 59.48 36.671
H 41.006 65.443 30.469
H 41.894 66.11 31.505
H 47.109 55.279 24.321
H 47.533 56.652 24.81
H 42.439 61.713 31.606
H 43.108 61.313 32.91
H 40.453 60.436 34.316
H 39.887 61.839 34.19
H 46.015 52.735 31.29
H 46.391 51.511 32.108
H 40.296 59.232 32.442
H 39.956 64.256 33.675
H 38.817 59.525 32.626
H 48.17 54.41 39.984
H 39.471 55.637 31.293
H 38.835 56.732 32.131
H 43.509 55.471 38.366
H 46.03 61.192 34.875
H 35.851 56.79 27.825
H 35.227 57.038 29.187
H 43.898 56.461 31.578
H 44.254 57.898 31.239
H 44.494 62.86 33.688
H 44.554 63.598 35.014
H 38.89 54.823 27.17
H 37.377 54.828 27.039
H 37.937 53.472 37.536
H 37.605 53.575 36.058
H 45.669 53.765 37.434
H 45.086 55.048 36.869
H 39.5 52.294 32.779
H 38.087 51.806 32.513
H 43.392 60.348 35.645
H 38.647 50.012 31.184
H 39.782 49.003 31.163
H 42.917 59.302 36.639
H 34.001 53.745 33.311
H 35.502 53.746 33.085
H 39.483 65.381 27.961
H 40.729 64.652 28.435
H 33.504 56.707 31.532
H 48.311 62.723 27.738
H 48.337 64.073 28.434
H 32.178 56.106 31.099
H 42.364 63.905 31.373
H 42.919 63.762 29.967
H 47.409 59.36 27.676
H 46.127 60.03 28.137
