68
xyz format
O 56.075 66.348 33.949
O 56.497 66.826 36.579
O 58.138 71.795 33.147
O 62.353 69.968 37.194
O 59.172 64.393 37.053
O 58.935 67.608 35.436
O 60.002 66.629 37.379
O 59.556 70.163 37.566
O 62.671 68.238 35.244
O 58.535 63.213 32.341
O 60.548 62.869 33.163
O 64.38 67.73 37.299
O 60.357 65.634 33.812
O 56.504 64.575 30.294
O 58.818 70.08 34.572
O 57.489 67.438 29.8
O 54.721 68.268 34.616
O 57.387 68.794 33.344
O 57.965 71.691 37.41
O 59.493 68.987 31.658
O 59.683 64.357 29.463
O 62.469 68.361 31.93
H 57.665 69.513 32.762
H 56.854 68.228 32.772
H 54.508 67.913 33.744
H 55.236 69.061 34.421
H 63.39 68.156 32.134
H 61.978 67.628 32.32
H 55.222 63.812 35.254
H 65.037 65.601 33.837
H 64.338 65.815 35.168
H 56.865 64.223 31.117
H 57.113 65.286 30.061
H 59.744 65.519 34.549
H 61.095 66.121 34.2
H 61.018 63.696 33.0
H 57.88 63.109 33.043
H 58.241 62.595 31.66
H 57.035 71.458 37.297
H 58.272 71.855 36.51
H 63.332 67.905 34.624
H 62.099 68.79 34.695
H 60.141 69.18 30.969
H 59.821 68.172 32.059
H 53.049 67.83 36.046
H 59.377 69.341 37.092
H 59.216 63.971 30.214
H 59.205 64.018 28.696
H 54.191 65.975 35.723
H 60.785 67.186 37.284
H 59.447 67.117 37.999
H 59.844 67.753 35.145
H 58.475 67.344 34.629
H 55.454 71.203 31.694
H 58.211 69.972 35.314
H 59.685 70.143 34.992
H 57.036 68.232 29.49
H 58.044 67.758 30.522
H 63.758 67.144 36.849
H 65.219 67.557 36.855
H 56.124 65.741 34.698
H 56.854 66.127 33.424
H 62.696 64.292 35.316
H 57.638 71.923 33.963
H 57.454 71.684 32.475
H 57.256 67.33 36.899
H 61.63 69.355 37.015
H 62.022 70.814 36.868
