61
xyz format
O 59.892 64.597 44.045
O 57.587 66.404 42.599
O 48.479 61.247 49.622
O 57.793 65.457 45.373
O 53.925 62.227 47.433
O 54.545 65.38 49.164
O 57.659 64.519 48.088
O 60.085 65.541 47.945
O 54.5 64.222 51.801
O 50.168 59.763 45.276
O 58.264 59.554 45.095
O 57.776 62.291 50.856
O 51.084 62.025 46.917
O 53.33 68.67 47.642
O 55.711 66.633 47.31
O 54.624 64.417 45.167
O 50.905 62.574 44.425
O 57.568 62.218 45.647
O 58.034 60.286 47.16
O 52.012 63.466 48.398
O 49.277 63.91 50.661
H 51.871 61.497 47.099
H 50.534 61.896 47.7
H 51.764 62.316 44.068
H 55.593 69.437 49.395
H 50.802 66.306 49.114
H 55.115 67.328 47.615
H 56.197 66.382 48.105
H 55.161 64.224 45.945
H 53.806 64.773 45.536
H 57.255 62.544 50.084
H 51.275 63.505 49.019
H 52.79 63.58 48.957
H 50.988 60.171 45.582
H 53.364 69.616 47.832
H 52.899 68.294 48.42
H 55.969 61.19 44.419
H 58.565 60.433 44.833
H 58.553 60.5 47.945
H 54.723 63.373 51.399
H 60.455 64.814 47.429
H 59.909 66.224 47.285
H 58.17 62.629 46.28
H 56.844 62.853 45.574
H 50.477 62.289 51.54
H 57.031 64.0 47.57
H 57.31 64.471 48.987
H 54.804 64.451 49.113
H 54.671 65.602 50.095
H 54.764 62.503 47.821
H 53.619 63.014 46.965
H 48.002 61.901 49.096
H 49.093 60.849 48.992
H 58.55 66.444 42.65
H 57.403 65.466 42.47
H 58.264 64.795 45.895
H 57.045 64.969 45.006
H 49.2 63.63 49.741
H 59.98 65.558 44.07
H 60.181 64.318 44.923
H 55.298 60.112 49.32
