169
xyz format
O 67.832 48.623 49.346
O 66.121 45.513 38.924
O 63.452 44.871 47.636
O 69.005 53.009 48.226
O 64.719 47.954 48.375
O 57.238 47.793 37.868
O 67.731 46.099 48.257
O 64.031 51.341 44.377
O 64.604 47.698 38.415
O 59.372 51.485 43.481
O 66.621 52.795 42.105
O 66.396 54.325 47.205
O 66.392 51.721 46.319
O 65.881 55.703 44.679
O 59.966 47.166 38.836
O 61.793 41.601 36.27
O 60.381 45.307 37.239
O 68.359 53.757 45.048
O 60.741 52.247 36.478
O 60.9 53.637 42.399
O 61.759 54.27 40.455
O 63.452 39.721 38.422
O 57.719 49.829 39.951
O 64.857 50.772 40.612
O 64.144 53.274 38.829
O 60.669 56.231 44.009
O 62.986 46.464 36.113
O 65.165 47.032 46.246
O 68.068 48.982 41.737
O 66.562 41.831 43.525
O 65.39 48.78 42.197
O 68.838 48.405 44.145
O 66.528 44.207 44.978
O 66.283 54.042 38.206
O 63.092 53.712 35.914
O 63.801 44.419 39.232
O 63.889 48.487 44.361
O 67.752 44.824 41.232
O 68.444 50.941 43.388
O 59.485 48.803 42.487
O 62.134 47.718 46.652
O 61.68 51.384 41.407
O 64.404 40.826 43.774
O 68.001 50.361 48.006
O 68.238 48.16 47.229
O 59.251 47.669 36.233
O 62.95 51.331 38.411
O 60.099 51.609 38.492
O 61.584 49.742 39.357
O 64.162 49.927 47.045
O 63.018 55.393 43.819
O 63.256 52.89 42.31
O 68.317 46.49 43.192
O 62.036 48.956 41.945
O 62.215 49.074 35.902
H 64.402 41.589 43.182
H 59.989 47.866 44.414
H 67.036 44.707 41.869
H 63.53 55.069 43.067
H 64.323 52.581 47.128
H 62.41 51.524 40.791
H 62.808 52.658 47.069
H 60.894 51.456 40.852
H 62.763 47.287 47.244
H 62.963 49.028 36.51
H 61.472 48.755 36.429
H 67.72 47.997 46.432
H 68.695 46.543 42.306
H 67.608 50.969 43.87
H 69.11 50.899 44.086
H 69.076 48.501 46.893
H 59.278 48.441 36.812
H 67.485 45.602 40.727
H 68.741 50.607 47.437
H 58.659 49.278 42.332
H 68.13 50.902 48.796
H 67.495 46.991 43.121
H 59.831 48.649 41.599
H 66.345 53.27 38.781
H 66.204 54.782 38.821
H 66.959 44.728 44.289
H 66.812 44.631 45.797
H 63.859 47.718 43.779
H 63.901 49.236 43.751
H 61.227 56.57 43.297
H 59.789 56.198 43.614
H 64.073 43.498 39.324
H 63.217 44.562 39.988
H 69.569 48.794 44.641
H 68.066 48.895 44.452
H 63.801 53.186 36.305
H 62.646 54.099 36.677
H 62.731 47.006 35.356
H 62.191 46.448 36.661
H 64.143 52.951 42.687
H 62.731 52.501 43.02
H 66.021 46.676 45.976
H 64.528 46.475 45.781
H 68.266 49.697 41.119
H 67.842 48.239 41.163
H 60.344 42.846 39.052
H 67.368 42.135 43.96
H 66.727 40.894 43.364
H 56.927 47.988 41.906
H 65.13 48.528 41.303
H 65.966 49.543 42.062
H 64.621 51.192 41.449
H 64.526 51.386 39.945
H 60.83 54.106 40.25
H 62.034 54.904 39.781
H 63.377 39.174 41.051
H 63.324 50.879 37.644
H 62.251 51.88 38.035
H 60.202 53.476 43.045
H 61.359 54.412 42.745
H 60.595 53.041 35.948
H 60.898 51.558 35.82
H 67.569 53.342 44.681
H 68.109 54.685 45.14
H 61.462 40.714 36.462
H 62.203 41.877 37.099
H 63.408 53.215 39.45
H 64.108 54.186 38.515
H 60.54 44.72 36.489
H 61.717 43.497 35.089
H 67.344 51.725 46.156
H 66.241 50.882 46.771
H 66.389 55.348 43.939
H 57.835 50.462 40.67
H 58.547 49.332 39.947
H 63.144 38.927 38.877
H 63.334 40.421 39.077
H 66.12 53.904 46.382
H 66.861 55.119 46.911
H 60.712 47.244 38.228
H 60.382 46.979 39.687
H 66.286 52.469 42.95
H 67.425 52.279 41.964
H 56.854 52.966 40.487
H 58.332 52.952 40.138
H 61.282 49.835 45.513
H 62.84 49.481 41.84
H 66.077 52.558 48.534
H 58.633 51.919 43.036
H 59.862 51.07 42.76
H 56.894 51.976 37.728
H 64.523 51.605 45.164
H 63.144 51.156 44.712
H 60.151 52.431 38.996
H 59.44 51.089 38.969
H 61.841 49.023 42.888
H 61.342 48.952 39.856
H 61.261 49.558 38.466
H 63.484 50.57 46.805
H 64.461 49.58 46.195
H 62.79 44.769 46.941
H 64.707 47.199 48.976
H 56.965 47.315 38.661
H 57.179 48.721 38.128
H 64.205 48.626 48.84
H 66.854 46.309 48.601
H 61.846 45.728 43.315
H 60.417 46.162 43.037
H 63.863 48.294 38.58
H 65.09 47.7 39.249
H 69.68 52.63 47.65
H 68.374 53.404 47.611
H 65.818 44.767 38.391
H 66.381 46.172 38.269
