55
xyz format
O 28.288 44.115 42.157
O 27.779 46.239 43.778
O 25.063 46.875 39.686
O 27.21 44.915 40.162
O 29.147 42.049 40.598
O 26.055 42.137 41.776
O 26.284 47.246 41.59
O 27.125 44.516 37.501
O 31.234 43.464 43.251
O 29.309 49.506 45.239
O 26.765 48.709 43.978
O 27.318 50.233 41.013
O 28.841 40.928 42.861
O 25.801 44.315 43.516
O 30.83 45.234 41.651
O 29.254 46.596 38.507
O 26.41 39.619 43.42
O 27.327 49.045 38.502
O 28.574 44.703 46.284
H 28.492 41.589 43.472
H 29.304 50.434 44.971
H 27.721 48.576 43.969
H 26.547 48.869 43.051
H 23.111 41.326 44.114
H 30.426 47.777 44.472
H 27.193 44.968 36.651
H 27.498 43.643 37.328
H 30.585 42.954 43.75
H 25.695 46.54 41.886
H 27.167 46.881 41.728
H 26.89 40.045 40.105
H 27.108 41.472 39.634
H 29.152 45.95 37.797
H 27.49 50.506 41.923
H 26.363 50.095 40.992
H 30.495 45.408 42.54
H 26.188 44.541 42.661
H 26.428 43.685 43.892
H 26.6 42.629 46.656
H 26.933 42.382 42.092
H 25.508 42.166 42.571
H 26.772 48.278 38.314
H 28.443 44.289 45.422
H 27.763 44.495 46.764
H 29.5 42.44 41.407
H 26.747 44.193 39.719
H 27.744 45.309 39.46
H 29.091 47.506 46.25
H 26.723 40.325 42.842
H 28.468 46.382 44.439
H 27.003 46.003 44.302
H 24.688 47.016 38.807
H 25.973 46.61 39.506
H 28.386 45.065 42.017
H 28.785 43.95 42.968
