114
xyz format
O 67.345 48.817 50.344
O 67.066 54.338 55.681
O 67.744 46.953 58.777
O 72.346 50.641 55.342
O 64.323 47.801 55.339
O 70.887 45.059 49.576
O 65.019 50.15 57.858
O 64.804 52.153 55.074
O 63.193 49.181 57.119
O 68.506 46.737 47.887
O 73.858 46.883 49.56
O 73.65 44.463 53.985
O 72.837 46.478 52.5
O 64.897 49.875 54.136
O 67.535 49.778 57.797
O 67.307 52.029 56.754
O 66.814 46.949 52.976
O 69.466 49.221 48.582
O 65.57 48.977 59.756
O 75.243 50.565 51.292
O 74.787 49.243 53.663
O 63.169 46.44 57.641
O 71.943 43.874 48.046
O 68.608 48.549 53.638
O 70.023 49.895 51.219
O 67.75 51.667 53.748
O 69.56 50.759 56.025
O 70.24 45.853 51.53
O 63.815 45.919 53.122
O 72.893 43.61 51.991
O 65.206 45.478 56.278
O 66.21 44.838 51.374
O 72.47 48.32 50.95
O 70.421 51.212 48.57
O 64.165 52.322 52.887
O 61.832 51.639 54.799
O 72.686 51.383 52.983
O 68.467 53.516 52.803
O 67.718 48.593 55.697
O 71.166 47.902 54.0
H 69.06 44.009 51.312
H 68.939 48.313 52.763
H 69.013 49.408 53.812
H 72.377 48.871 50.162
H 72.949 48.885 51.568
H 66.045 45.89 56.522
H 65.27 45.377 55.32
H 72.0 43.571 52.357
H 65.97 53.7 58.758
H 70.676 47.072 54.053
H 71.105 48.146 53.068
H 70.148 50.728 55.261
H 69.895 50.061 56.601
H 70.285 48.967 51.162
H 69.229 49.943 50.672
H 68.705 53.405 51.874
H 69.144 54.116 53.142
H 67.029 51.297 54.273
H 68.449 51.82 54.396
H 73.335 51.695 53.625
H 73.092 51.583 52.131
H 74.005 48.677 53.685
H 74.884 49.535 54.578
H 61.655 49.386 54.216
H 65.748 42.647 56.232
H 62.868 46.052 56.809
H 63.819 47.098 57.365
H 67.088 52.116 57.69
H 66.706 51.342 56.441
H 65.953 48.365 59.116
H 66.27 49.093 60.41
H 66.563 47.803 53.349
H 66.301 46.896 52.16
H 72.084 50.153 56.133
H 72.394 49.961 54.658
H 69.732 48.338 48.869
H 68.506 49.158 48.507
H 65.026 51.987 52.605
H 63.693 51.531 53.172
H 68.281 49.169 57.868
H 67.4 50.082 58.703
H 73.572 45.885 52.301
H 72.72 46.386 53.454
H 65.63 49.662 54.727
H 64.164 50.056 54.737
H 66.261 47.565 48.881
H 62.294 51.415 55.616
H 74.552 44.165 53.814
H 73.506 44.242 54.913
H 70.174 44.494 49.253
H 70.63 45.943 49.285
H 65.37 49.502 57.234
H 64.734 50.88 57.294
H 62.75 49.369 56.283
H 62.834 49.843 57.724
H 68.535 46.485 48.818
H 69.389 46.52 47.563
H 66.855 48.367 56.066
H 67.685 49.554 55.608
H 69.542 46.328 51.998
H 70.928 46.519 51.406
H 63.301 46.734 53.053
H 65.551 52.758 54.992
H 64.289 52.521 55.802
H 67.464 53.913 54.911
H 67.695 54.16 56.391
H 67.306 48.652 51.294
H 66.6 49.41 50.183
H 70.958 49.858 59.188
H 63.397 47.541 55.252
H 64.67 47.718 54.442
H 74.512 47.335 50.108
H 73.653 46.083 50.059
H 68.618 46.852 58.38
