979
xyz format
Cl 39.106 49.969 60.184
Cl 31.247 50.946 48.398
Na 35.918 45.033 51.34
Na 35.533 36.977 44.303
Na 36.045 52.744 54.029
O 24.901 52.29 51.995
O 32.33 43.493 36.27
O 34.03 51.908 48.431
O 32.484 39.866 55.898
O 30.247 50.397 57.83
O 21.954 43.689 52.203
O 32.884 35.448 43.982
O 37.458 38.603 54.247
O 40.733 34.076 46.972
O 33.547 55.93 43.381
O 34.624 42.468 47.144
O 39.645 51.124 52.771
O 32.586 46.087 34.72
O 38.806 41.967 52.515
O 31.718 50.328 50.467
O 30.885 47.152 58.49
O 42.228 51.872 52.946
O 37.603 54.09 36.874
O 30.798 55.98 50.701
O 36.137 54.707 47.034
O 35.047 57.531 39.733
O 32.848 56.56 52.79
O 42.098 48.166 37.965
O 38.829 49.07 31.297
O 32.229 48.197 51.93
O 28.288 44.115 42.157
O 38.916 52.01 32.064
O 39.083 52.778 54.927
O 36.801 54.519 43.989
O 34.33 47.058 35.839
O 26.166 52.854 46.693
O 31.442 49.918 38.638
O 27.779 46.239 43.778
O 30.128 53.045 49.088
O 35.998 54.064 51.222
O 35.8 40.266 38.185
O 38.11 53.8 52.342
O 29.555 46.662 46.322
O 35.84 42.538 57.24
O 37.77 49.323 42.741
O 34.909 40.162 40.192
O 26.051 54.568 53.65
O 38.685 57.888 54.719
O 24.686 40.366 47.281
O 36.685 59.221 51.626
O 38.584 33.255 44.327
O 30.409 37.825 43.689
O 29.172 50.2 48.425
O 33.462 42.924 54.583
O 29.263 57.353 47.75
O 25.063 46.875 39.686
O 37.329 43.272 36.635
O 31.434 51.37 36.637
O 27.97 51.193 54.054
O 36.242 36.632 49.531
O 35.998 33.114 43.272
O 36.087 52.32 37.839
O 32.809 39.934 49.526
O 33.267 49.089 41.3
O 42.303 51.756 47.762
O 40.166 45.084 54.475
O 36.115 47.947 57.122
O 37.603 39.466 51.337
O 29.977 50.025 55.681
O 38.696 57.437 57.182
O 33.794 56.833 46.106
O 32.099 40.922 43.526
O 34.983 47.227 55.413
O 33.548 46.777 43.633
O 37.008 46.736 44.303
O 27.21 44.915 40.162
O 30.16 50.975 34.524
O 37.205 34.002 50.022
O 29.781 43.309 53.897
O 39.834 55.328 46.991
O 32.254 53.515 45.469
O 32.903 48.551 33.609
O 39.64 39.576 56.348
O 29.255 55.539 42.532
O 31.879 55.375 48.019
O 31.749 47.537 40.849
O 31.358 39.252 36.585
O 35.795 40.644 50.88
O 29.147 42.049 40.598
O 33.429 56.825 48.595
O 36.8 31.274 41.013
O 32.823 52.029 52.37
O 29.856 46.113 56.703
O 34.384 57.658 42.083
O 38.688 48.38 45.352
O 39.724 51.06 46.718
O 30.114 49.385 53.351
O 27.409 57.141 42.66
O 32.193 34.817 40.454
O 35.318 54.462 35.57
O 40.644 44.475 37.494
O 32.252 49.193 47.517
O 25.214 40.246 50.134
O 35.692 41.76 34.177
O 34.114 35.713 46.515
O 36.817 37.38 51.675
O 31.308 41.03 53.868
O 37.155 38.97 40.989
O 33.878 56.475 59.72
O 31.547 56.696 55.17
O 38.696 30.883 43.229
O 31.269 44.941 32.984
O 28.487 47.652 53.572
O 33.453 54.701 51.781
O 31.211 56.956 35.773
O 26.827 38.754 48.106
O 36.542 34.821 41.955
O 33.645 39.909 52.16
O 36.04 57.475 57.67
O 33.386 46.348 50.318
O 25.959 43.248 47.027
O 29.931 55.761 44.616
O 35.803 57.681 53.654
O 36.678 46.875 40.602
O 38.784 44.157 50.705
O 29.647 42.765 50.736
O 32.256 46.71 56.603
O 36.405 46.299 37.519
O 35.244 44.44 37.319
O 26.055 42.137 41.776
O 34.184 48.452 59.501
O 32.414 33.011 39.22
O 32.081 47.191 54.461
O 35.934 45.985 42.469
O 31.602 42.544 45.783
O 39.199 39.015 43.964
O 22.627 41.651 50.167
O 36.399 47.621 52.922
O 34.587 38.378 54.556
O 39.372 47.593 53.489
O 33.308 41.152 41.522
O 28.001 55.325 50.766
O 34.491 30.77 46.735
O 26.374 53.253 41.419
O 39.99 39.534 51.904
O 40.673 37.651 44.885
O 26.362 55.899 44.144
O 30.109 48.309 36.131
O 38.278 56.39 34.887
O 30.816 47.124 43.877
O 33.204 55.026 41.103
O 24.395 45.467 51.435
O 34.368 33.378 45.237
O 32.668 41.843 39.067
O 34.353 42.37 49.495
O 34.092 44.254 44.32
O 32.374 37.163 51.355
O 26.647 49.718 47.157
O 23.481 43.197 47.543
O 31.815 57.263 45.075
O 40.293 57.193 52.427
O 26.284 47.246 41.59
O 31.158 37.572 45.994
O 40.3 36.05 40.7
O 29.347 42.171 45.413
O 27.074 40.563 39.312
O 29.457 54.438 36.791
O 37.52 35.164 45.707
O 32.349 54.56 38.524
O 25.869 36.788 45.838
O 36.032 56.502 49.186
O 24.665 52.096 48.669
O 40.196 51.677 39.231
O 35.826 54.847 38.167
O 27.725 46.583 48.447
O 31.392 56.378 39.587
O 38.01 56.638 51.62
O 40.838 40.131 41.614
O 28.584 45.546 34.732
O 40.324 42.635 36.016
O 36.959 55.005 57.413
O 33.894 43.538 40.384
O 33.56 58.405 51.13
O 38.552 36.003 47.437
O 38.604 51.744 41.346
O 22.985 51.131 41.585
O 38.568 53.967 50.198
O 27.125 44.516 37.501
O 38.638 48.827 37.901
O 36.566 48.865 45.684
O 23.585 49.717 51.698
O 38.251 41.413 37.661
O 35.002 50.37 53.825
O 40.349 33.304 41.177
O 39.528 47.063 40.557
O 34.865 50.637 46.801
O 39.239 49.041 51.133
O 23.287 46.834 48.818
O 27.874 33.464 47.384
O 32.846 50.038 56.493
O 31.234 43.464 43.251
O 39.748 54.056 36.206
O 37.159 30.547 46.724
O 36.516 44.034 34.174
O 36.904 54.586 41.793
O 40.983 49.07 48.041
O 38.094 50.989 49.754
O 31.257 44.358 51.092
O 31.285 52.849 34.228
O 38.78 36.562 42.502
O 24.878 43.506 50.284
O 40.461 51.484 50.229
O 26.397 50.49 49.722
O 29.291 53.725 39.126
O 29.853 39.773 46.989
O 34.066 53.885 49.408
O 38.04 44.595 39.198
O 35.034 50.578 40.027
O 30.169 36.239 49.156
O 23.365 41.003 44.987
O 29.503 53.396 43.912
O 34.204 35.282 49.475
O 29.309 49.506 45.239
O 26.765 48.709 43.978
O 37.781 33.021 39.052
O 23.247 49.824 48.776
O 34.394 52.84 46.177
O 27.948 43.245 48.572
O 33.268 38.49 45.026
O 33.187 42.709 33.562
O 42.39 45.371 38.656
O 37.205 51.46 46.884
O 36.101 39.456 43.033
O 30.955 54.379 56.495
O 29.615 57.402 37.347
O 25.468 46.566 53.997
O 28.495 54.48 53.532
O 40.517 45.963 51.754
O 30.996 43.925 48.06
O 38.589 51.006 35.766
O 23.17 48.138 40.886
O 35.656 53.484 58.677
O 32.701 38.598 42.214
O 28.056 40.158 54.292
O 39.52 41.949 40.861
O 37.91 49.795 57.98
O 34.01 39.061 36.96
O 39.422 54.221 45.107
O 29.174 51.139 37.763
O 36.446 54.914 54.061
O 35.6 37.071 36.932
O 36.941 52.18 56.464
O 33.465 40.527 35.041
O 35.709 42.973 52.475
O 27.037 51.918 43.553
O 29.399 52.358 46.08
O 31.515 45.151 53.129
O 35.791 57.384 44.901
O 38.559 49.318 40.297
O 30.695 53.439 53.104
O 40.534 50.018 36.069
O 43.154 38.972 45.769
O 27.318 50.233 41.013
O 38.189 41.608 43.127
O 30.186 34.974 43.173
O 38.686 49.873 33.379
O 34.463 48.203 38.824
O 28.841 40.928 42.861
O 30.19 38.593 40.584
O 37.175 44.512 56.397
O 30.272 42.39 37.595
O 40.346 41.032 38.222
O 35.203 50.261 44.664
O 34.023 53.09 43.91
O 23.707 51.944 43.647
O 34.279 58.0 56.305
O 29.516 50.703 41.081
O 35.492 58.963 47.841
O 41.558 54.762 51.557
O 35.19 41.251 55.002
O 35.964 42.155 43.105
O 30.592 46.561 48.669
O 37.411 49.635 61.542
O 31.743 32.566 46.89
O 38.868 36.834 38.438
O 41.005 43.105 47.516
O 32.52 45.173 45.866
O 29.133 42.04 35.199
O 41.164 55.004 53.881
O 35.976 50.126 56.944
O 41.215 52.032 41.657
O 40.52 56.216 56.62
O 26.679 52.413 55.351
O 25.801 44.315 43.516
O 30.83 45.234 41.651
O 38.213 45.197 46.694
O 38.171 43.125 54.991
O 30.927 53.199 40.867
O 36.251 49.122 35.91
O 26.254 53.848 50.583
O 33.21 36.684 39.705
O 36.632 47.66 50.624
O 37.526 45.597 52.84
O 29.254 46.596 38.507
O 31.657 38.845 38.964
O 40.443 52.733 48.418
O 38.862 54.0 40.963
O 33.772 47.17 47.384
O 30.721 49.255 42.815
O 26.011 55.067 40.228
O 32.627 38.001 53.376
O 31.383 42.308 56.561
O 41.915 43.483 39.942
O 35.656 48.968 42.243
O 39.247 47.14 34.961
O 28.997 45.557 52.378
O 41.935 47.489 35.878
O 36.908 47.584 47.915
O 38.712 52.742 57.567
O 37.263 50.647 53.136
O 41.481 52.655 56.237
O 32.41 38.728 47.709
O 28.732 36.286 46.575
O 27.513 37.816 39.604
O 33.494 44.757 56.3
O 28.691 56.212 38.95
O 29.34 39.66 37.989
O 38.747 46.415 48.462
O 32.384 41.162 47.373
O 34.262 46.965 52.847
O 35.371 50.464 60.959
O 34.483 52.707 40.128
O 37.87 56.507 47.514
O 26.41 39.619 43.42
O 32.8 48.774 45.137
O 34.308 33.121 47.957
O 42.752 44.261 52.878
O 32.19 51.182 42.566
O 32.599 53.517 36.145
O 33.689 45.502 38.67
O 40.71 45.32 41.849
O 37.492 54.612 60.328
O 30.572 34.36 46.412
O 34.415 30.797 42.537
O 41.464 36.253 46.761
O 28.021 35.143 40.596
O 33.872 50.523 36.959
O 36.144 34.572 47.31
O 38.523 46.114 42.817
O 26.018 45.269 48.0
O 35.062 50.156 51.212
O 35.725 48.453 33.013
O 37.765 49.304 54.806
O 34.641 36.168 42.457
O 33.943 44.592 49.112
O 37.774 43.969 44.9
O 40.618 48.928 58.161
O 34.196 51.64 34.002
O 36.483 51.152 35.074
O 31.411 56.074 42.243
O 27.986 38.049 41.74
O 28.73 51.543 51.349
O 27.327 49.045 38.502
O 28.403 39.977 49.484
O 42.779 49.169 40.93
O 30.609 45.454 35.664
O 26.497 44.214 51.598
O 28.574 44.703 46.284
O 31.732 42.196 51.333
C 44.622 43.983 46.852
H 33.239 51.649 34.134
H 37.544 45.37 56.153
H 37.584 44.321 57.251
H 34.46 50.762 34.303
H 29.725 41.82 38.149
H 30.544 41.812 36.871
H 40.055 48.731 51.544
H 39.253 48.632 50.259
H 35.943 50.747 44.28
H 30.127 39.408 41.097
H 30.529 37.949 41.217
H 34.426 50.687 44.28
H 36.003 42.399 44.038
H 35.896 43.002 42.648
H 35.706 41.815 54.412
H 34.861 40.552 54.423
H 38.939 44.363 39.461
H 31.498 46.231 48.628
H 30.071 45.776 48.881
H 37.713 43.796 38.768
H 34.931 53.129 43.585
H 24.196 51.319 44.196
H 24.261 52.735 43.651
H 33.49 53.268 43.125
H 37.947 49.704 33.977
H 33.815 47.679 38.335
H 35.196 48.297 38.203
H 36.229 47.811 33.528
H 40.529 41.777 38.809
H 40.191 40.296 38.827
H 33.859 36.734 42.482
H 35.104 47.908 32.513
H 35.137 36.496 41.696
H 34.831 50.518 36.85
H 33.686 49.679 37.39
H 28.923 40.134 43.405
H 28.492 41.589 43.472
H 32.291 44.825 53.602
H 38.848 51.921 42.263
H 30.898 45.384 53.834
H 36.12 52.629 56.226
H 37.64 51.705 41.368
H 37.133 51.629 55.694
H 29.477 50.486 37.119
H 27.783 51.795 44.153
H 26.281 52.019 44.145
H 30.335 52.209 46.263
H 28.948 51.757 46.686
H 28.842 51.862 37.216
H 37.253 55.153 54.533
H 35.808 37.235 37.86
H 35.792 54.81 54.764
H 23.726 50.818 41.051
H 34.85 43.391 52.336
H 23.568 47.685 49.177
H 38.213 40.449 37.7
H 30.324 34.029 45.54
H 30.743 35.298 46.261
H 41.371 53.965 51.047
H 22.476 47.044 48.339
H 35.045 58.346 48.433
H 33.928 57.313 56.884
H 30.213 50.563 40.428
H 29.982 51.086 41.835
H 39.492 35.856 47.604
H 38.142 35.865 48.299
H 36.027 42.8 51.581
H 32.668 41.065 35.123
H 37.475 41.694 38.161
H 34.721 49.736 50.412
H 23.156 50.624 49.31
H 24.198 49.751 48.633
H 39.907 46.938 39.678
H 40.031 47.803 40.92
H 38.043 33.896 38.739
H 27.613 42.541 49.142
H 28.316 43.886 49.193
H 35.332 52.755 46.392
H 34.124 53.641 46.644
H 30.041 49.453 45.866
H 29.304 50.434 44.971
H 27.721 48.576 43.969
H 26.547 48.869 43.051
H 36.831 33.105 39.198
H 38.266 49.035 57.503
H 38.099 50.541 57.398
H 39.438 33.066 40.963
H 38.719 41.813 40.338
H 39.548 42.905 40.992
H 29.092 40.275 47.309
H 30.21 39.364 47.787
H 33.569 38.245 37.226
H 33.398 39.754 37.237
H 40.27 33.791 42.007
H 33.569 38.85 41.876
H 32.138 39.348 41.985
H 39.763 53.414 44.703
H 38.743 53.903 45.716
H 33.967 50.691 46.451
H 34.847 49.85 47.359
H 33.829 54.491 48.694
H 34.362 47.513 52.059
H 33.562 46.345 52.608
H 33.219 53.519 49.69
H 35.802 50.867 60.195
H 31.496 53.928 55.834
H 30.228 54.75 55.98
H 37.678 51.003 47.592
H 37.512 52.372 46.955
H 36.187 39.043 43.901
H 35.35 40.053 43.136
H 35.606 50.88 50.877
H 29.441 34.386 43.349
H 30.111 35.65 43.858
H 33.747 38.3 44.21
H 32.669 39.206 44.78
H 32.577 43.399 33.85
H 34.055 43.126 33.635
H 38.769 47.408 35.757
H 34.703 35.12 50.286
H 23.563 41.809 45.481
H 33.283 35.267 49.765
H 29.392 52.872 43.109
H 28.642 53.816 44.032
H 31.132 36.311 49.144
H 29.877 37.113 49.444
H 41.758 46.071 38.864
H 42.969 45.348 39.428
H 39.152 47.897 34.371
H 32.783 41.632 48.116
H 31.439 41.185 47.569
H 34.623 51.159 53.418
H 35.356 50.691 54.664
H 23.635 45.215 50.895
H 24.21 45.066 52.293
H 24.465 43.765 49.45
H 26.395 49.146 47.893
H 26.965 50.52 47.59
H 39.666 38.844 52.496
H 30.13 54.135 38.882
H 31.05 48.136 36.002
H 25.628 42.964 50.009
H 40.334 40.208 52.503
H 40.9 38.511 45.26
H 41.365 37.497 44.23
H 29.678 47.537 35.742
H 31.605 56.699 45.83
H 22.662 43.448 47.988
H 23.424 43.643 46.689
H 32.236 36.213 51.457
H 32.632 37.259 50.43
H 32.927 54.104 41.17
H 34.158 54.99 41.243
H 31.205 46.474 44.475
H 30.426 47.777 44.472
H 27.193 44.968 36.651
H 27.498 43.643 37.328
H 32.973 49.305 57.108
H 32.698 50.798 57.069
H 43.611 44.238 47.21
H 41.165 51.824 55.86
H 39.239 36.318 43.315
H 37.887 36.777 42.798
H 40.875 53.387 48.981
H 40.031 53.264 47.725
H 30.621 45.073 50.97
H 31.79 44.386 50.287
H 38.366 50.997 50.681
H 37.723 51.87 49.617
H 31.253 43.262 56.625
H 41.826 49.069 41.047
H 32.07 42.126 57.214
H 30.585 42.954 43.75
H 31.742 43.92 43.934
H 28.245 46.072 52.061
H 28.604 44.939 53.007
H 32.229 38.867 39.741
H 40.394 50.799 49.551
H 33.936 43.348 44.025
H 34.805 44.562 43.748
H 35.195 42.772 49.247
H 34.193 42.704 50.387
H 32.851 40.944 39.365
H 33.541 33.329 45.733
H 34.088 33.638 44.35
H 33.516 42.147 38.722
H 35.723 44.247 34.681
H 36.182 43.88 33.281
H 26.803 51.363 49.655
H 36.354 54.959 41.093
H 36.685 53.646 41.78
H 31.8 37.964 38.598
H 26.291 50.359 50.672
H 39.43 54.596 41.467
H 38.871 54.372 40.072
H 25.821 55.865 39.719
H 25.695 46.54 41.886
H 27.167 46.881 41.728
H 26.195 54.402 39.553
H 41.139 48.517 47.266
H 40.024 49.176 48.059
H 31.548 48.788 42.642
H 30.901 49.748 43.625
H 39.259 53.371 50.512
H 35.973 50.796 39.986
H 34.759 50.573 39.101
H 30.619 52.512 53.364
H 30.101 53.514 52.347
H 33.705 37.318 40.238
H 37.751 49.496 39.8
H 39.244 49.774 39.792
H 33.834 36.426 39.016
H 26.89 40.045 40.105
H 29.565 41.233 45.361
H 28.692 42.215 46.121
H 27.108 41.472 39.634
H 29.152 45.95 37.797
H 29.618 47.371 38.061
H 38.163 42.44 42.638
H 37.725 40.989 42.55
H 41.289 49.984 35.468
H 40.647 50.856 36.534
H 36.375 55.472 56.802
H 37.454 55.713 57.843
H 36.172 56.566 45.245
H 31.149 52.95 41.773
H 31.364 52.526 40.33
H 37.329 43.305 54.555
H 38.829 43.35 54.322
H 34.579 43.721 41.039
H 33.075 43.562 40.895
H 27.49 50.506 41.923
H 26.363 50.095 40.992
H 36.89 48.524 35.503
H 35.499 49.101 35.305
H 29.767 55.065 36.127
H 28.81 53.902 36.316
H 41.197 40.45 40.777
H 39.943 39.851 41.387
H 29.503 52.785 39.184
H 27.646 45.417 34.545
H 27.93 46.11 49.262
H 28.47 47.187 48.338
H 30.799 55.829 40.115
H 32.05 56.682 40.224
H 28.918 45.985 33.94
H 33.024 54.835 37.891
H 32.193 53.633 38.305
H 30.495 45.408 42.54
H 31.995 37.15 46.223
H 30.613 37.442 46.781
H 42.06 52.126 41.201
H 38.878 54.239 49.325
H 40.625 52.623 41.173
H 40.984 35.817 40.059
H 39.633 35.362 40.583
H 26.188 44.541 42.661
H 26.428 43.685 43.892
H 31.776 45.095 41.786
H 38.17 35.354 45.019
H 36.675 35.372 45.288
H 39.583 48.933 37.734
H 38.565 47.928 38.243
H 25.364 52.757 48.74
H 24.286 52.255 47.796
H 38.058 37.253 38.12
H 38.754 35.906 38.2
H 40.996 51.149 39.344
H 40.296 52.06 38.351
H 36.566 57.216 49.556
H 36.083 55.808 49.856
H 31.937 45.279 46.629
H 36.011 48.132 45.979
H 36.863 49.273 46.506
H 33.385 45.005 46.26
H 23.579 50.526 52.225
H 35.155 54.64 38.829
H 36.597 55.095 38.692
H 23.297 49.037 52.32
H 36.328 48.213 48.361
H 36.547 46.724 48.165
H 32.425 41.532 41.439
H 33.798 41.816 42.023
H 26.455 52.316 41.203
H 25.878 53.256 42.247
H 39.944 48.344 53.693
H 39.282 47.136 54.334
H 26.708 39.658 47.79
H 26.406 38.216 47.424
H 37.277 35.126 41.409
H 36.02 34.276 41.353
H 37.662 50.033 52.507
H 36.804 51.284 52.575
H 26.6 42.629 46.656
H 25.634 42.797 47.816
H 29.601 55.605 45.509
H 29.763 56.7 44.469
H 38.828 53.699 57.606
H 38.133 52.55 58.315
H 31.465 47.934 54.47
H 32.929 47.593 54.684
H 35.176 46.504 42.173
H 35.947 45.232 41.865
H 41.049 47.835 36.039
H 34.526 46.575 47.292
H 36.098 48.538 52.913
H 37.237 47.66 53.401
H 34.836 38.32 55.487
H 35.354 38.023 54.09
H 33.969 47.886 46.767
H 23.588 41.731 50.119
H 22.312 42.54 49.961
H 28.91 35.815 47.398
H 28.59 35.579 45.933
H 33.37 38.796 47.629
H 32.285 38.076 48.409
H 32.528 42.808 45.852
H 31.118 43.359 45.965
H 29.659 42.28 49.901
H 29.035 42.26 51.285
H 40.306 43.731 47.29
H 40.539 42.266 47.618
H 33.187 46.908 56.767
H 31.836 47.579 56.588
H 26.933 42.382 42.092
H 25.508 42.166 42.571
H 39.557 44.299 50.144
H 36.273 47.394 39.895
H 37.444 46.469 40.178
H 38.215 44.911 50.507
H 30.601 56.925 50.707
H 30.488 55.676 51.563
H 41.656 52.63 52.774
H 36.187 51.834 35.69
H 35.472 55.266 47.455
H 36.415 54.11 47.739
H 32.687 40.521 50.282
H 33.485 39.313 49.824
H 39.064 45.216 46.24
H 31.072 49.863 51.014
H 32.567 50.082 50.855
H 38.193 44.325 47.108
H 28.129 48.462 53.956
H 29.286 47.487 54.087
H 35.831 50.638 57.749
H 35.085 49.892 56.657
H 34.244 39.272 52.57
H 33.274 40.39 52.91
H 33.536 47.094 49.723
H 32.467 46.457 50.593
H 32.63 54.894 51.315
H 34.117 55.202 51.29
H 40.33 55.489 53.83
H 40.058 55.421 56.914
H 40.095 56.43 55.779
H 41.209 54.723 54.803
H 34.306 49.18 58.879
H 29.791 42.721 35.014
H 35.786 58.569 54.032
H 35.948 57.109 54.418
H 34.913 43.577 37.04
H 34.736 45.064 36.786
H 37.092 45.621 37.498
H 36.845 47.081 37.164
H 36.929 51.651 34.378
H 31.092 45.958 36.331
H 30.423 44.614 36.101
H 37.426 39.846 40.688
H 37.912 38.41 40.776
H 31.805 41.479 54.562
H 32.155 54.341 45.958
H 31.484 53.501 44.886
H 29.676 51.4 51.477
H 28.36 50.652 51.365
H 29.444 46.8 56.165
H 30.198 45.487 56.053
H 28.659 39.068 49.281
H 28.978 40.217 50.222
H 31.043 40.197 54.278
H 31.727 45.315 32.221
H 30.351 44.878 32.692
H 26.772 48.278 38.314
H 28.019 48.998 37.83
H 28.443 44.289 45.422
H 36.19 37.018 52.314
H 37.643 37.435 52.171
H 35.667 41.239 34.99
H 33.22 35.352 46.548
H 34.378 35.59 45.595
H 24.605 39.752 49.572
H 25.682 40.821 49.516
H 31.497 48.593 47.463
H 32.735 48.884 48.294
H 35.409 53.807 36.273
H 35.834 55.214 35.889
H 27.763 44.495 46.764
H 39.768 44.549 37.095
H 32.119 42.614 52.112
H 31.803 34.434 41.25
H 33.138 34.657 40.562
H 31.17 41.503 51.7
H 41.243 44.502 36.738
H 35.143 58.222 41.891
H 33.726 57.929 41.431
H 38.842 47.977 46.215
H 39.529 48.807 45.145
H 40.367 50.501 46.264
H 30.347 50.32 53.297
H 29.616 49.225 52.54
H 26.492 44.968 50.995
H 26.485 44.621 52.473
H 39.347 51.597 46.009
H 32.618 57.281 48.853
H 33.839 56.592 49.437
H 30.813 38.465 36.704
H 31.253 39.464 35.649
H 37.492 31.944 40.948
H 30.814 47.356 41.009
H 32.056 46.755 40.374
H 39.211 38.641 43.074
H 38.346 39.465 44.013
H 29.5 42.44 41.407
H 29.843 41.444 40.313
H 31.129 55.958 47.847
H 31.733 55.074 48.924
H 36.083 40.909 49.998
H 35.449 39.752 50.751
H 33.205 45.976 43.217
H 33.945 46.458 44.453
H 37.62 46.484 45.005
H 26.747 44.193 39.719
H 27.744 45.309 39.46
H 36.154 46.412 44.615
H 33.011 48.58 32.65
H 32.737 49.471 33.849
H 31.428 56.697 42.98
H 31.557 55.217 42.664
H 28.04 39.011 41.67
H 27.622 37.904 42.622
H 39.273 40.351 55.904
H 29.004 54.751 42.033
H 29.248 56.241 41.869
H 35.128 48.58 42.952
H 35.235 49.822 42.084
H 41.733 42.664 40.42
H 41.048 43.756 39.617
H 32.788 52.766 52.993
H 32.386 51.309 52.842
H 30.073 43.576 54.777
H 29.567 42.373 54.0
H 30.47 46.917 46.494
H 29.091 47.506 46.25
H 35.021 39.206 40.262
H 35.339 40.502 40.986
H 37.878 50.175 43.182
H 37.559 48.716 43.462
H 36.395 42.325 58.001
H 36.4 42.328 56.482
H 33.774 55.872 46.184
H 34.508 57.097 46.7
H 39.561 53.435 55.449
H 39.158 51.971 55.452
H 33.515 43.922 56.783
H 32.69 44.695 55.769
H 30.875 53.096 48.479
H 36.444 53.262 50.922
H 35.897 53.928 52.173
H 27.026 37.047 39.284
H 27.116 52.963 46.831
H 25.996 53.341 45.877
H 28.438 37.558 39.509
H 36.667 54.355 44.931
H 37.657 54.112 43.805
H 28.498 39.89 37.578
H 29.122 39.57 38.925
H 38.244 57.1 54.377
H 24.172 39.815 46.677
H 25.184 40.947 46.693
H 33.753 47.768 35.531
H 34.964 46.949 35.119
H 28.816 56.714 39.766
H 28.044 55.538 39.193
H 29.367 52.925 48.506
H 26.318 44.71 48.728
H 25.117 45.508 48.251
H 37.928 40.373 51.272
H 37.557 39.172 50.419
H 38.122 46.88 42.387
H 38.07 45.362 42.417
H 36.193 52.631 38.747
H 36.555 51.476 37.83
H 35.739 35.222 47.898
H 36.543 33.934 47.913
H 36.423 32.251 43.351
H 36.461 33.658 43.921
H 32.488 41.693 43.956
H 29.099 50.414 55.776
H 29.797 49.094 55.5
H 35.203 48.062 54.98
H 35.235 46.559 54.763
H 31.222 40.855 43.924
H 33.873 45.615 39.611
H 32.736 45.639 38.605
H 26.842 39.803 44.263
H 26.723 40.325 42.842
H 37.796 56.088 46.647
H 35.99 53.102 59.499
H 35.028 54.154 58.974
H 37.837 55.765 48.13
H 34.194 43.554 54.589
H 33.568 42.457 53.745
H 38.538 51.621 36.509
H 38.182 50.2 36.107
H 23.022 47.849 39.977
H 32.606 49.713 45.027
H 33.673 48.672 44.737
H 29.052 55.22 53.26
H 28.95 54.123 54.305
H 39.613 46.269 51.606
H 41.014 46.779 51.895
H 30.058 43.837 47.85
H 31.192 43.132 48.575
H 22.613 48.921 40.972
H 34.705 52.812 41.061
H 28.536 51.852 53.635
H 27.407 50.882 53.334
H 33.615 52.284 40.144
H 32.481 51.351 43.471
H 32.977 51.359 42.036
H 38.511 46.777 49.325
H 32.1 50.622 38.596
H 31.533 49.467 37.79
H 39.547 45.904 48.638
H 28.468 46.382 44.439
H 36.036 39.422 37.781
H 35.35 40.742 37.476
H 27.003 46.003 44.302
H 38.33 52.865 52.441
H 38.317 33.166 45.25
H 38.881 54.256 52.7
H 33.378 53.24 35.647
H 29.455 37.845 43.838
H 30.648 38.756 43.607
H 28.597 50.209 49.2
H 29.206 49.268 48.175
H 29.339 56.964 48.63
H 29.119 58.291 47.926
H 24.688 47.016 38.807
H 25.973 46.61 39.506
H 37.16 42.566 35.999
H 37.606 44.015 36.085
H 42.502 43.745 52.101
H 35.487 37.056 49.103
H 36.938 37.299 49.483
H 43.674 44.02 53.027
H 32.043 51.162 35.917
H 30.916 52.108 36.292
H 32.666 55.886 53.458
H 25.983 54.666 50.147
H 41.849 48.299 38.888
H 42.788 48.825 37.817
H 26.977 53.523 50.032
H 34.531 57.256 38.964
H 42.424 36.3 46.853
H 32.172 35.584 44.62
H 32.473 34.916 43.29
H 41.171 37.151 46.963
H 38.569 41.421 53.276
H 38.049 42.557 52.412
H 38.264 45.43 53.439
H 31.993 46.634 34.189
H 35.773 47.343 50.316
H 36.749 45.525 53.409
H 33.304 45.87 34.112
H 37.937 53.472 37.536
H 37.605 53.575 36.058
H 37.057 46.867 50.973
H 28.386 45.065 42.017
H 28.785 43.95 42.968
H 32.564 48.625 52.728
H 31.552 47.593 52.261
H 33.226 44.868 48.527
H 34.741 44.842 48.631
H 37.299 44.178 44.086
H 38.015 43.041 44.793
H 42.504 50.942 47.283
H 42.767 52.437 47.26
H 38.512 49.69 55.279
H 37.184 48.992 55.511
H 33.096 49.687 40.562
H 33.879 48.44 40.931
H 36.273 48.147 58.053
H 36.41 47.032 57.03
H 41.017 45.015 54.024
H 40.383 44.911 55.4
H 32.307 43.099 37.15
H 25.625 51.777 52.376
H 24.828 51.949 51.095
H 32.673 44.382 36.425
H 34.706 51.801 49.111
H 33.457 51.141 48.554
H 34.102 55.289 43.842
H 33.614 56.725 43.924
H 34.616 43.202 46.516
H 34.381 41.704 46.606
H 39.952 45.044 41.319
H 41.459 45.215 41.249
H 40.449 50.625 52.579
H 39.393 50.821 53.652
