65
xyz format
O 25.793 52.139 64.387
O 24.314 48.324 61.396
O 26.367 48.11 66.415
O 25.241 53.742 62.868
O 25.907 42.907 64.135
O 29.561 52.174 65.614
O 27.815 49.028 59.144
O 25.706 51.594 60.107
O 31.898 50.66 64.627
O 26.832 46.396 62.36
O 26.63 45.558 65.002
O 29.341 50.501 63.325
O 27.974 52.504 62.194
O 26.988 49.417 61.918
O 25.527 49.277 63.578
O 27.781 50.677 65.406
O 24.319 48.7 59.178
O 28.751 48.204 64.379
O 24.725 48.181 56.839
O 30.204 48.041 61.625
O 30.92 51.039 60.645
H 28.815 52.779 62.58
H 27.657 51.821 62.798
H 25.514 48.219 57.394
H 27.525 54.065 59.976
H 28.478 50.031 65.579
H 26.984 50.251 65.744
H 29.372 47.839 63.736
H 28.094 48.654 63.834
H 23.659 49.304 59.539
H 25.157 49.065 59.489
H 27.446 50.088 61.396
H 26.605 48.831 61.253
H 29.982 47.486 60.866
H 29.465 48.659 61.681
H 27.469 45.352 65.433
H 26.06 44.817 65.246
H 25.168 50.172 63.534
H 25.403 49.025 64.501
H 29.72 50.691 62.458
H 30.008 49.948 63.75
H 27.576 46.433 62.974
H 26.07 46.242 62.932
H 31.763 51.255 61.062
H 30.962 50.082 60.525
H 31.666 51.382 65.224
H 31.997 49.9 65.214
H 28.913 44.214 62.181
H 26.298 50.944 59.709
H 28.247 48.241 59.498
H 28.384 49.752 59.434
H 25.478 43.514 63.519
H 24.615 53.493 62.177
H 26.083 53.811 62.401
H 29.596 52.629 64.764
H 29.13 52.812 66.198
H 31.386 52.71 63.445
H 30.41 45.842 62.249
H 26.502 52.793 64.405
H 25.64 51.94 65.319
H 23.9 48.569 62.233
H 24.793 47.512 61.606
H 23.876 51.915 58.909
H 26.978 48.004 65.675
H 26.923 47.972 67.192
