865
xyz format
Cl 62.646 58.926 60.688
O 68.971 51.431 66.409
O 48.289 54.675 60.198
O 63.168 58.198 58.623
O 61.531 64.618 56.662
O 59.509 53.567 70.493
O 62.038 56.92 63.279
O 58.228 51.797 74.53
O 47.424 54.104 66.271
O 55.968 59.682 62.992
O 63.229 49.027 63.19
O 58.119 54.41 60.805
O 60.311 48.424 64.719
O 52.342 61.133 68.723
O 64.723 51.009 61.033
O 51.025 49.636 71.163
O 70.082 54.827 62.669
O 66.925 61.162 65.676
O 61.15 51.715 61.861
O 65.515 50.061 67.201
O 65.032 58.193 53.772
O 49.199 54.548 65.05
O 48.067 51.742 61.864
O 58.796 59.374 64.961
O 63.682 51.245 66.618
O 55.515 65.421 64.893
O 65.019 50.15 57.858
O 67.1 66.698 63.22
O 56.1 64.089 69.08
O 50.429 46.887 61.906
O 53.691 45.986 67.672
O 49.235 60.47 57.866
O 59.139 60.722 52.596
O 51.694 59.22 57.721
O 68.357 48.068 68.253
O 52.85 63.112 63.59
O 64.954 62.354 66.872
O 60.87 45.858 66.347
O 64.423 56.929 66.829
O 63.193 49.181 57.119
O 57.164 67.559 68.051
O 61.128 58.983 57.055
O 61.631 61.417 54.456
O 46.699 55.348 70.014
O 71.535 55.489 64.188
O 56.871 54.921 68.371
O 48.699 60.73 73.193
O 57.393 50.847 72.057
O 48.289 51.398 67.62
O 46.774 49.983 71.37
O 45.731 53.856 60.759
O 59.294 51.231 58.69
O 59.878 66.912 54.031
O 61.224 67.401 63.609
O 62.268 49.56 69.406
O 61.826 62.956 59.73
O 61.932 50.662 59.556
O 59.521 47.544 70.035
O 57.996 62.756 72.8
O 59.315 59.568 71.552
O 57.782 65.822 55.598
O 44.804 60.501 60.742
O 56.806 65.979 70.41
O 47.298 56.666 66.583
O 59.475 44.985 61.593
O 51.219 52.43 70.538
O 63.319 59.946 67.882
O 62.184 60.764 71.62
O 59.054 65.661 65.039
O 67.461 64.799 62.139
O 54.899 66.253 56.186
O 65.671 61.294 58.902
O 55.974 50.296 69.876
O 47.926 61.005 61.121
O 61.228 59.219 53.159
O 67.277 61.685 54.283
O 56.347 56.773 69.443
O 54.745 47.562 72.214
O 51.385 60.879 53.472
O 54.146 46.555 63.835
O 59.769 50.395 70.355
O 69.161 52.654 63.008
O 60.537 63.447 55.094
O 61.378 51.59 68.789
O 55.729 60.392 59.571
O 51.724 53.542 64.725
O 53.87 53.66 68.672
O 50.654 50.674 67.209
O 64.268 53.989 62.977
O 54.912 63.025 55.92
O 52.78 57.819 67.129
O 53.677 64.195 67.324
O 67.82 55.291 60.46
O 67.848 60.506 61.688
O 55.779 60.703 52.103
O 49.581 59.632 54.869
O 43.351 53.627 60.992
O 60.777 65.268 60.86
O 70.478 65.422 59.228
O 49.944 52.038 65.237
O 57.848 68.567 65.353
O 56.971 65.614 66.749
O 58.991 62.781 56.522
O 64.113 56.623 64.676
O 62.882 52.385 57.515
O 44.582 51.93 66.294
O 56.551 62.57 64.886
O 65.57 48.977 59.756
O 67.853 48.054 64.624
O 52.149 60.996 55.772
O 64.193 63.194 52.568
O 68.628 50.902 61.299
O 56.375 46.639 69.781
O 59.135 57.985 54.928
O 54.5 64.222 51.801
O 55.016 54.74 74.581
O 66.957 52.591 60.533
O 56.402 51.536 63.405
O 62.008 47.645 59.223
O 45.306 56.67 62.387
O 47.052 57.775 61.629
O 58.954 55.719 71.991
O 60.014 61.846 50.729
O 44.16 58.405 59.33
O 64.364 61.958 70.047
O 59.051 56.579 63.042
O 53.335 59.822 59.477
O 53.887 51.634 67.558
O 67.303 47.911 62.304
O 63.967 57.638 61.957
O 52.648 62.02 61.581
O 59.661 62.547 61.16
O 60.257 52.488 65.709
O 47.15 59.032 58.231
O 49.151 47.639 66.853
O 68.284 54.102 67.92
O 67.241 56.179 63.668
O 64.807 59.715 55.941
O 55.73 44.345 65.835
O 62.059 55.315 65.918
O 66.727 55.814 66.239
O 54.183 62.051 70.321
O 68.523 55.167 58.358
O 61.481 62.579 66.845
O 50.248 60.15 67.523
O 67.902 52.872 64.805
O 50.197 49.745 63.746
O 61.51 56.232 56.192
O 61.336 54.159 55.474
O 66.554 56.94 69.479
O 52.245 51.887 61.515
O 64.283 66.522 62.313
O 51.928 47.178 70.185
O 67.749 62.38 60.54
O 57.603 48.38 59.05
O 54.178 49.153 69.305
O 54.925 60.006 67.785
O 61.59 60.384 58.908
O 56.881 44.175 67.708
O 57.776 62.291 50.856
O 54.662 56.543 64.089
O 57.288 67.433 57.747
O 55.544 47.004 66.219
O 63.496 63.416 65.077
O 61.065 47.323 62.157
O 54.503 48.568 61.921
O 52.347 55.403 73.0
O 65.009 47.781 61.968
O 52.492 64.562 57.905
O 60.328 50.152 63.318
O 52.916 55.211 65.598
O 59.691 61.441 58.761
O 54.666 67.197 63.153
O 50.022 54.357 61.744
O 63.765 54.904 56.18
O 52.045 49.715 73.938
O 49.498 55.815 69.244
O 59.336 67.61 69.825
O 63.746 48.714 65.983
O 43.627 58.729 63.446
O 46.166 50.465 65.749
O 56.04 65.471 60.968
O 69.991 57.299 61.878
O 61.23 55.035 60.138
O 54.39 58.038 61.041
O 47.377 48.498 61.554
O 51.36 54.265 68.284
O 45.484 55.421 68.155
O 62.853 44.146 62.449
O 61.329 57.219 66.991
O 58.218 51.392 64.638
O 53.56 66.679 68.589
O 45.654 62.323 59.04
O 58.02 64.553 53.514
O 66.43 57.417 59.538
O 62.029 62.718 69.551
O 68.558 59.38 65.557
O 52.026 64.899 71.153
O 56.798 62.435 53.25
O 62.023 66.342 54.868
O 57.734 62.056 70.046
O 65.642 54.338 58.112
O 59.26 56.624 70.009
O 59.672 53.905 63.461
O 51.398 61.435 71.409
O 58.291 55.897 65.975
O 67.465 53.232 69.817
O 42.855 56.962 61.352
O 65.142 57.127 57.36
O 55.395 58.188 65.856
O 65.126 53.966 60.897
O 49.094 57.43 60.789
O 53.821 50.34 72.797
O 63.676 66.559 57.751
O 56.714 49.376 62.964
O 59.971 48.903 67.52
O 59.036 49.134 60.538
O 70.297 61.437 59.632
O 54.797 52.536 60.356
O 57.868 52.088 68.687
O 58.266 52.377 61.636
O 54.031 61.468 65.908
O 59.831 58.823 61.169
O 67.389 62.821 57.353
O 52.312 48.899 61.152
O 51.159 60.212 73.222
O 53.778 58.748 63.227
O 56.364 54.83 63.474
O 55.106 54.612 70.907
O 53.651 66.875 65.295
O 54.29 59.603 71.774
O 45.016 57.813 65.766
O 43.674 60.899 63.094
O 58.993 65.84 58.401
O 65.587 59.325 64.57
O 70.188 60.699 61.702
O 45.143 55.064 64.304
O 49.121 61.069 69.859
O 66.34 45.882 66.399
O 58.134 55.782 52.161
O 57.663 61.028 61.846
O 53.504 47.74 59.259
O 50.522 60.756 60.53
O 63.215 53.304 68.294
O 48.31 49.359 69.064
O 57.759 47.152 66.821
O 55.395 46.924 60.065
O 58.313 64.255 69.655
O 70.004 49.552 62.361
O 55.939 60.065 56.213
O 56.236 63.753 58.922
O 44.827 51.62 69.107
O 54.572 51.969 70.214
O 45.915 63.195 61.624
O 50.516 53.01 74.369
O 62.963 61.964 56.456
O 62.226 47.078 67.782
O 57.144 58.857 72.231
O 67.231 58.478 62.253
O 58.655 46.414 64.366
O 51.743 56.608 61.237
O 58.796 56.877 59.666
O 55.033 62.941 73.36
O 58.791 66.438 62.945
O 57.798 60.473 57.314
O 53.678 52.437 73.681
O 60.544 60.771 65.385
O 65.242 50.684 64.256
O 50.585 56.881 63.867
O 56.957 60.557 66.723
O 62.204 51.375 64.503
O 57.812 48.611 72.06
O 59.477 54.624 67.64
O 61.593 43.859 64.625
O 53.589 53.425 63.084
O 56.832 46.309 62.245
O 53.187 49.53 64.323
O 51.17 59.369 62.253
O 65.969 52.9 66.381
O 62.406 59.781 62.749
O 63.46 46.096 63.813
O 53.609 61.002 51.89
O 56.405 50.712 66.119
O 60.825 67.465 60.918
O 44.961 53.241 62.831
O 62.105 55.706 69.222
O 48.404 63.435 69.29
O 61.067 53.359 73.111
O 62.641 65.124 62.733
O 56.036 67.297 59.66
O 56.131 58.195 58.527
O 60.517 60.802 70.185
O 66.843 50.424 62.784
O 59.188 61.6 68.093
O 69.996 63.107 63.519
O 49.132 50.328 60.552
O 47.472 63.353 60.031
O 46.676 54.87 62.737
O 58.454 57.81 67.415
O 51.909 51.365 55.163
O 63.848 61.673 60.101
O 62.08 57.686 71.165
O 59.899 46.772 58.819
N 52.353 53.934 53.978
N 50.123 52.271 56.216
N 54.45 50.646 53.996
C 49.365 53.325 56.879
C 56.677 51.811 56.155
C 48.427 51.155 57.474
C 48.124 52.651 57.501
C 51.942 53.806 55.355
C 54.053 49.22 53.886
C 55.642 51.408 57.001
C 54.453 52.135 57.049
C 55.33 53.677 55.408
C 53.052 54.098 56.375
C 51.331 52.398 55.595
C 54.285 53.274 56.25
C 56.517 52.946 55.359
H 56.986 66.541 57.532
H 53.972 60.508 71.883
H 52.734 66.987 65.575
H 54.149 67.425 65.912
H 54.331 59.265 72.677
H 53.717 56.416 63.94
H 57.627 67.769 56.908
H 60.765 60.61 69.273
H 60.007 61.619 70.117
H 44.285 59.029 64.086
H 54.834 56.055 64.904
H 57.346 53.289 54.718
H 59.774 65.658 58.939
H 58.367 65.156 58.667
H 56.188 59.276 55.716
H 55.216 50.759 54.669
H 44.875 57.855 66.72
H 45.843 58.294 65.635
H 43.01 58.21 63.978
H 54.436 47.605 61.924
H 62.854 64.196 62.576
H 62.469 65.163 63.682
H 54.675 48.784 60.996
H 61.296 52.978 73.968
H 64.232 62.862 64.789
H 61.081 52.601 72.513
H 62.767 63.143 64.506
H 56.147 60.79 55.611
H 67.838 62.736 56.502
H 67.122 63.748 57.38
H 60.056 59.601 61.693
H 60.56 58.213 61.339
H 62.719 56.111 68.596
H 61.247 55.79 68.788
H 48.931 50.837 58.421
H 49.166 57.257 59.842
H 48.836 56.576 61.159
H 54.539 50.737 72.289
H 53.283 49.899 72.128
H 63.36 67.103 57.019
H 64.12 65.822 57.314
H 64.856 54.715 60.35
H 64.689 53.211 60.483
H 51.127 54.581 55.525
H 60.627 68.235 61.466
H 52.605 53.958 57.397
H 68.182 63.056 60.003
H 66.93 62.804 60.823
H 60.421 67.679 60.068
H 66.885 52.744 69.219
H 43.34 56.484 60.668
H 42.975 57.89 61.111
H 47.936 53.024 58.534
H 51.476 59.531 73.829
H 50.865 60.921 73.807
H 53.648 51.217 54.314
H 57.063 55.246 63.993
H 54.436 55.2 70.535
H 55.914 55.138 70.879
H 55.89 54.289 64.118
H 55.236 54.601 54.815
H 52.996 58.483 63.727
H 53.729 59.712 63.219
H 55.233 47.918 66.211
H 55.767 46.83 65.296
H 56.53 51.468 66.706
H 64.857 56.53 58.063
H 56.07 57.841 65.259
H 54.717 58.532 65.261
H 64.32 57.358 56.909
H 57.63 51.259 56.147
H 56.297 49.967 66.724
H 60.702 48.127 62.55
H 57.466 45.708 62.655
H 56.299 46.62 62.988
H 65.97 53.7 58.758
H 66.384 54.943 57.991
H 51.996 59.137 61.81
H 59.461 57.353 69.409
H 59.131 55.871 69.42
H 50.743 58.516 62.403
H 57.06 61.458 70.391
H 57.393 62.312 69.18
H 61.715 66.944 55.558
H 62.735 65.85 55.294
H 53.866 57.27 60.781
H 60.06 61.316 64.752
H 55.021 57.679 61.677
H 61.469 60.991 65.217
H 60.824 55.595 59.465
H 62.162 55.282 60.11
H 70.449 56.87 61.144
H 69.26 57.764 61.452
H 57.709 60.843 66.19
H 56.236 60.492 66.085
H 57.103 61.787 53.898
H 56.321 63.084 53.782
H 60.424 54.079 64.041
H 58.938 53.767 64.072
H 52.008 62.149 71.633
H 51.93 60.841 70.865
H 56.138 44.738 67.962
H 51.373 56.572 64.331
H 63.074 51.066 64.223
H 57.875 61.335 50.763
H 61.883 50.667 65.076
H 57.255 62.544 50.084
H 50.306 57.651 64.378
H 59.214 56.161 66.07
H 57.892 56.63 65.489
H 65.247 49.905 64.826
H 65.182 51.421 64.877
H 57.48 61.384 57.351
H 57.259 60.015 57.971
H 58.654 64.099 52.945
H 57.326 64.834 52.905
H 53.592 52.949 74.495
H 53.645 53.106 72.985
H 46.695 47.905 61.894
H 49.998 53.803 57.675
H 50.824 54.875 67.762
H 51.861 53.775 67.62
H 61.806 47.099 62.734
H 52.718 49.741 61.392
H 51.523 49.157 60.66
H 45.053 55.486 67.293
H 45.827 54.519 68.172
H 48.188 48.174 61.965
H 55.61 59.365 68.012
H 55.16 60.785 68.304
H 58.401 57.716 59.4
H 58.217 56.565 60.373
H 55.163 62.128 72.856
H 61.213 59.53 59.155
H 61.466 58.1 67.362
H 61.037 57.394 66.088
H 58.016 52.131 65.226
H 58.423 50.668 65.243
H 61.853 60.771 59.753
H 51.934 55.783 60.774
H 56.552 65.032 61.658
H 55.399 66.0 61.459
H 50.949 56.406 61.748
H 54.133 67.289 68.108
H 54.013 66.558 69.433
H 45.091 63.107 59.027
H 53.652 51.827 57.739
H 57.531 57.983 72.369
H 56.279 58.667 71.848
H 64.888 62.586 69.535
H 65.023 61.354 70.412
H 48.914 46.892 66.289
H 48.932 48.411 66.317
H 50.118 53.175 73.505
H 69.138 54.155 67.474
H 67.648 54.064 67.195
H 67.335 55.252 63.415
H 68.152 56.489 63.742
H 67.096 47.097 62.78
H 67.63 47.602 61.451
H 54.004 51.955 66.655
H 54.752 51.773 67.964
H 52.824 59.013 59.601
H 53.859 59.644 58.686
H 59.201 56.028 63.82
H 58.645 57.378 63.401
H 44.771 57.746 58.977
H 59.622 55.961 72.644
H 58.123 55.784 72.478
H 64.537 56.985 62.382
H 64.323 58.483 62.257
H 54.238 52.482 70.96
H 53.808 51.454 69.928
H 53.215 64.64 58.54
H 58.653 60.802 68.194
H 59.541 61.528 67.198
H 69.19 49.035 62.324
H 49.599 55.493 70.149
H 53.56 54.808 66.194
H 48.635 55.477 68.976
H 52.279 55.623 66.194
H 64.584 48.281 66.189
H 63.113 47.986 65.953
H 54.647 68.0 63.688
H 60.182 51.021 63.711
H 59.444 49.871 63.05
H 65.453 47.239 61.304
H 64.342 48.263 61.464
H 53.738 66.938 63.097
H 59.275 60.602 58.994
H 59.94 61.325 57.836
H 60.029 51.764 66.305
H 61.095 52.816 66.057
H 61.303 47.177 68.048
H 62.659 46.737 68.574
H 52.619 61.279 60.963
H 52.599 62.796 61.009
H 59.517 62.579 62.113
H 59.584 61.609 60.947
H 64.667 55.215 56.331
H 63.46 54.649 57.06
H 46.957 59.579 59.002
H 47.376 58.173 58.611
H 51.68 54.719 72.863
H 52.259 55.969 72.223
H 50.956 54.17 61.906
H 49.563 53.632 62.186
H 69.532 62.442 62.995
H 68.396 55.824 57.662
H 55.778 50.537 57.663
H 51.075 47.623 70.266
H 51.81 46.593 69.426
H 58.356 49.648 60.99
H 59.861 49.456 60.924
H 50.401 59.529 68.246
H 50.229 61.011 67.959
H 47.431 49.422 68.671
H 48.904 49.399 68.304
H 62.402 62.354 66.66
H 61.187 63.022 66.039
H 55.074 62.366 70.123
H 53.617 62.596 69.76
H 53.116 61.725 65.74
H 57.204 52.096 69.388
H 58.384 51.293 68.87
H 58.366 51.542 62.11
H 57.503 52.228 61.064
H 54.534 62.268 65.71
H 70.542 61.183 58.734
H 55.425 53.208 60.649
H 54.943 51.804 60.97
H 53.331 55.185 56.28
H 65.474 46.27 66.221
H 60.141 49.668 66.957
H 56.355 49.734 62.143
H 57.311 48.677 62.668
H 59.196 49.164 68.033
H 52.539 47.736 59.247
H 53.737 48.498 58.708
H 62.305 56.506 56.666
H 60.831 56.208 56.878
H 70.929 60.897 62.288
H 69.929 59.803 61.954
H 52.32 52.7 60.999
H 51.466 52.035 62.065
H 66.901 56.671 68.619
H 66.881 56.259 70.08
H 54.019 49.465 68.406
H 53.34 48.746 69.558
H 49.564 50.11 63.115
H 50.865 49.33 63.186
H 57.897 47.635 58.51
H 57.346 49.046 58.401
H 67.063 52.51 64.493
H 67.69 53.79 65.016
H 45.029 55.997 64.522
H 45.41 54.664 65.141
H 64.888 60.489 55.369
H 64.124 59.185 55.512
H 67.237 56.532 65.843
H 66.277 55.411 65.487
H 62.814 55.358 66.518
H 61.335 55.016 66.482
H 55.033 43.985 65.273
H 56.385 44.671 65.207
H 60.432 54.382 55.729
H 61.574 53.443 56.077
H 53.475 48.705 63.913
H 54.723 63.373 51.399
H 54.654 64.078 52.743
H 55.49 51.645 63.106
H 56.771 52.426 63.342
H 54.093 54.561 68.406
H 53.216 53.783 69.372
H 46.162 62.674 62.398
H 54.49 54.982 73.809
H 67.706 53.109 60.213
H 66.88 51.877 59.887
H 50.08 50.274 66.544
H 51.122 49.921 67.591
H 64.117 54.942 63.002
H 64.743 53.811 63.799
H 56.645 63.529 64.834
H 57.38 62.238 64.52
H 55.592 46.508 69.231
H 63.57 62.473 52.415
H 69.046 51.4 60.586
H 68.095 50.243 60.836
H 46.846 57.686 60.69
H 46.996 58.725 61.787
H 66.497 57.947 62.587
H 67.664 58.799 63.054
H 44.903 57.508 62.127
H 45.323 56.16 61.568
H 61.546 48.383 58.805
H 61.877 47.797 60.167
H 59.449 57.375 54.248
H 59.835 58.648 54.982
H 63.394 61.494 57.181
H 63.614 62.626 56.193
H 65.953 48.365 59.116
H 66.27 49.093 60.41
H 67.575 48.893 65.012
H 52.881 63.885 66.875
H 54.28 64.407 66.601
H 67.911 61.044 62.487
H 66.915 60.56 61.448
H 55.739 61.186 51.269
H 56.524 60.1 51.984
H 50.258 58.952 54.765
H 49.447 59.678 55.824
H 43.69 54.437 61.394
H 57.431 68.095 64.621
H 52.619 57.117 67.772
H 52.026 58.411 67.243
H 67.216 55.298 61.214
H 51.593 50.26 70.694
H 67.643 61.229 66.318
H 67.381 61.124 64.826
H 50.145 50.026 71.087
H 69.505 54.782 63.441
H 68.119 56.207 60.398
H 57.431 65.266 67.523
H 56.568 60.642 59.977
H 55.109 61.054 59.9
H 51.067 53.562 64.018
H 51.225 53.806 65.508
H 61.659 64.884 60.784
H 60.303 64.644 61.423
H 50.703 51.567 64.871
H 56.054 65.69 67.042
H 58.877 63.508 57.146
H 58.307 62.937 55.86
H 49.283 51.987 64.536
H 63.613 57.432 64.843
H 65.017 56.934 64.543
H 62.037 52.042 57.831
H 63.447 52.36 58.298
H 49.458 61.794 70.4
H 55.573 62.913 56.614
H 54.46 62.172 55.894
H 48.72 60.471 70.502
H 47.204 64.28 60.002
H 48.163 63.334 60.704
H 59.947 63.094 54.416
H 61.356 63.625 54.615
H 59.201 49.747 70.789
H 60.287 50.768 71.079
H 68.326 52.746 62.532
H 60.548 51.215 68.469
H 61.099 52.35 69.315
H 64.26 62.545 60.131
H 63.907 61.36 61.012
H 53.184 46.524 63.759
H 54.396 45.632 63.962
H 63.815 60.55 68.449
H 62.593 59.649 68.444
H 66.627 51.237 62.31
H 66.166 49.801 62.491
H 55.495 47.489 71.61
H 54.021 47.855 71.646
H 52.079 60.238 53.273
H 50.588 60.476 53.105
H 56.608 57.143 70.296
H 55.385 56.856 69.442
H 47.304 54.178 62.981
H 47.239 55.623 62.516
H 57.545 57.758 67.735
H 66.043 58.754 65.201
H 65.026 59.88 65.126
H 58.774 58.649 67.769
H 53.833 50.178 64.013
H 60.443 58.946 52.669
H 61.831 58.471 53.063
H 66.958 61.145 55.017
H 54.836 65.455 55.646
H 66.06 60.469 59.218
H 65.9 61.312 57.965
H 66.939 64.946 61.34
H 68.212 64.278 61.83
H 55.874 49.9 70.751
H 59.979 65.771 65.29
H 58.617 66.427 65.431
H 59.803 47.267 59.642
H 56.701 49.799 69.481
H 48.487 60.222 61.173
H 62.74 57.302 71.756
H 61.258 57.255 71.429
H 54.893 65.919 57.091
H 47.885 61.196 60.175
H 62.219 59.88 71.233
H 60.399 47.926 69.909
H 59.263 47.268 69.147
H 55.369 63.333 58.861
H 56.082 64.646 58.592
H 62.258 51.468 59.976
H 61.969 50.004 60.261
H 47.955 57.038 65.981
H 46.642 56.275 65.992
H 50.464 52.513 71.135
H 51.946 52.831 71.031
H 59.99 45.679 61.163
H 59.221 44.403 60.865
H 52.033 60.087 55.468
H 52.764 60.913 56.512
H 45.253 52.047 66.979
H 58.911 63.894 70.322
H 58.793 64.133 68.827
H 60.988 66.68 63.012
H 57.141 63.05 72.464
H 59.174 58.723 71.107
H 49.938 50.655 60.972
H 49.362 49.429 60.285
H 62.141 49.246 68.502
H 63.193 49.358 69.592
H 58.753 51.264 59.489
H 60.041 51.807 58.894
H 60.983 63.291 59.402
H 62.324 62.76 58.927
H 58.297 63.497 73.341
H 59.763 66.3 54.769
H 45.068 60.35 59.826
H 58.654 60.149 71.156
H 56.912 66.12 55.304
H 57.594 65.007 56.079
H 45.119 59.714 61.205
H 54.803 65.234 64.269
H 56.266 65.635 64.325
H 55.381 64.665 69.368
H 55.838 63.822 68.19
H 57.481 55.567 67.994
H 57.453 54.248 68.745
H 49.035 59.972 72.698
H 57.484 51.647 71.524
H 56.681 51.061 72.673
H 57.998 47.118 64.293
H 63.393 52.078 66.226
H 62.902 50.931 67.092
H 59.352 46.686 63.756
H 63.928 57.532 67.396
H 62.834 49.843 57.724
H 46.543 54.758 70.762
H 46.909 56.194 70.429
H 62.583 61.272 54.402
H 61.363 61.528 53.535
H 53.197 52.59 63.37
H 45.257 53.927 59.921
H 45.879 52.908 60.86
H 53.735 53.905 63.909
H 47.347 51.462 67.82
H 48.339 51.613 66.68
H 64.937 56.399 67.451
H 52.309 64.108 70.678
H 52.63 65.584 70.84
H 66.895 58.016 60.135
H 65.997 56.791 60.132
H 62.339 62.131 68.849
H 62.394 63.578 69.308
H 68.912 59.551 64.675
H 68.209 58.483 65.494
H 45.851 49.843 65.082
H 46.756 51.05 65.257
H 58.904 67.373 63.154
H 58.471 66.443 62.035
H 50.836 58.953 57.369
H 51.519 60.08 58.123
H 65.092 61.399 66.876
H 65.707 62.697 67.369
H 67.756 48.606 67.722
H 48.838 61.286 58.194
H 49.155 59.86 58.61
H 65.619 52.657 67.247
H 65.255 53.413 65.981
H 51.159 47.028 61.29
H 49.683 46.669 61.333
H 59.181 61.305 53.363
H 58.535 60.022 52.872
H 57.462 48.38 71.191
H 57.563 47.861 72.614
H 53.454 63.496 64.238
H 52.442 63.882 63.174
H 59.286 54.093 66.857
H 59.66 53.968 68.323
H 53.338 45.909 66.777
H 53.952 46.913 67.736
H 58.999 58.527 65.378
H 59.295 59.347 64.135
H 50.577 61.345 59.767
H 50.717 59.885 60.162
H 45.632 52.801 63.368
H 63.808 53.811 67.725
H 62.391 53.27 67.792
H 44.301 52.553 62.681
H 62.094 64.337 57.394
H 60.849 65.152 57.089
H 49.091 54.498 59.69
H 48.068 53.818 60.583
H 58.032 60.418 62.498
H 60.844 52.588 62.139
H 52.395 61.348 67.784
H 53.046 60.486 68.851
H 64.177 51.43 61.708
H 64.112 50.412 60.583
H 61.044 48.466 65.346
H 59.531 48.346 65.283
H 57.648 46.333 66.323
H 58.88 54.477 61.395
H 57.362 54.424 61.404
H 58.705 47.176 67.014
H 62.035 51.651 62.241
H 57.47 61.822 62.359
H 47.852 51.612 62.796
H 47.324 51.338 61.399
H 65.502 58.1 52.934
H 64.102 58.194 53.514
H 66.43 50.328 67.356
H 49.159 54.654 64.091
H 49.361 55.443 65.373
H 65.069 50.278 68.029
H 55.929 58.108 59.467
H 56.484 57.329 58.287
H 60.43 46.378 65.664
H 60.142 45.517 66.881
H 61.074 59.732 56.449
H 60.219 58.865 57.356
H 56.407 67.997 67.641
H 57.841 67.579 67.363
H 63.011 57.332 59.021
H 68.073 51.638 66.696
H 64.079 58.402 58.868
H 64.326 46.492 63.972
H 63.004 46.196 64.658
H 58.294 52.192 73.652
H 62.421 49.014 63.717
H 63.048 49.687 62.509
H 53.736 61.742 52.497
H 62.101 56.541 62.394
H 61.184 57.37 63.276
H 59.305 52.73 70.928
H 60.101 54.01 71.115
H 47.002 53.359 66.717
H 47.867 54.578 66.986
H 61.728 59.697 63.43
H 62.875 60.589 62.99
H 55.971 59.639 62.028
H 56.11 58.767 63.263
