476
xyz format
Na 46.336 56.344 34.969
O 32.33 43.493 36.27
O 44.251 57.008 30.865
O 34.331 51.095 28.381
O 45.733 48.509 31.953
O 37.519 46.932 31.979
O 39.522 44.361 34.858
O 45.023 54.088 36.793
O 38.108 54.297 27.379
O 32.586 46.087 34.72
O 37.534 56.033 29.941
O 37.603 54.09 36.874
O 35.047 57.531 39.733
O 35.646 45.563 28.761
O 43.128 47.633 32.968
O 42.098 48.166 37.965
O 38.829 49.07 31.297
O 38.916 52.01 32.064
O 34.669 53.535 32.647
O 34.33 47.058 35.839
O 31.442 49.918 38.638
O 37.77 49.323 42.741
O 37.329 43.272 36.635
O 31.434 51.37 36.637
O 36.087 52.32 37.839
O 33.267 49.089 41.3
O 40.307 48.273 23.517
O 33.823 57.49 36.037
O 30.16 50.975 34.524
O 34.715 43.491 26.406
O 36.757 48.855 30.077
O 41.465 50.784 30.986
O 32.903 48.551 33.609
O 31.749 47.537 40.849
O 42.509 44.712 31.816
O 38.092 51.296 27.954
O 41.971 55.703 32.339
O 38.091 53.985 32.814
O 35.318 54.462 35.57
O 40.644 44.475 37.494
O 35.692 41.76 34.177
O 31.269 44.941 32.984
O 46.576 56.266 38.022
O 34.394 51.205 31.691
O 31.211 56.956 35.773
O 32.331 50.555 27.192
O 36.678 46.875 40.602
O 36.405 46.299 37.519
O 35.244 44.44 37.319
O 44.636 45.743 30.719
O 35.934 45.985 42.469
O 39.352 44.169 24.83
O 40.502 58.425 30.405
O 35.981 47.245 25.677
O 41.915 55.924 36.92
O 42.652 54.309 27.015
O 30.109 48.309 36.131
O 35.879 57.619 36.81
O 38.278 56.39 34.887
O 42.196 50.038 26.32
O 33.204 55.026 41.103
O 32.668 41.843 39.067
O 31.13 55.868 33.737
O 40.227 57.338 34.477
O 33.377 48.493 26.461
O 42.041 49.464 28.779
O 33.687 53.546 30.518
O 29.457 54.438 36.791
O 32.349 54.56 38.524
O 40.196 51.677 39.231
O 35.826 54.847 38.167
O 28.584 45.546 34.732
O 40.324 42.635 36.016
O 33.894 43.538 40.384
O 38.604 51.744 41.346
O 41.344 52.15 24.261
O 38.638 48.827 37.901
O 38.251 41.413 37.661
O 39.528 47.063 40.557
O 32.397 53.663 28.188
O 35.683 51.386 26.597
O 41.037 47.328 30.485
O 39.748 54.056 36.206
O 29.438 51.371 32.483
O 36.516 44.034 34.174
O 36.904 54.586 41.793
O 44.581 47.833 40.163
O 31.285 52.849 34.228
O 44.469 54.002 29.164
O 37.055 42.936 31.153
O 42.205 43.697 34.264
O 40.068 52.462 29.522
O 46.113 50.098 34.367
O 38.04 44.595 39.198
O 35.034 50.578 40.027
O 40.437 55.974 29.266
O 44.15 58.19 34.028
O 44.267 51.138 30.976
O 36.886 51.982 29.661
O 46.923 54.191 35.632
O 41.266 46.155 26.218
O 40.455 55.642 38.693
O 35.44 54.642 28.067
O 33.187 42.709 33.562
O 42.39 45.371 38.656
O 39.134 55.815 32.179
O 38.589 51.006 35.766
O 42.724 55.002 30.394
O 34.922 43.384 29.488
O 42.843 53.455 32.678
O 43.822 55.229 35.077
O 39.52 41.949 40.861
O 45.069 46.488 38.492
O 45.371 53.799 33.656
O 29.174 51.139 37.763
O 34.707 55.884 33.208
O 44.749 49.803 27.586
O 33.293 43.719 31.61
O 38.559 49.318 40.297
O 40.534 50.018 36.069
O 38.848 47.839 25.813
O 38.686 49.873 33.379
O 34.463 48.203 38.824
O 30.272 42.39 37.595
O 34.023 53.09 43.91
O 29.516 50.703 41.081
O 35.865 45.491 31.816
O 37.132 45.325 27.148
O 33.038 56.375 30.754
O 39.405 45.462 29.705
O 40.099 40.717 33.761
O 29.133 42.04 35.199
O 41.215 52.032 41.657
O 37.669 56.619 40.494
O 40.098 53.051 26.619
O 30.927 53.199 40.867
O 38.443 43.813 32.62
O 36.251 49.122 35.91
O 35.059 57.15 28.243
O 46.129 57.247 32.393
O 29.254 46.596 38.507
O 38.862 54.0 40.963
O 33.145 46.774 29.52
O 30.721 49.255 42.815
O 35.275 54.96 31.084
O 41.915 43.483 39.942
O 35.656 48.968 42.243
O 39.247 47.14 34.961
O 31.907 51.609 30.454
O 40.338 50.895 27.642
O 41.935 47.489 35.878
O 27.812 50.917 34.873
O 31.043 48.185 29.152
O 43.431 54.516 38.25
O 38.084 50.946 24.48
O 34.483 52.707 40.128
O 39.422 58.85 32.292
O 32.19 51.182 42.566
O 32.599 53.517 36.145
O 33.689 45.502 38.67
O 40.71 45.32 41.849
O 42.973 49.986 33.639
O 42.271 46.033 28.182
O 33.872 50.523 36.959
O 38.523 46.114 42.817
O 46.348 51.833 31.199
O 35.725 48.453 33.013
O 41.843 53.022 34.695
O 34.196 51.64 34.002
O 38.956 49.056 28.378
O 36.483 51.152 35.074
O 33.741 48.832 30.02
O 36.132 57.776 33.006
O 27.327 49.045 38.502
O 42.779 49.169 40.93
O 30.609 45.454 35.664
O 30.038 48.87 33.103
H 38.792 48.246 28.876
H 33.239 51.649 34.134
H 34.46 50.762 34.303
H 29.725 41.82 38.149
H 39.143 49.712 29.062
H 41.15 53.047 34.023
H 35.114 45.976 31.453
H 36.352 45.204 31.034
H 37.55 44.88 27.896
H 37.294 44.729 26.406
H 38.939 44.363 39.461
H 33.219 53.433 27.738
H 37.713 43.796 38.768
H 37.947 49.704 33.977
H 39.427 50.044 33.974
H 33.815 47.679 38.335
H 35.196 48.297 38.203
H 36.229 47.811 33.528
H 35.104 47.908 32.513
H 34.831 50.518 36.85
H 33.686 49.679 37.39
H 41.722 52.163 35.118
H 38.848 51.921 42.263
H 37.64 51.705 41.368
H 35.456 55.846 33.815
H 33.939 55.891 33.793
H 29.477 50.486 37.119
H 28.842 51.862 37.216
H 41.865 45.587 28.936
H 41.872 46.912 28.194
H 43.141 50.784 34.155
H 43.441 50.145 32.81
H 44.026 49.252 27.262
H 44.518 49.966 28.509
H 34.227 43.963 31.59
H 38.213 40.449 37.7
H 30.213 50.563 40.428
H 39.907 46.938 39.678
H 40.031 47.803 40.92
H 43.45 54.072 32.251
H 34.199 43.833 29.034
H 34.758 42.449 29.313
H 45.915 49.214 34.7
H 42.234 53.207 31.971
H 45.49 50.214 33.639
H 40.627 45.882 25.548
H 42.022 46.462 25.703
H 44.206 46.609 38.076
H 43.471 54.553 34.484
H 44.172 55.9 34.478
H 30.348 48.892 32.189
H 45.181 52.905 33.346
H 45.892 54.185 32.94
H 38.719 41.813 40.338
H 39.548 42.905 40.992
H 41.815 54.677 30.39
H 42.686 55.798 29.85
H 30.518 48.127 33.489
H 34.966 54.698 27.228
H 35.317 53.725 28.34
H 37.815 50.019 24.498
H 38.41 51.108 25.374
H 32.577 43.399 33.85
H 34.055 43.126 33.635
H 38.769 47.408 35.757
H 44.201 51.511 30.088
H 44.008 51.868 31.552
H 43.773 58.237 34.915
H 37.214 51.628 30.496
H 36.002 52.304 29.88
H 45.09 58.034 34.185
H 39.533 55.687 29.088
H 40.941 55.62 28.522
H 41.758 46.071 38.864
H 39.152 47.897 34.371
H 45.204 47.131 34.858
H 31.05 48.136 36.002
H 42.104 53.933 27.715
H 29.678 47.537 35.742
H 40.728 57.313 33.652
H 37.532 43.206 30.359
H 36.363 42.352 30.818
H 38.722 55.731 34.339
H 37.932 55.877 35.628
H 32.927 54.104 41.17
H 34.158 54.99 41.243
H 42.046 49.363 25.647
H 42.225 50.861 25.816
H 36.072 56.906 37.432
H 39.46 53.211 29.567
H 42.414 56.625 36.483
H 42.009 55.17 36.325
H 31.733 52.445 30.905
H 35.009 51.063 25.986
H 36.228 51.967 26.052
H 40.204 53.212 36.315
H 40.143 54.429 35.408
H 41.826 49.069 41.047
H 42.932 50.109 41.083
H 31.696 50.942 31.118
H 40.903 47.07 31.405
H 41.992 47.256 30.363
H 44.719 54.05 30.095
H 30.595 56.373 33.112
H 31.852 55.524 33.196
H 27.641 50.188 34.264
H 28.034 51.655 34.291
H 33.516 42.147 38.722
H 28.762 50.829 32.056
H 29.09 52.269 32.412
H 35.723 44.247 34.681
H 36.182 43.88 33.281
H 31.86 53.37 33.654
H 30.585 53.467 34.474
H 36.354 54.959 41.093
H 36.685 53.646 41.78
H 44.185 48.349 39.45
H 31.548 48.788 42.642
H 40.574 41.721 35.834
H 39.373 42.586 36.174
H 35.973 50.796 39.986
H 34.759 50.573 39.101
H 42.712 48.795 28.966
H 41.261 49.143 29.248
H 41.967 43.302 33.416
H 39.101 43.692 31.924
H 37.751 49.496 39.8
H 39.244 49.774 39.792
H 38.05 44.671 32.418
H 33.616 52.858 29.845
H 29.152 45.95 37.797
H 29.618 47.371 38.061
H 33.117 54.251 30.186
H 41.289 49.984 35.468
H 40.647 50.856 36.534
H 31.364 52.526 40.33
H 42.733 44.467 34.018
H 34.579 43.721 41.039
H 33.075 43.562 40.895
H 39.225 48.618 26.239
H 38.938 47.147 26.48
H 36.89 48.524 35.503
H 35.499 49.101 35.305
H 29.767 55.065 36.127
H 28.81 53.902 36.316
H 27.646 45.417 34.545
H 28.918 45.985 33.94
H 33.024 54.835 37.891
H 32.193 53.633 38.305
H 40.927 52.874 29.366
H 42.06 52.126 41.201
H 40.625 52.623 41.173
H 39.583 48.933 37.734
H 38.565 47.928 38.243
H 34.073 48.918 26.978
H 40.996 51.149 39.344
H 40.296 52.06 38.351
H 35.155 54.64 38.829
H 36.597 55.095 38.692
H 35.243 47.185 26.296
H 36.756 47.307 26.248
H 40.84 57.588 30.746
H 33.493 47.104 28.682
H 33.412 45.846 29.53
H 35.176 46.504 42.173
H 35.947 45.232 41.865
H 41.049 47.835 36.039
H 41.792 46.543 35.751
H 39.088 45.462 30.616
H 32.661 51.437 26.981
H 31.692 50.712 27.898
H 38.814 46.078 29.256
H 36.273 47.394 39.895
H 37.444 46.469 40.178
H 36.187 51.834 35.69
H 39.691 41.366 33.174
H 37.333 55.72 29.05
H 37.838 56.939 29.803
H 43.838 46.062 30.279
H 37.423 56.942 39.619
H 33.628 51.778 31.826
H 34.156 50.392 32.155
H 29.791 42.721 35.014
H 40.813 53.337 26.036
H 34.913 43.577 37.04
H 34.736 45.064 36.786
H 39.334 52.992 26.033
H 37.092 45.621 37.498
H 36.845 47.081 37.164
H 36.929 51.651 34.378
H 31.092 45.958 36.331
H 30.423 44.614 36.101
H 36.921 57.769 32.449
H 31.727 45.315 32.221
H 30.351 44.878 32.692
H 28.019 48.998 37.83
H 35.667 41.239 34.99
H 36.634 41.845 33.988
H 35.409 53.807 36.273
H 35.834 55.214 35.889
H 39.768 44.549 37.095
H 41.243 44.502 36.738
H 42.414 55.966 33.156
H 41.198 55.213 32.645
H 37.431 54.322 32.197
H 37.618 53.942 33.655
H 33.057 49.321 30.495
H 40.173 50.819 26.693
H 41.155 51.406 27.693
H 41.867 45.079 31.196
H 30.814 47.356 41.009
H 37.913 52.106 27.46
H 37.536 50.636 27.522
H 35.772 54.471 30.416
H 35.877 55.667 31.346
H 32.056 46.755 40.374
H 30.91 50.689 33.988
H 29.88 50.168 34.976
H 33.011 48.58 32.65
H 32.737 49.471 33.849
H 42.06 51.432 30.587
H 42.026 50.01 31.12
H 34.496 48.853 30.621
H 35.128 48.58 42.952
H 35.383 43.826 27.017
H 35.235 49.822 42.084
H 41.048 43.756 39.617
H 36.688 49.689 29.596
H 36.648 49.112 31.001
H 37.878 50.175 43.182
H 37.559 48.716 43.462
H 31.085 47.531 29.861
H 31.056 49.03 29.619
H 33.753 47.768 35.531
H 34.964 46.949 35.119
H 40.259 47.546 24.15
H 33.926 56.534 36.12
H 38.122 46.88 42.387
H 38.07 45.362 42.417
H 36.193 52.631 38.747
H 36.555 51.476 37.83
H 39.694 48.928 23.872
H 33.873 45.615 39.611
H 32.736 45.639 38.605
H 40.296 59.232 32.442
H 38.817 59.525 32.626
H 38.538 51.621 36.509
H 38.182 50.2 36.107
H 39.471 55.637 31.293
H 38.835 56.732 32.131
H 34.705 52.812 41.061
H 33.615 52.284 40.144
H 32.481 51.351 43.471
H 32.977 51.359 42.036
H 32.1 50.622 38.596
H 31.533 49.467 37.79
H 33.378 53.24 35.647
H 32.292 54.302 35.674
H 37.16 42.566 35.999
H 37.606 44.015 36.085
H 32.043 51.162 35.917
H 30.916 52.108 36.292
H 42.982 48.102 32.137
H 42.252 47.607 33.373
H 39.076 45.038 34.334
H 39.977 43.824 34.197
H 41.849 48.299 38.888
H 42.788 48.825 37.817
H 35.851 56.79 27.825
H 35.227 57.038 29.187
H 35.111 45.781 27.987
H 35.562 46.342 29.325
H 34.531 57.256 38.964
H 43.898 56.461 31.578
H 31.993 46.634 34.189
H 38.89 54.823 27.17
H 37.377 54.828 27.039
H 33.304 45.87 34.112
H 37.937 53.472 37.536
H 37.605 53.575 36.058
H 45.669 53.765 37.434
H 45.086 55.048 36.869
H 39.5 52.294 32.779
H 38.087 51.806 32.513
H 38.647 50.012 31.184
H 39.782 49.003 31.163
H 34.001 53.745 33.311
H 35.502 53.746 33.085
H 33.641 50.826 29.001
H 34.958 50.362 28.405
H 33.096 49.687 40.562
H 33.879 48.44 40.931
H 32.307 43.099 37.15
H 32.673 44.382 36.425
H 45.723 49.277 31.369
H 39.952 45.044 41.319
H 41.459 45.215 41.249
H 38.322 47.216 32.434
H 37.703 47.12 31.05
