63
xyz format
O 66.298 65.926 54.185
O 61.531 64.618 56.662
O 67.472 70.208 60.375
O 66.394 67.533 57.174
O 64.751 70.124 53.396
O 65.263 69.121 61.854
O 69.302 68.926 56.655
O 65.031 69.513 64.007
O 64.283 66.522 62.313
O 62.334 70.071 60.867
O 62.089 69.299 55.23
O 68.635 71.238 54.809
O 60.355 71.783 61.643
O 66.157 70.708 55.349
O 62.833 70.559 58.25
O 63.676 66.559 57.751
O 65.904 67.722 59.316
O 68.354 69.211 58.622
O 64.154 70.009 56.571
H 63.36 67.103 57.019
H 64.12 65.822 57.314
H 60.627 68.235 61.466
H 60.421 67.679 60.068
H 61.868 70.578 58.258
H 63.052 69.801 58.805
H 65.383 68.502 59.085
H 65.255 67.007 59.322
H 61.715 66.944 55.558
H 62.735 65.85 55.294
H 59.575 72.156 61.214
H 60.771 72.544 62.066
H 70.811 68.069 58.563
H 62.178 69.124 56.176
H 62.761 68.735 54.828
H 69.395 70.744 55.14
H 68.256 71.635 55.603
H 64.703 65.728 61.959
H 64.922 66.85 62.959
H 62.05 69.887 61.771
H 61.527 70.371 60.429
H 65.115 69.274 64.939
H 64.078 69.602 63.878
H 68.277 66.762 60.729
H 68.736 68.145 56.618
H 65.947 72.91 52.791
H 65.3 68.298 61.351
H 64.894 69.756 61.228
H 64.638 71.011 53.759
H 64.696 69.55 54.17
H 64.429 70.913 56.769
H 64.733 69.468 57.121
H 58.824 69.41 61.001
H 66.54 68.26 56.557
H 65.934 66.871 56.644
H 66.511 70.438 56.206
H 66.046 71.662 55.438
H 66.382 65.453 55.022
H 65.959 66.792 54.445
H 62.094 64.337 57.394
H 69.161 69.735 58.698
H 67.785 69.749 58.058
H 66.691 70.772 60.438
H 67.161 69.351 60.694
