167
xyz format
O 48.185 35.974 28.931
O 51.415 41.073 23.372
O 50.527 39.15 25.125
O 43.6 42.791 24.648
O 46.529 42.063 30.219
O 48.59 41.912 23.242
O 57.072 33.539 31.857
O 55.212 42.13 23.332
O 51.83 45.651 25.741
O 52.045 39.375 30.216
O 53.178 41.818 24.845
O 50.118 37.717 31.113
O 51.575 36.828 28.335
O 54.64 43.574 28.561
O 54.477 39.43 31.777
O 46.756 45.28 28.776
O 49.397 39.75 27.915
O 51.147 34.915 30.093
O 55.405 31.812 29.065
O 55.162 34.673 29.893
O 54.553 45.898 25.157
O 58.175 43.39 27.245
O 58.09 35.819 32.365
O 47.96 41.069 32.132
O 46.725 33.153 29.228
O 57.692 43.331 24.311
O 54.612 33.24 33.528
O 49.502 35.804 24.964
O 44.294 43.052 29.815
O 51.131 41.219 32.423
O 60.518 37.566 29.042
O 50.827 43.883 30.833
O 58.843 39.409 28.54
O 55.965 34.98 26.51
O 51.857 36.584 25.087
O 49.291 43.846 24.583
O 49.978 42.608 26.311
O 48.183 38.292 34.342
O 48.646 40.269 30.2
O 45.106 43.419 27.047
O 49.004 35.151 31.673
O 49.714 30.505 29.533
O 53.813 34.429 26.364
O 53.987 37.131 25.152
O 49.626 32.68 30.746
O 54.628 39.041 26.229
O 51.156 42.059 28.588
O 53.624 44.997 22.491
O 60.701 34.87 28.626
O 51.379 33.053 28.417
O 59.258 33.618 30.495
O 46.743 41.184 28.097
O 47.028 45.182 25.768
O 54.949 31.345 31.683
O 55.535 41.724 27.054
O 49.833 37.065 33.547
O 56.961 38.662 30.581
O 48.298 43.553 28.503
O 46.994 38.6 31.771
O 51.482 44.896 22.983
O 46.208 40.407 33.329
O 46.329 41.858 25.392
O 57.972 36.134 28.287
O 45.291 39.253 26.091
O 47.893 39.234 23.908
H 60.193 34.306 28.03
H 53.636 44.038 22.602
H 51.593 42.395 29.38
H 50.918 41.154 28.824
H 45.898 38.863 25.449
H 45.783 40.004 26.444
H 53.668 39.076 26.316
H 54.832 39.785 25.648
H 57.145 36.626 28.214
H 58.359 36.205 27.405
H 54.813 36.69 25.387
H 54.24 37.722 24.431
H 47.109 41.678 24.852
H 45.609 41.894 24.749
H 50.011 33.116 31.516
H 48.713 32.992 30.738
H 48.853 30.728 29.908
H 49.622 30.73 28.598
H 49.847 35.341 32.104
H 48.735 36.003 31.309
H 50.287 43.511 31.541
H 51.717 43.896 31.206
H 58.793 38.927 29.375
H 51.454 45.86 22.929
H 57.002 43.728 24.857
H 58.861 34.119 29.771
H 44.403 42.766 27.152
H 57.5 42.386 24.35
H 45.138 43.571 26.094
H 50.037 43.601 24.022
H 48.572 43.996 23.956
H 47.943 40.065 29.57
H 60.22 37.025 28.3
H 48.953 36.416 25.47
H 50.076 35.407 25.631
H 55.038 33.313 32.665
H 44.499 42.212 29.385
H 50.448 43.264 26.84
H 50.682 42.154 25.831
H 48.814 41.209 30.06
H 56.059 41.682 26.245
H 54.623 41.719 26.737
H 51.755 37.098 25.898
H 52.239 35.751 25.39
H 56.639 35.587 26.18
H 56.4 34.53 27.244
H 46.969 34.082 29.32
H 54.998 34.016 30.58
H 55.717 35.33 30.331
H 48.844 44.269 28.154
H 48.764 42.754 28.226
H 56.724 38.148 29.799
H 48.493 40.315 32.415
H 48.556 41.821 32.232
H 47.777 38.067 31.583
H 46.67 38.849 30.896
H 51.203 32.68 27.544
H 50.969 32.423 29.022
H 53.101 42.325 24.028
H 53.299 40.91 24.542
H 46.605 42.136 28.021
H 47.455 41.005 27.47
H 56.002 31.863 29.822
H 58.001 42.606 26.709
H 49.061 38.865 28.104
H 50.121 39.593 27.296
H 50.378 35.052 29.525
H 51.894 34.977 29.485
H 54.016 38.605 31.582
H 54.388 39.94 30.962
H 54.092 44.364 28.644
H 53.998 42.854 28.516
H 50.79 37.047 33.426
H 49.658 36.298 34.107
H 52.427 37.28 28.391
H 50.987 37.494 27.959
H 50.037 38.419 31.77
H 49.607 38.044 30.362
H 46.184 41.467 30.895
H 47.172 42.603 30.695
H 51.692 44.702 25.628
H 48.286 38.365 23.76
H 48.332 39.551 24.707
H 51.501 38.866 29.602
H 52.596 39.918 29.639
H 53.632 34.943 27.16
H 53.023 33.885 26.257
H 49.095 41.464 23.931
H 48.529 41.255 22.537
H 48.61 36.834 28.819
H 47.625 35.893 28.149
H 43.263 42.23 23.939
H 44.054 43.503 24.181
H 51.401 38.985 24.749
H 50.094 38.289 25.083
H 47.163 44.402 26.321
H 55.332 41.664 24.169
H 55.355 43.056 23.563
H 51.061 41.912 23.053
H 52.08 40.839 22.712
H 57.098 33.439 30.897
H 57.731 32.907 32.171
