34
xyz format
O 70.947 50.65 59.738
O 69.19 46.171 62.472
O 68.628 50.902 61.299
O 70.629 47.112 60.062
O 73.282 46.667 61.207
O 71.486 42.916 64.245
O 72.326 45.152 63.78
O 72.054 48.658 62.695
O 70.004 49.552 62.361
O 75.707 45.669 60.874
H 72.683 45.983 63.443
H 72.668 44.49 63.166
H 72.397 42.727 64.499
H 71.211 43.6 64.869
H 76.167 46.513 60.963
H 75.59 45.571 59.921
H 73.689 46.942 60.376
H 74.013 46.688 61.838
H 69.19 49.035 62.324
H 69.731 47.321 60.346
H 71.158 47.242 60.859
H 70.39 49.436 61.484
H 71.921 48.044 63.428
H 72.69 49.295 63.043
H 69.046 51.4 60.586
H 68.095 50.243 60.836
H 69.812 52.525 62.307
H 70.082 45.803 62.448
H 69.276 46.943 63.044
H 72.973 51.768 63.445
H 71.269 48.662 66.237
H 70.958 49.858 59.188
H 71.825 44.999 59.138
H 68.618 46.852 58.38
