200
xyz format
O 50.445 29.022 39.465
O 48.09 32.523 34.072
O 41.21 27.671 39.253
O 42.524 34.909 32.465
O 44.262 25.013 38.412
O 42.632 28.818 37.602
O 43.992 24.817 43.626
O 43.409 31.841 44.157
O 44.202 27.859 45.228
O 39.314 31.651 33.129
O 49.76 32.907 36.399
O 45.344 31.758 35.142
O 52.3 31.798 35.173
O 38.204 28.946 37.059
O 50.329 31.882 38.276
O 44.611 31.972 38.288
O 39.813 27.995 42.506
O 45.521 29.325 37.697
O 36.8 31.274 41.013
O 38.696 30.883 43.229
O 40.657 31.601 38.058
O 48.445 33.465 39.636
O 41.199 31.681 43.378
O 50.619 24.336 39.673
O 43.138 32.651 34.92
O 46.728 32.307 32.048
O 41.94 30.858 40.636
O 40.082 27.223 36.893
O 39.744 33.042 36.293
O 44.487 28.948 33.124
O 52.194 29.312 37.925
O 35.259 30.555 38.107
O 47.795 28.967 36.092
O 44.366 32.637 42.188
O 46.199 26.648 37.132
O 40.349 33.304 41.177
O 39.485 34.394 34.115
O 41.111 30.817 34.847
O 42.281 26.555 37.613
O 43.201 34.415 36.909
O 44.329 29.101 35.832
O 39.064 29.864 40.771
O 38.546 26.21 42.283
O 51.196 29.812 33.687
O 47.631 28.186 41.32
O 46.899 27.467 43.896
O 48.488 26.398 38.366
O 43.763 27.608 39.38
O 43.35 36.09 35.489
O 42.659 32.133 32.256
O 46.553 31.436 39.232
O 49.57 30.11 35.451
O 43.006 29.024 43.006
O 49.204 29.958 42.136
O 45.493 29.707 41.248
O 37.144 31.56 33.516
O 45.917 34.532 40.466
O 36.862 29.017 39.224
O 45.559 27.575 42.147
O 41.868 29.168 31.976
O 41.964 33.859 39.435
O 44.259 25.477 35.909
O 44.76 30.019 31.222
O 50.182 27.31 36.279
O 46.121 34.438 36.228
O 49.269 31.904 40.95
O 42.198 26.308 42.487
O 42.5 24.114 45.083
O 42.477 34.855 41.362
O 37.9 29.847 35.075
H 38.315 29.075 34.672
H 38.528 30.56 34.904
H 44.962 30.145 40.572
H 45.849 30.437 41.769
H 42.93 26.565 41.912
H 41.424 26.369 41.914
H 46.728 33.729 35.982
H 45.992 34.926 35.406
H 49.625 29.38 41.488
H 49.937 30.48 42.488
H 51.446 29.172 34.365
H 52.002 29.924 33.168
H 43.625 28.352 39.98
H 42.577 35.751 35.021
H 43.927 26.863 39.972
H 43.312 31.797 32.883
H 39.438 33.066 40.963
H 41.847 32.18 32.775
H 40.27 33.791 42.007
H 47.681 27.239 41.141
H 47.224 28.549 40.523
H 46.623 25.807 37.344
H 42.134 25.621 37.417
H 43.22 26.683 37.428
H 46.325 27.176 37.929
H 43.784 25.99 35.244
H 45.168 25.469 35.585
H 41.836 30.616 41.564
H 41.885 31.822 40.643
H 45.288 28.504 32.819
H 43.841 28.234 33.19
H 46.628 33.055 31.447
H 46.819 31.548 31.458
H 42.51 33.367 35.077
H 43.318 32.305 35.803
H 40.605 30.257 34.244
H 42.029 30.606 34.639
H 38.654 25.824 41.405
H 38.707 25.469 42.881
H 43.968 29.666 35.138
H 44.548 28.282 35.371
H 42.765 34.868 37.641
H 44.017 34.078 37.3
H 48.044 29.348 43.999
H 40.161 28.083 36.461
H 40.292 26.595 36.191
H 39.468 30.725 40.939
H 38.761 29.929 39.857
H 39.473 33.244 37.197
H 40.704 33.139 36.314
H 50.065 29.532 36.044
H 49.215 30.79 36.038
H 45.676 34.913 39.613
H 45.081 34.5 40.948
H 42.375 28.644 42.383
H 43.567 29.583 42.454
H 46.951 28.519 36.232
H 48.117 29.135 36.987
H 45.219 32.518 42.623
H 44.512 32.294 41.298
H 46.326 31.804 40.095
H 36.131 28.451 38.947
H 47.397 30.994 39.385
H 36.763 29.066 40.183
H 36.066 30.631 37.581
H 51.487 28.777 37.543
H 48.351 33.855 40.513
H 47.635 33.725 39.18
H 50.845 25.259 39.505
H 50.049 24.377 40.451
H 42.414 33.146 38.966
H 41.065 33.833 39.083
H 45.827 30.939 35.308
H 45.467 31.91 34.197
H 36.566 31.402 34.273
H 40.855 31.383 44.23
H 41.444 32.601 43.54
H 37.19 32.523 33.46
H 40.892 31.151 37.237
H 40.292 30.898 38.609
H 38.727 31.722 42.753
H 38.17 31.083 44.013
H 37.492 31.944 40.948
H 37.149 30.647 41.659
H 46.319 29.406 38.233
H 44.813 29.249 38.349
H 44.711 29.438 30.452
H 44.809 30.903 30.838
H 44.739 32.725 38.878
H 44.187 31.311 38.848
H 42.727 33.932 41.497
H 40.048 28.067 41.572
H 40.003 28.873 42.858
H 49.727 26.708 35.676
H 51.112 27.217 36.038
H 46.155 27.987 44.224
H 47.448 27.333 44.679
H 49.217 26.637 38.952
H 48.665 25.475 38.144
H 51.581 31.807 34.53
H 38.163 28.188 37.656
H 38.248 29.704 37.655
H 51.059 29.7 39.774
H 50.827 28.2 39.796
H 42.373 28.589 36.701
H 41.873 29.309 37.941
H 41.426 28.37 39.883
H 41.047 26.901 39.812
H 48.533 33.204 34.594
H 47.766 31.9 34.735
H 49.562 33.672 36.953
H 50.649 33.087 36.068
H 41.888 29.995 32.474
H 41.693 28.499 32.649
H 39.104 32.258 32.408
H 39.691 32.224 33.809
H 44.5 26.951 45.37
H 43.576 28.009 45.947
H 45.427 26.801 41.586
H 44.704 27.692 42.582
H 41.919 24.392 44.364
H 43.124 34.662 33.181
H 51.117 32.027 38.813
H 50.344 30.933 38.097
H 49.407 31.213 40.29
H 48.355 31.774 41.229
H 43.544 24.899 39.046
H 45.033 25.184 38.967
H 44.221 24.388 42.793
H 44.233 25.741 43.482
