855
xyz format
Na 35.918 45.033 51.34
Na 46.336 56.344 34.969
Na 35.533 36.977 44.303
O 32.33 43.493 36.27
O 43.478 37.536 32.884
O 48.185 35.974 28.931
O 48.09 32.523 34.072
O 32.884 35.448 43.982
O 46.433 36.815 32.932
O 42.524 34.909 32.465
O 40.733 34.076 46.972
O 34.624 42.468 47.144
O 45.733 48.509 31.953
O 37.519 46.932 31.979
O 39.522 44.361 34.858
O 39.314 31.651 33.129
O 34.648 36.102 33.564
O 32.586 46.087 34.72
O 49.76 32.907 36.399
O 45.344 31.758 35.142
O 37.603 54.09 36.874
O 35.646 45.563 28.761
O 48.66 49.362 33.595
O 43.128 47.633 32.968
O 40.376 33.695 31.332
O 42.098 48.166 37.965
O 38.829 49.07 31.297
O 38.916 52.01 32.064
O 34.669 53.535 32.647
O 46.529 42.063 30.219
O 34.33 47.058 35.839
O 31.442 49.918 38.638
O 35.8 40.266 38.185
O 37.77 49.323 42.741
O 34.909 40.162 40.192
O 38.584 33.255 44.327
O 30.409 37.825 43.689
O 37.329 43.272 36.635
O 44.851 52.129 39.126
O 36.424 39.783 33.249
O 36.242 36.632 49.531
O 35.998 33.114 43.272
O 36.087 52.32 37.839
O 31.622 39.946 31.332
O 48.833 45.132 36.582
O 32.809 39.934 49.526
O 33.267 49.089 41.3
O 38.961 38.536 35.998
O 44.611 31.972 38.288
O 37.747 40.213 34.957
O 32.099 40.922 43.526
O 52.045 39.375 30.216
O 33.548 46.777 43.633
O 37.008 46.736 44.303
O 37.205 34.002 50.022
O 50.118 37.717 31.113
O 36.757 48.855 30.077
O 41.465 50.784 30.986
O 32.903 48.551 33.609
O 50.363 40.468 38.283
O 31.749 47.537 40.849
O 31.358 39.252 36.585
O 31.487 44.811 29.285
O 29.147 42.049 40.598
O 36.8 31.274 41.013
O 42.509 44.712 31.816
O 38.092 51.296 27.954
O 50.25 37.275 38.303
O 49.028 39.22 42.219
O 38.688 48.38 45.352
O 38.091 53.985 32.814
O 32.193 34.817 40.454
O 35.318 54.462 35.57
O 40.644 44.475 37.494
O 41.526 35.03 30.015
O 35.692 41.76 34.177
O 34.114 35.713 46.515
O 37.155 38.97 40.989
O 46.756 45.28 28.776
O 38.696 30.883 43.229
O 31.269 44.941 32.984
O 35.142 40.518 27.148
O 49.397 39.75 27.915
O 51.147 34.915 30.093
O 48.456 35.872 42.962
O 34.394 51.205 31.691
O 40.657 31.601 38.058
O 51.599 39.451 40.276
O 36.542 34.821 41.955
O 36.678 46.875 40.602
O 36.405 46.299 37.519
O 35.244 44.44 37.319
O 44.389 40.113 42.537
O 44.636 45.743 30.719
O 32.414 33.011 39.22
O 44.369 38.201 36.674
O 35.934 45.985 42.469
O 43.966 42.991 35.457
O 31.602 42.544 45.783
O 39.199 39.015 43.964
O 47.96 41.069 32.132
O 35.47 37.49 31.572
O 47.559 41.166 41.228
O 34.058 37.958 34.719
O 46.725 33.153 29.228
O 33.308 41.152 41.522
O 43.067 37.444 28.31
O 44.16 44.06 38.098
O 34.491 30.77 46.735
O 43.138 32.651 34.92
O 40.673 37.651 44.885
O 42.857 41.054 38.169
O 30.109 48.309 36.131
O 46.728 32.307 32.048
O 33.06 37.526 31.225
O 38.278 56.39 34.887
O 41.94 30.858 40.636
O 34.368 33.378 45.237
O 32.668 41.843 39.067
O 39.744 33.042 36.293
O 44.294 43.052 29.815
O 35.399 33.823 37.601
O 34.092 44.254 44.32
O 51.131 41.219 32.423
O 45.549 38.002 39.053
O 50.827 43.883 30.833
O 31.158 37.572 45.994
O 40.3 36.05 40.7
O 38.41 35.733 29.344
O 35.259 30.555 38.107
O 42.041 49.464 28.779
O 45.985 42.402 42.479
O 41.846 41.941 31.692
O 44.366 32.637 42.188
O 37.52 35.164 45.707
O 34.695 40.461 31.599
O 40.196 51.677 39.231
O 38.483 38.741 32.313
O 40.838 40.131 41.614
O 40.324 42.635 36.016
O 33.894 43.538 40.384
O 38.552 36.003 47.437
O 38.604 51.744 41.346
O 38.638 48.827 37.901
O 36.566 48.865 45.684
O 38.251 41.413 37.661
O 49.677 47.318 35.392
O 40.349 33.304 41.177
O 39.528 47.063 40.557
O 34.865 50.637 46.801
O 39.485 34.394 34.115
O 41.111 30.817 34.847
O 41.28 38.824 37.499
O 41.037 47.328 30.485
O 43.201 34.415 36.909
O 39.748 54.056 36.206
O 37.159 30.547 46.724
O 44.329 29.101 35.832
O 36.516 44.034 34.174
O 39.064 29.864 40.771
O 36.904 54.586 41.793
O 44.581 47.833 40.163
O 37.816 35.908 32.996
O 48.183 38.292 34.342
O 48.646 40.269 30.2
O 38.78 36.562 42.502
O 37.055 42.936 31.153
O 42.205 43.697 34.264
O 40.068 52.462 29.522
O 45.106 43.419 27.047
O 34.693 38.832 29.193
O 46.137 41.844 36.528
O 29.853 39.773 46.989
O 46.113 50.098 34.367
O 38.04 44.595 39.198
O 35.034 50.578 40.027
O 44.267 51.138 30.976
O 36.886 51.982 29.661
O 34.204 35.282 49.475
O 48.282 52.62 32.825
O 37.781 33.021 39.052
O 47.999 38.989 38.43
O 50.811 39.306 35.772
O 51.232 43.383 37.162
O 33.268 38.49 45.026
O 49.447 41.421 34.204
O 46.963 45.185 32.225
O 33.187 42.709 33.562
O 42.39 45.371 38.656
O 47.291 39.979 35.984
O 45.346 46.34 35.392
O 49.004 35.151 31.673
O 36.101 39.456 43.033
O 48.537 35.954 39.136
O 39.134 55.815 32.179
O 52.624 41.258 36.235
O 38.589 51.006 35.766
O 47.394 50.357 29.947
O 32.701 38.598 42.214
O 47.657 43.455 34.18
O 40.877 36.138 36.382
O 34.922 43.384 29.488
O 42.843 53.455 32.678
O 43.35 36.09 35.489
O 39.52 41.949 40.861
O 34.01 39.061 36.96
O 49.626 32.68 30.746
O 45.069 46.488 38.492
O 45.371 53.799 33.656
O 42.659 32.133 32.256
O 44.749 49.803 27.586
O 35.6 37.071 36.932
O 33.465 40.527 35.041
O 33.293 43.719 31.61
O 49.847 44.732 33.838
O 38.559 49.318 40.297
O 47.9 42.23 37.959
O 40.534 50.018 36.069
O 43.154 38.972 45.769
O 38.189 41.608 43.127
O 30.186 34.974 43.173
O 38.686 49.873 33.379
O 34.463 48.203 38.824
O 44.661 39.923 34.84
O 51.156 42.059 28.588
O 30.19 38.593 40.584
O 30.272 42.39 37.595
O 40.346 41.032 38.222
O 35.203 50.261 44.664
O 32.083 36.132 34.879
O 35.865 45.491 31.816
O 37.132 45.325 27.148
O 35.964 42.155 43.105
O 39.405 45.462 29.705
O 31.743 32.566 46.89
O 38.868 36.834 38.438
O 37.144 31.56 33.516
O 40.099 40.717 33.761
O 32.52 45.173 45.866
O 29.133 42.04 35.199
O 41.215 52.032 41.657
O 46.743 41.184 28.097
O 30.83 45.234 41.651
O 38.213 45.197 46.694
O 47.799 36.232 36.156
O 41.847 39.375 30.151
O 45.917 34.532 40.466
O 38.443 43.813 32.62
O 36.251 49.122 35.91
O 33.21 36.684 39.705
O 44.234 33.826 30.943
O 47.028 45.182 25.768
O 46.292 38.488 41.071
O 50.148 46.313 31.866
O 31.657 38.845 38.964
O 49.833 37.065 33.547
O 38.862 54.0 40.963
O 33.145 46.774 29.52
O 33.772 47.17 47.384
O 30.721 49.255 42.815
O 35.275 54.96 31.084
O 41.915 43.483 39.942
O 35.656 48.968 42.243
O 39.247 47.14 34.961
O 48.047 50.59 35.994
O 41.935 47.489 35.878
O 44.806 43.652 32.61
O 36.908 47.584 47.915
O 40.063 36.819 33.649
O 46.084 44.182 40.467
O 48.298 43.553 28.503
O 41.964 33.859 39.435
O 32.41 38.728 47.709
O 42.65 40.602 34.256
O 46.994 38.6 31.771
O 28.732 36.286 46.575
O 46.208 40.407 33.329
O 38.747 46.415 48.462
O 43.431 54.516 38.25
O 32.384 41.162 47.373
O 36.37 37.072 29.131
O 48.858 46.918 28.19
O 34.483 52.707 40.128
O 32.8 48.774 45.137
O 34.308 33.121 47.957
O 41.942 55.608 42.03
O 32.19 51.182 42.566
O 50.61 37.205 41.65
O 33.689 45.502 38.67
O 40.71 45.32 41.849
O 46.121 34.438 36.228
O 40.67 37.559 30.971
O 30.572 34.36 46.412
O 34.415 30.797 42.537
O 42.973 49.986 33.639
O 41.464 36.253 46.761
O 42.271 46.033 28.182
O 33.872 50.523 36.959
O 36.144 34.572 47.31
O 42.477 34.855 41.362
O 38.523 46.114 42.817
O 46.348 51.833 31.199
O 35.725 48.453 33.013
O 34.641 36.168 42.457
O 37.774 43.969 44.9
O 41.843 53.022 34.695
O 34.196 51.64 34.002
O 38.956 49.056 28.378
O 37.9 29.847 35.075
O 36.483 51.152 35.074
O 33.741 48.832 30.02
O 42.779 49.169 40.93
O 44.328 40.414 39.675
O 49.172 45.68 46.848
O 48.851 49.071 45.41
O 30.609 45.454 35.664
N 47.255 47.449 45.656
N 50.479 46.045 45.037
C 44.622 43.983 46.852
C 49.254 46.025 45.639
C 45.26 44.81 45.927
C 46.527 44.474 45.431
C 45.238 42.808 47.286
C 47.799 48.687 45.956
C 47.138 43.291 45.869
C 51.714 45.782 45.77
C 47.358 48.43 49.217
C 47.997 46.502 44.861
C 50.756 46.292 43.628
C 47.076 49.542 47.028
C 52.735 45.346 44.69
C 47.085 51.016 46.603
C 52.312 46.996 46.517
C 52.271 46.074 43.432
C 46.498 42.464 46.792
C 47.172 45.301 44.376
H 38.792 48.246 28.876
H 38.528 30.56 34.904
H 34.46 50.762 34.303
H 29.725 41.82 38.149
H 30.544 41.812 36.871
H 39.143 49.712 29.062
H 35.943 50.747 44.28
H 30.529 37.949 41.217
H 34.426 50.687 44.28
H 36.003 42.399 44.038
H 35.896 43.002 42.648
H 41.15 53.047 34.023
H 35.114 45.976 31.453
H 36.352 45.204 31.034
H 37.55 44.88 27.896
H 37.294 44.729 26.406
H 38.939 44.363 39.461
H 37.713 43.796 38.768
H 40.265 34.53 34.667
H 40.624 38.31 37.986
H 42.116 38.58 37.913
H 32.388 36.743 35.561
H 31.134 36.3 34.827
H 51.593 42.395 29.38
H 50.918 41.154 28.824
H 37.947 49.704 33.977
H 39.427 50.044 33.974
H 33.815 47.679 38.335
H 35.196 48.297 38.203
H 36.229 47.811 33.528
H 38.77 34.277 34.753
H 40.529 41.777 38.809
H 40.191 40.296 38.827
H 33.859 36.734 42.482
H 35.104 47.908 32.513
H 35.137 36.496 41.696
H 34.831 50.518 36.85
H 44.658 40.253 35.747
H 45.254 39.162 34.875
H 33.686 49.679 37.39
H 41.722 52.163 35.118
H 38.848 51.921 42.263
H 37.64 51.705 41.368
H 36.187 37.673 36.456
H 35.808 37.235 37.86
H 41.865 45.587 28.936
H 41.872 46.912 28.194
H 32.933 44.123 30.811
H 43.141 50.784 34.155
H 43.441 50.145 32.81
H 34.227 43.963 31.59
H 40.498 38.324 31.534
H 40.862 36.851 31.598
H 38.213 40.449 37.7
H 30.743 35.298 46.261
H 46.728 33.729 35.982
H 45.992 34.926 35.406
H 39.492 35.856 47.604
H 38.142 35.865 48.299
H 33.732 40.652 34.122
H 32.668 41.065 35.123
H 37.475 41.694 38.161
H 46.345 42.774 36.374
H 39.907 46.938 39.678
H 40.031 47.803 40.92
H 34.199 43.833 29.034
H 34.758 42.449 29.313
H 45.915 49.214 34.7
H 45.49 50.214 33.639
H 38.043 33.896 38.739
H 48.612 38.745 37.725
H 48.572 39.346 39.119
H 41.775 55.301 41.13
H 51.296 39.825 35.118
H 50.709 38.443 35.35
H 36.831 33.105 39.198
H 44.206 46.609 38.076
H 45.694 46.632 37.771
H 42.577 35.751 35.021
H 44.083 35.898 34.891
H 45.181 52.905 33.346
H 43.312 31.797 32.883
H 39.438 33.066 40.963
H 41.847 32.18 32.775
H 38.719 41.813 40.338
H 39.548 42.905 40.992
H 33.569 38.245 37.226
H 33.398 39.754 37.237
H 50.011 33.116 31.516
H 48.713 32.992 30.738
H 40.27 33.791 42.007
H 33.569 38.85 41.876
H 47.284 44.243 34.593
H 47.0 43.21 33.517
H 32.138 39.348 41.985
H 41.517 36.814 36.638
H 40.701 35.665 37.204
H 50.649 43.047 36.469
H 48.163 36.193 39.993
H 49.338 35.466 39.363
H 36.187 39.043 43.901
H 35.35 40.053 43.136
H 51.524 44.238 36.821
H 50.14 41.675 34.826
H 48.653 41.374 34.751
H 30.111 35.65 43.858
H 33.747 38.3 44.21
H 32.669 39.206 44.78
H 32.577 43.399 33.85
H 34.055 43.126 33.635
H 47.736 45.464 31.719
H 38.769 47.408 35.757
H 46.405 44.749 31.569
H 46.692 53.277 35.423
H 45.621 41.857 37.343
H 44.201 51.511 30.088
H 44.008 51.868 31.552
H 37.214 51.628 30.496
H 41.758 46.071 38.864
H 42.969 45.348 39.428
H 50.528 47.547 34.998
H 49.212 46.859 34.682
H 39.152 47.897 34.371
H 49.847 35.341 32.104
H 47.855 40.472 36.593
H 46.603 39.614 36.554
H 48.735 36.003 31.309
H 47.557 52.831 33.426
H 45.204 47.131 34.858
H 44.993 45.627 34.845
H 50.287 43.511 31.541
H 40.661 37.531 33.908
H 41.836 30.616 41.564
H 41.885 31.822 40.643
H 39.586 36.613 34.463
H 46.628 33.055 31.447
H 46.373 45.688 43.682
H 31.05 48.136 36.002
H 40.9 38.511 45.26
H 41.365 37.497 44.23
H 45.908 37.144 38.796
H 45.783 38.58 38.316
H 42.851 40.006 33.524
H 43.073 41.431 34.0
H 37.532 43.206 30.359
H 36.363 42.352 30.818
H 50.467 47.345 43.355
H 39.46 53.211 29.567
H 50.166 45.575 42.994
H 44.403 42.766 27.152
H 44.715 42.134 47.983
H 44.74 45.706 45.551
H 45.014 43.04 31.893
H 42.51 33.367 35.077
H 43.318 32.305 35.803
H 44.538 43.074 33.335
H 43.611 44.238 47.21
H 46.97 41.517 47.098
H 51.541 44.983 46.545
H 33.14 36.765 31.814
H 40.605 30.257 34.244
H 42.029 30.606 34.639
H 48.118 42.997 45.462
H 42.361 41.65 37.594
H 43.325 40.478 37.552
H 32.962 38.273 31.829
H 45.138 43.571 26.094
H 39.239 36.318 43.315
H 37.887 36.777 42.798
H 37.057 36.497 32.899
H 38.16 35.827 32.098
H 47.322 38.686 34.153
H 48.728 39.047 34.6
H 40.204 53.212 36.315
H 40.143 54.429 35.408
H 41.826 49.069 41.047
H 42.932 50.109 41.083
H 43.968 29.666 35.138
H 42.765 34.868 37.641
H 44.017 34.078 37.3
H 40.903 47.07 31.405
H 41.992 47.256 30.363
H 32.229 38.867 39.741
H 47.943 40.065 29.57
H 36.076 34.215 37.036
H 33.936 43.348 44.025
H 34.805 44.562 43.748
H 51.567 40.729 33.131
H 51.717 41.972 32.272
H 35.504 32.874 37.459
H 32.851 40.944 39.365
H 33.541 33.329 45.733
H 34.088 33.638 44.35
H 33.516 42.147 38.722
H 44.521 43.712 29.147
H 44.499 42.212 29.385
H 35.723 44.247 34.681
H 36.182 43.88 33.281
H 48.814 41.209 30.06
H 31.8 37.964 38.598
H 45.332 48.37 40.446
H 44.185 48.349 39.45
H 39.43 54.596 41.467
H 38.871 54.372 40.072
H 39.473 33.244 37.197
H 40.704 33.139 36.314
H 40.574 41.721 35.834
H 39.373 42.586 36.174
H 35.973 50.796 39.986
H 34.759 50.573 39.101
H 42.712 48.795 28.966
H 41.261 49.143 29.248
H 41.967 43.302 33.416
H 45.676 34.913 39.613
H 39.101 43.692 31.924
H 33.705 37.318 40.238
H 37.751 49.496 39.8
H 39.244 49.774 39.792
H 33.834 36.426 39.016
H 35.446 39.414 29.031
H 38.05 44.671 32.418
H 47.86 44.657 43.762
H 46.625 43.114 42.361
H 45.388 42.503 41.727
H 42.759 41.648 31.801
H 41.511 41.387 30.976
H 42.571 39.662 46.109
H 42.999 38.989 44.816
H 38.163 42.44 42.638
H 37.725 40.989 42.55
H 47.396 41.767 38.64
H 41.289 49.984 35.468
H 40.647 50.856 36.534
H 48.634 42.625 38.447
H 49.201 44.623 33.129
H 50.345 43.905 33.824
H 42.733 44.467 34.018
H 34.579 43.721 41.039
H 33.075 43.562 40.895
H 33.928 39.408 29.075
H 36.89 48.524 35.503
H 35.499 49.101 35.305
H 41.197 40.45 40.777
H 39.943 39.851 41.387
H 27.646 45.417 34.545
H 38.343 38.266 33.141
H 38.145 38.135 31.641
H 40.927 52.874 29.366
H 31.995 37.15 46.223
H 30.613 37.442 46.781
H 42.06 52.126 41.201
H 40.625 52.623 41.173
H 40.984 35.817 40.059
H 39.633 35.362 40.583
H 34.73 40.704 30.665
H 34.552 41.302 32.05
H 31.776 45.095 41.786
H 38.17 35.354 45.019
H 36.675 35.372 45.288
H 39.583 48.933 37.734
H 38.565 47.928 38.243
H 48.407 36.911 36.473
H 38.656 36.467 29.921
H 37.993 35.101 29.942
H 36.066 30.631 37.581
H 48.01 35.464 36.701
H 38.058 37.253 38.12
H 38.754 35.906 38.2
H 40.996 51.149 39.344
H 40.296 52.06 38.351
H 36.011 48.132 45.979
H 36.863 49.273 46.506
H 48.342 47.059 43.932
H 46.477 47.113 46.174
H 47.067 40.7 40.539
H 48.015 41.868 40.748
H 33.766 38.329 33.877
H 32.425 41.532 41.439
H 33.798 41.816 42.023
H 34.802 38.519 34.971
H 46.969 34.082 29.32
H 35.165 36.814 30.954
H 35.782 38.201 30.998
H 37.277 35.126 41.409
H 36.02 34.276 41.353
H 48.844 44.269 28.154
H 48.764 42.754 28.226
H 44.514 39.593 43.341
H 43.849 40.859 42.828
H 45.582 44.88 40.028
H 46.889 44.628 40.759
H 44.529 37.28 36.916
H 43.517 38.174 36.221
H 35.176 46.504 42.173
H 35.947 45.232 41.865
H 41.049 47.835 36.039
H 41.792 46.543 35.751
H 48.493 40.315 32.415
H 48.556 41.821 32.232
H 43.853 42.287 36.108
H 47.777 38.067 31.583
H 46.67 38.849 30.896
H 42.261 37.395 28.838
H 43.614 36.73 28.658
H 45.04 44.041 37.703
H 43.932 43.127 38.195
H 42.414 33.146 38.966
H 33.37 38.796 47.629
H 43.706 43.789 35.935
H 41.065 33.833 39.083
H 39.088 45.462 30.616
H 38.814 46.078 29.256
H 36.273 47.394 39.895
H 37.444 46.469 40.178
H 45.827 30.939 35.308
H 45.467 31.91 34.197
H 49.386 46.896 31.974
H 36.187 51.834 35.69
H 50.014 45.92 30.994
H 47.834 36.424 42.472
H 40.581 40.135 33.16
H 39.691 41.366 33.174
H 37.19 32.523 33.46
H 39.064 45.216 46.24
H 38.193 44.325 47.108
H 43.838 46.062 30.279
H 34.156 50.392 32.155
H 40.892 31.151 37.237
H 40.292 30.898 38.609
H 46.605 42.136 28.021
H 47.455 41.005 27.47
H 44.533 46.048 31.63
H 29.791 42.721 35.014
H 50.739 39.196 40.631
H 52.002 38.611 40.025
H 34.913 43.577 37.04
H 34.736 45.064 36.786
H 37.092 45.621 37.498
H 36.845 47.081 37.164
H 36.929 51.651 34.378
H 31.092 45.958 36.331
H 30.423 44.614 36.101
H 49.061 38.865 28.104
H 50.121 39.593 27.296
H 37.426 39.846 40.688
H 37.912 38.41 40.776
H 50.378 35.052 29.525
H 51.894 34.977 29.485
H 46.669 46.07 29.324
H 46.541 44.558 29.38
H 31.727 45.315 32.221
H 30.351 44.878 32.692
H 44.777 39.932 40.379
H 43.923 41.163 40.131
H 42.298 35.153 29.449
H 40.912 35.712 29.717
H 35.667 41.239 34.99
H 36.634 41.845 33.988
H 33.22 35.352 46.548
H 34.378 35.59 45.595
H 39.768 44.549 37.095
H 31.803 34.434 41.25
H 33.138 34.657 40.562
H 41.243 44.502 36.738
H 38.842 47.977 46.215
H 39.529 48.807 45.145
H 37.431 54.322 32.197
H 37.618 53.942 33.655
H 50.974 36.676 38.527
H 49.97 37.626 39.157
H 48.638 39.053 41.352
H 48.345 39.718 42.686
H 30.813 38.465 36.704
H 31.253 39.464 35.649
H 41.867 45.079 31.196
H 37.492 31.944 40.948
H 37.149 30.647 41.659
H 43.002 44.074 31.285
H 30.814 47.356 41.009
H 32.056 46.755 40.374
H 50.79 37.047 33.426
H 49.658 36.298 34.107
H 39.211 38.641 43.074
H 38.346 39.465 44.013
H 47.368 49.932 36.188
H 47.853 51.308 36.61
H 31.178 45.424 28.606
H 33.205 45.976 43.217
H 33.945 46.458 44.453
H 49.862 40.75 37.508
H 37.62 46.484 45.005
H 36.154 46.412 44.615
H 50.812 39.666 37.987
H 33.011 48.58 32.65
H 32.737 49.471 33.849
H 42.06 51.432 30.587
H 42.026 50.01 31.12
H 34.496 48.853 30.621
H 35.128 48.58 42.952
H 45.83 41.287 33.447
H 45.565 39.953 32.77
H 50.037 38.419 31.77
H 49.607 38.044 30.362
H 35.235 49.822 42.084
H 41.733 42.664 40.42
H 41.048 43.756 39.617
H 36.688 49.689 29.596
H 36.648 49.112 31.001
H 36.961 37.803 28.913
H 35.021 39.206 40.262
H 35.339 40.502 40.986
H 37.878 50.175 43.182
H 37.559 48.716 43.462
H 48.822 46.358 28.975
H 44.739 32.725 38.878
H 44.187 31.311 38.848
H 48.088 46.643 27.677
H 46.184 41.467 30.895
H 47.172 42.603 30.695
H 33.753 47.768 35.531
H 34.964 46.949 35.119
H 38.388 40.667 35.518
H 37.176 39.754 35.585
H 38.122 46.88 42.387
H 38.07 45.362 42.417
H 36.193 52.631 38.747
H 36.555 51.476 37.83
H 35.739 35.222 47.898
H 36.543 33.934 47.913
H 42.989 35.331 42.027
H 42.727 33.932 41.497
H 36.423 32.251 43.351
H 36.461 33.658 43.921
H 38.465 37.708 36.006
H 39.879 38.252 35.902
H 51.501 38.866 29.602
H 31.222 40.855 43.924
H 33.873 45.615 39.611
H 32.736 45.639 38.605
H 46.015 52.735 31.29
H 46.391 51.511 32.108
H 53.379 40.863 36.687
H 51.942 41.295 36.917
H 38.538 51.621 36.509
H 38.182 50.2 36.107
H 39.471 55.637 31.293
H 38.835 56.732 32.131
H 33.673 48.672 44.737
H 46.897 49.637 29.538
H 47.823 49.939 30.703
H 31.533 49.467 37.79
H 36.036 39.422 37.781
H 35.35 40.742 37.476
H 38.317 33.166 45.25
H 30.648 38.756 43.607
H 37.16 42.566 35.999
H 37.606 44.015 36.085
H 35.487 37.056 49.103
H 36.938 37.299 49.483
H 35.811 39.058 33.079
H 36.715 40.05 32.368
H 42.982 48.102 32.137
H 42.252 47.607 33.373
H 40.854 33.075 30.768
H 39.076 45.038 34.334
H 39.977 43.824 34.197
H 39.546 33.842 30.861
H 41.849 48.299 38.888
H 42.788 48.825 37.817
H 44.487 33.043 30.439
H 44.538 33.631 31.838
H 32.172 35.584 44.62
H 32.473 34.916 43.29
H 43.587 37.82 33.8
H 42.632 37.071 32.887
H 48.61 36.834 28.819
H 47.625 35.893 28.149
H 48.533 33.204 34.594
H 35.068 35.663 34.314
H 34.99 35.625 32.798
H 31.993 46.634 34.189
H 33.304 45.87 34.112
H 39.104 32.258 32.408
H 45.757 38.264 41.843
H 46.887 37.733 40.978
H 39.691 32.224 33.809
H 37.937 53.472 37.536
H 37.605 53.575 36.058
H 39.5 52.294 32.779
H 38.087 51.806 32.513
H 41.12 39.175 29.548
H 42.596 39.532 29.563
H 47.921 45.427 25.495
H 47.163 44.402 26.321
H 38.647 50.012 31.184
H 39.782 49.003 31.163
H 48.41 48.755 32.888
H 48.244 48.985 34.38
H 37.299 44.178 44.086
H 38.015 43.041 44.793
H 49.054 44.705 37.419
H 43.124 34.662 33.181
H 41.649 34.701 32.818
H 49.595 44.943 36.021
H 31.619 40.824 30.931
H 30.721 39.628 31.194
H 33.096 49.687 40.562
H 33.879 48.44 40.931
H 45.945 36.067 32.566
H 45.742 37.399 33.267
H 32.307 43.099 37.15
H 32.673 44.382 36.425
H 34.381 41.704 46.606
H 45.723 49.277 31.369
H 46.085 47.803 31.397
H 39.952 45.044 41.319
H 41.459 45.215 41.249
H 38.322 47.216 32.434
H 37.703 47.12 31.05
