358
xyz format
Na 35.918 45.033 51.34
Na 35.533 36.977 44.303
O 38.146 26.099 47.255
O 41.21 27.671 39.253
O 32.884 35.448 43.982
O 44.313 31.574 52.484
O 41.417 32.357 57.638
O 40.733 34.076 46.972
O 34.624 42.468 47.144
O 43.992 24.817 43.626
O 43.409 31.841 44.157
O 44.202 27.859 45.228
O 41.933 22.698 53.335
O 35.8 40.266 38.185
O 34.909 40.162 40.192
O 45.137 32.146 55.159
O 35.157 26.844 52.851
O 38.584 33.255 44.327
O 27.335 33.78 43.537
O 30.409 37.825 43.689
O 36.242 36.632 49.531
O 33.466 28.099 53.863
O 35.998 33.114 43.272
O 34.633 35.421 54.0
O 32.809 39.934 49.526
O 42.071 34.804 48.565
O 32.099 40.922 43.526
O 39.813 27.995 42.506
O 34.547 28.544 47.565
O 37.205 34.002 50.022
O 39.501 27.725 48.116
O 36.8 31.274 41.013
O 39.855 33.055 48.811
O 36.863 27.526 57.835
O 36.524 26.872 49.286
O 32.193 34.817 40.454
O 34.114 35.713 46.515
O 29.547 31.1 45.338
O 37.155 38.97 40.989
O 38.696 30.883 43.229
O 38.22 29.507 49.033
O 37.56 35.072 53.085
O 36.542 34.821 41.955
O 44.88 26.431 50.601
O 41.199 31.681 43.378
O 44.863 22.647 50.426
O 38.103 30.039 55.727
O 35.931 26.726 42.591
O 44.026 34.047 50.12
O 43.704 34.017 44.311
O 41.565 31.817 54.306
O 39.199 39.015 43.964
O 33.308 41.152 41.522
O 34.491 30.77 46.735
O 32.659 27.394 46.023
O 43.206 30.56 46.823
O 40.673 37.651 44.885
O 33.023 29.487 44.649
O 39.361 30.466 53.336
O 41.94 30.858 40.636
O 34.368 33.378 45.237
O 32.374 37.163 51.355
O 36.116 32.709 54.784
O 31.158 37.572 45.994
O 40.3 36.05 40.7
O 33.464 31.615 55.099
O 35.259 30.555 38.107
O 44.366 32.637 42.188
O 37.52 35.164 45.707
O 33.097 33.851 52.257
O 38.552 36.003 47.437
O 40.349 33.304 41.177
O 27.874 33.464 47.384
O 37.159 30.547 46.724
O 39.064 29.864 40.771
O 41.733 31.719 49.0
O 30.351 31.204 49.225
O 38.546 26.21 42.283
O 38.78 36.562 42.502
O 39.147 33.436 51.778
O 31.661 28.49 49.029
O 30.169 36.239 49.156
O 37.61 34.905 56.095
O 34.204 35.282 49.475
O 41.244 23.022 47.716
O 38.576 28.029 51.764
O 33.268 38.49 45.026
O 37.425 24.538 49.781
O 36.101 39.456 43.033
O 46.899 27.467 43.896
O 40.933 30.223 57.005
O 32.216 30.69 52.555
O 32.701 38.598 42.214
O 39.505 27.216 58.129
O 36.704 32.63 52.673
O 42.168 23.661 50.343
O 43.006 29.024 43.006
O 31.072 33.585 50.361
O 37.609 25.714 51.631
O 38.189 41.608 43.127
O 30.186 34.974 43.173
O 44.021 30.799 56.917
O 30.19 38.593 40.584
O 45.389 24.214 46.521
O 36.324 31.597 57.694
O 35.964 42.155 43.105
O 31.743 32.566 46.89
O 31.288 34.605 56.578
O 33.21 36.684 39.705
O 36.862 29.017 39.224
O 45.559 27.575 42.147
O 45.719 26.103 47.764
O 38.327 32.878 54.35
O 35.27 29.077 56.845
O 41.801 34.548 56.395
O 33.196 27.686 43.251
O 41.886 32.097 51.535
O 32.41 38.728 47.709
O 28.732 36.286 46.575
O 36.563 28.234 45.843
O 32.384 41.162 47.373
O 34.172 30.657 49.549
O 32.852 29.488 55.893
O 40.981 29.046 45.828
O 34.032 28.321 40.078
O 34.308 33.121 47.957
O 30.787 35.311 54.379
O 30.572 34.36 46.412
O 34.415 30.797 42.537
O 41.464 36.253 46.761
O 42.198 26.308 42.487
O 42.5 24.114 45.083
O 36.144 34.572 47.31
O 42.477 34.855 41.362
O 42.278 26.575 47.445
O 34.641 36.168 42.457
O 36.833 30.582 59.644
O 42.909 28.724 55.5
H 35.571 31.726 57.103
H 37.068 31.469 57.093
H 45.088 24.902 45.916
H 44.671 24.144 47.164
H 28.587 33.421 46.735
H 30.986 28.628 48.352
H 33.859 36.734 42.482
H 35.137 36.496 41.696
H 34.976 30.389 41.866
H 33.55 30.85 42.111
H 42.93 26.565 41.912
H 41.424 26.369 41.914
H 30.324 34.029 45.54
H 30.743 35.298 46.261
H 39.492 35.856 47.604
H 38.142 35.865 48.299
H 41.653 24.371 50.746
H 42.829 24.128 49.817
H 40.628 23.668 48.083
H 41.62 22.595 48.497
H 40.409 29.397 46.522
H 41.415 28.293 46.248
H 39.438 33.066 40.963
H 40.27 33.791 42.007
H 33.569 38.85 41.876
H 32.138 39.348 41.985
H 39.199 27.719 57.364
H 37.012 32.678 51.759
H 35.766 32.422 52.588
H 38.995 28.324 52.582
H 37.747 28.522 51.74
H 36.187 39.043 43.901
H 35.35 40.053 43.136
H 31.164 28.513 49.856
H 30.111 35.65 43.858
H 33.747 38.3 44.21
H 32.669 39.206 44.78
H 35.909 28.941 45.776
H 34.703 35.12 50.286
H 36.057 27.435 45.652
H 33.283 35.267 49.765
H 38.323 35.168 55.5
H 36.9 34.637 55.498
H 31.132 36.311 49.144
H 37.709 24.184 48.929
H 36.461 24.514 49.73
H 39.956 33.892 52.039
H 39.203 32.588 52.236
H 41.836 30.616 41.564
H 41.885 31.822 40.643
H 36.225 31.774 54.999
H 35.345 32.975 55.3
H 32.356 29.825 45.26
H 33.796 29.344 45.209
H 32.236 36.213 51.457
H 32.632 37.259 50.43
H 41.579 31.266 51.153
H 41.539 32.768 50.933
H 40.089 30.554 52.708
H 38.573 30.483 52.779
H 43.372 29.737 47.298
H 42.243 30.599 46.762
H 39.239 36.318 43.315
H 37.887 36.777 42.798
H 38.654 25.824 41.405
H 38.707 25.469 42.881
H 38.105 30.629 46.896
H 36.783 30.366 47.594
H 33.541 33.329 45.733
H 34.088 33.638 44.35
H 39.468 30.725 40.939
H 38.761 29.929 39.857
H 42.124 32.229 48.28
H 41.082 31.16 48.557
H 29.959 30.325 49.304
H 39.035 33.522 54.22
H 38.648 32.328 55.075
H 30.72 31.37 50.101
H 33.705 37.318 40.238
H 33.834 36.426 39.016
H 42.375 28.644 42.383
H 43.567 29.583 42.454
H 37.946 25.026 52.217
H 37.219 26.359 52.234
H 37.725 40.989 42.55
H 31.252 34.53 50.451
H 31.72 33.29 49.709
H 36.131 28.451 38.947
H 36.763 29.066 40.183
H 33.629 33.051 52.158
H 33.741 34.566 52.179
H 31.995 37.15 46.223
H 30.613 37.442 46.781
H 38.17 35.354 45.019
H 36.675 35.372 45.288
H 32.004 34.121 57.009
H 34.68 30.009 37.561
H 34.017 31.524 54.313
H 32.973 32.431 54.941
H 33.778 27.319 42.574
H 32.546 28.191 42.746
H 32.425 41.532 41.439
H 33.798 41.816 42.023
H 33.298 26.752 46.358
H 32.358 27.853 46.817
H 37.277 35.126 41.409
H 36.02 34.276 41.353
H 44.675 26.15 49.7
H 35.544 29.726 56.185
H 35.191 28.257 56.341
H 35.069 30.964 45.986
H 33.64 31.142 46.47
H 33.37 38.796 47.629
H 32.285 38.076 48.409
H 44.657 33.948 44.448
H 35.741 26.956 43.509
H 36.647 27.326 42.348
H 38.588 29.448 55.137
H 38.217 29.638 56.598
H 32.076 33.199 47.538
H 44.388 22.332 51.206
H 45.598 23.154 50.794
H 31.553 31.779 47.416
H 40.855 31.383 44.23
H 41.444 32.601 43.54
H 37.5 35.232 52.134
H 36.66 34.825 53.332
H 37.896 29.777 49.901
H 37.677 28.74 48.813
H 43.853 33.221 49.653
H 37.103 29.969 58.949
H 37.426 39.846 40.688
H 37.912 38.41 40.776
H 29.26 31.97 45.036
H 29.399 30.531 44.572
H 38.727 31.722 42.753
H 38.17 31.083 44.013
H 33.22 35.352 46.548
H 34.378 35.59 45.595
H 33.138 34.657 40.562
H 36.039 27.362 49.962
H 37.394 26.737 49.681
H 41.201 34.581 55.639
H 37.492 31.944 40.948
H 37.149 30.647 41.659
H 36.299 27.977 58.476
H 37.327 26.865 58.364
H 42.133 31.417 54.976
H 40.855 32.223 54.819
H 45.171 26.838 47.462
H 39.211 38.641 43.074
H 38.346 39.465 44.013
H 40.126 27.17 47.635
H 39.978 27.966 48.92
H 42.525 28.901 54.632
H 39.723 32.686 49.694
H 39.757 34.006 48.943
H 37.575 33.174 49.691
H 37.97 34.587 50.083
H 34.881 30.396 48.949
H 33.48 30.982 48.959
H 35.021 39.206 40.262
H 35.339 40.502 40.986
H 41.917 34.205 49.307
H 34.609 31.035 58.962
H 35.134 25.913 53.103
H 34.429 26.929 52.222
H 44.217 32.129 54.868
H 35.739 35.222 47.898
H 36.543 33.934 47.913
H 36.423 32.251 43.351
H 36.461 33.658 43.921
H 33.899 28.545 48.281
H 31.222 40.855 43.924
H 35.204 27.897 47.852
H 42.074 26.448 48.38
H 40.048 28.067 41.572
H 40.003 28.873 42.858
H 42.27 25.679 47.085
H 40.309 30.369 56.284
H 40.656 29.378 57.381
H 31.359 30.875 52.151
H 32.794 30.526 51.8
H 46.155 27.987 44.224
H 33.278 28.406 40.674
H 34.787 28.234 40.674
H 32.861 28.632 56.338
H 32.815 30.124 56.618
H 38.317 33.166 45.25
H 39.546 33.326 44.373
H 27.787 32.937 43.407
H 29.455 37.845 43.838
H 30.648 38.756 43.607
H 35.487 37.056 49.103
H 36.938 37.299 49.483
H 34.957 32.422 48.103
H 33.87 33.209 48.813
H 44.304 31.563 44.388
H 42.913 31.718 44.976
H 32.172 35.584 44.62
H 32.473 34.916 43.29
H 44.5 26.951 45.37
H 43.576 28.009 45.947
H 44.704 27.692 42.582
H 42.021 22.86 52.387
H 41.919 24.392 44.364
H 41.89 23.833 45.776
H 33.991 34.969 54.562
H 35.22 35.859 54.628
H 32.693 27.753 54.328
H 33.122 28.865 53.387
H 37.181 26.119 47.277
H 38.347 25.488 46.535
H 34.616 43.202 46.516
H 34.381 41.704 46.606
H 43.462 31.424 52.914
H 31.595 34.784 54.347
H 40.868 32.842 58.267
H 44.221 24.388 42.793
H 44.233 25.741 43.482
