54
xyz format
O 35.646 45.563 28.761
O 43.6 42.791 24.648
O 40.307 48.273 23.517
O 34.715 43.491 26.406
O 39.352 44.169 24.83
O 35.981 47.245 25.677
O 44.903 46.984 25.397
O 42.041 49.464 28.779
O 41.037 47.328 30.485
O 41.266 46.155 26.218
O 38.848 47.839 25.813
O 41.364 43.526 26.576
O 37.132 45.325 27.148
O 39.405 45.462 29.705
O 40.338 50.895 27.642
O 38.084 50.946 24.48
O 42.271 46.033 28.182
O 38.956 49.056 28.378
H 38.792 48.246 28.876
H 37.55 44.88 27.896
H 37.294 44.729 26.406
H 41.865 45.587 28.936
H 41.872 46.912 28.194
H 42.071 43.704 25.944
H 41.503 44.186 27.267
H 40.627 45.882 25.548
H 42.022 46.462 25.703
H 37.815 50.019 24.498
H 38.41 51.108 25.374
H 42.046 49.363 25.647
H 44.403 42.766 27.152
H 41.992 47.256 30.363
H 42.712 48.795 28.966
H 41.261 49.143 29.248
H 39.225 48.618 26.239
H 38.938 47.147 26.48
H 44.415 46.302 25.875
H 35.243 47.185 26.296
H 36.756 47.307 26.248
H 38.924 44.967 24.498
H 38.728 43.466 24.61
H 38.814 46.078 29.256
H 43.838 46.062 30.279
H 43.498 45.832 23.87
H 40.173 50.819 26.693
H 41.867 45.079 31.196
H 37.536 50.636 27.522
H 35.383 43.826 27.017
H 40.259 47.546 24.15
H 39.694 48.928 23.872
H 35.111 45.781 27.987
H 35.562 46.342 29.325
H 43.263 42.23 23.939
H 44.054 43.503 24.181
