141
xyz format
O 67.443 45.63 45.603
O 68.359 43.086 54.523
O 63.784 46.708 48.397
O 67.345 48.817 50.344
O 65.304 43.889 46.505
O 62.194 42.612 47.902
O 60.649 44.321 52.543
O 64.323 47.801 55.339
O 63.103 48.738 45.302
O 70.887 45.059 49.576
O 66.393 42.618 45.076
O 61.473 44.715 48.2
O 68.506 46.737 47.887
O 63.502 41.26 46.724
O 65.778 46.918 42.973
O 61.746 48.45 48.04
O 66.14 43.802 53.398
O 62.426 43.614 45.743
O 63.522 44.213 54.656
O 66.814 46.949 52.976
O 69.466 49.221 48.582
O 66.986 42.563 49.955
O 63.531 43.32 52.289
O 66.915 40.92 53.767
O 65.903 43.125 57.056
O 63.897 50.046 47.79
O 67.928 44.615 47.791
O 68.57 43.342 51.808
O 64.586 43.393 49.489
O 70.24 45.853 51.53
O 63.815 45.919 53.122
O 65.206 45.478 56.278
O 61.18 45.78 50.956
O 66.21 44.838 51.374
O 66.353 46.773 48.338
O 65.226 47.043 46.374
O 69.449 41.964 49.151
O 67.213 49.441 44.803
O 67.077 39.77 48.91
O 65.652 39.855 45.902
O 64.177 47.751 50.972
H 69.06 44.009 51.312
H 68.945 42.506 51.501
H 63.975 50.553 44.284
H 61.772 46.577 45.259
H 68.939 48.313 52.763
H 66.045 45.89 56.522
H 65.27 45.377 55.32
H 64.5 42.452 49.293
H 64.941 43.766 48.672
H 69.229 49.943 50.672
H 67.075 48.516 45.041
H 66.596 49.919 45.37
H 62.168 42.016 51.016
H 67.491 39.96 51.281
H 64.206 43.101 51.635
H 62.937 43.916 51.816
H 65.636 47.891 46.584
H 65.12 47.07 45.415
H 61.619 47.891 53.952
H 67.722 40.549 53.388
H 69.685 41.55 53.336
H 61.158 46.652 50.543
H 61.9 45.847 51.595
H 66.986 44.584 50.859
H 65.523 44.965 50.708
H 64.854 40.371 50.009
H 65.748 42.647 56.232
H 66.58 43.772 56.822
H 66.299 40.936 53.024
H 62.868 46.052 56.809
H 67.88 43.892 47.153
H 67.267 44.382 48.453
H 63.651 50.978 47.854
H 64.837 50.073 47.571
H 66.295 42.461 50.622
H 67.407 41.695 49.926
H 63.578 41.631 53.698
H 69.23 42.651 48.509
H 70.21 42.326 49.622
H 66.563 47.803 53.349
H 66.301 46.896 52.16
H 69.732 48.338 48.869
H 68.506 49.158 48.507
H 64.092 43.539 55.047
H 62.754 43.714 54.35
H 61.781 42.897 45.714
H 61.894 44.407 45.599
H 63.609 39.764 44.492
H 59.813 43.731 49.319
H 65.913 46.087 48.857
H 66.261 47.565 48.881
H 68.649 45.181 56.567
H 66.155 43.108 52.727
H 65.279 44.222 53.274
H 70.174 44.494 49.253
H 70.63 45.943 49.285
H 62.471 42.496 56.155
H 67.686 39.449 48.234
H 66.339 40.13 48.402
H 65.137 39.448 46.611
H 61.371 48.078 47.232
H 61.621 47.75 48.693
H 68.535 46.485 48.818
H 69.389 46.52 47.563
H 66.066 46.248 43.605
H 66.372 47.661 43.139
H 64.667 47.081 50.478
H 63.263 47.444 50.93
H 63.812 50.677 51.149
H 63.794 49.728 49.963
H 69.542 46.328 51.998
H 64.111 45.758 52.218
H 63.301 46.734 53.053
H 59.43 47.536 51.577
H 59.048 46.077 51.397
H 61.528 45.592 47.8
H 61.845 44.842 49.082
H 66.377 42.039 45.848
H 62.429 41.917 48.529
H 62.988 43.16 47.859
H 67.306 48.652 51.294
H 66.6 49.41 50.183
H 63.397 47.541 55.252
H 64.67 47.718 54.442
H 63.274 48.61 46.244
H 62.142 48.826 45.255
H 60.942 44.543 53.436
H 62.793 40.988 46.128
H 64.219 41.511 46.128
H 61.279 42.362 53.431
H 66.789 51.354 48.629
H 67.938 46.44 45.779
H 67.8 45.321 44.761
H 68.338 43.926 54.048
H 67.497 43.045 54.956
H 63.766 45.75 48.52
H 63.349 46.838 47.545
H 59.984 46.506 53.441
H 65.69 44.741 46.743
H 64.681 44.108 45.8
