920
xyz format
Cl 62.646 58.926 60.688
Cl 64.214 44.247 60.337
O 71.279 56.117 59.229
O 54.575 43.013 67.823
O 68.971 51.431 66.409
O 67.066 54.338 55.681
O 48.289 54.675 60.198
O 63.168 58.198 58.623
O 59.509 53.567 70.493
O 61.976 45.353 59.134
O 62.038 56.92 63.279
O 58.228 51.797 74.53
O 47.424 54.104 66.271
O 67.744 46.953 58.777
O 55.968 59.682 62.992
O 63.229 49.027 63.19
O 70.947 50.65 59.738
O 60.252 42.998 62.523
O 58.119 54.41 60.805
O 60.311 48.424 64.719
O 52.342 61.133 68.723
O 64.723 51.009 61.033
O 51.025 49.636 71.163
O 56.277 43.541 70.46
O 70.082 54.827 62.669
O 65.438 44.001 70.604
O 61.15 51.715 61.861
O 64.694 41.658 68.189
O 65.515 50.061 67.201
O 60.649 44.321 52.543
O 49.199 54.548 65.05
O 48.067 51.742 61.864
O 58.796 59.374 64.961
O 65.984 48.353 72.97
O 64.323 47.801 55.339
O 63.682 51.245 66.618
O 65.019 50.15 57.858
O 56.1 64.089 69.08
O 50.429 46.887 61.906
O 53.691 45.986 67.672
O 67.252 43.596 62.101
O 59.113 42.284 54.217
O 64.804 52.153 55.074
O 52.244 43.936 64.191
O 68.357 48.068 68.253
O 65.989 41.157 61.39
O 64.954 62.354 66.872
O 71.0 53.484 60.153
O 60.87 45.858 66.347
O 64.423 56.929 66.829
O 63.193 49.181 57.119
O 63.124 43.232 58.701
O 56.041 56.892 75.006
O 61.128 58.983 57.055
O 71.535 55.489 64.188
O 62.014 41.787 56.626
O 56.871 54.921 68.371
O 57.393 50.847 72.057
O 48.289 51.398 67.62
O 70.4 48.793 66.636
O 59.294 51.231 58.69
O 50.58 46.217 65.016
O 62.268 49.56 69.406
O 61.826 62.956 59.73
O 66.688 44.048 59.049
O 61.932 50.662 59.556
O 69.345 41.933 58.581
O 72.411 52.339 63.983
O 69.07 44.581 57.195
O 59.521 47.544 70.035
O 59.514 53.361 75.42
O 57.996 62.756 72.8
O 59.315 59.568 71.552
O 58.929 40.688 62.381
O 47.298 56.666 66.583
O 63.065 48.889 72.287
O 59.475 44.985 61.593
O 51.219 52.43 70.538
O 63.319 59.946 67.882
O 69.271 43.885 67.427
O 62.184 60.764 71.62
O 65.671 61.294 58.902
O 55.974 50.296 69.876
O 54.103 44.89 60.293
O 56.347 56.773 69.443
O 54.745 47.562 72.214
O 64.897 49.875 54.136
O 54.146 46.555 63.835
O 67.535 49.778 57.797
O 62.87 59.15 73.204
O 59.769 50.395 70.355
O 69.161 52.654 63.008
O 71.635 51.422 65.96
O 61.378 51.59 68.789
O 63.522 44.213 54.656
O 55.729 60.392 59.571
O 64.067 41.072 56.855
O 51.724 53.542 64.725
O 63.951 44.895 67.329
O 53.87 53.66 68.672
O 67.307 52.029 56.754
O 50.654 50.674 67.209
O 64.268 53.989 62.977
O 60.838 65.916 69.691
O 64.053 41.016 60.357
O 57.282 42.24 61.23
O 52.78 57.819 67.129
O 60.505 43.448 55.93
O 67.82 55.291 60.46
O 67.848 60.506 61.688
O 71.186 53.533 67.989
O 49.944 52.038 65.237
O 64.113 56.623 64.676
O 62.882 52.385 57.515
O 56.551 62.57 64.886
O 60.977 37.685 58.77
O 65.57 48.977 59.756
O 67.853 48.054 64.624
O 69.19 46.171 62.472
O 68.628 50.902 61.299
O 56.375 46.639 69.781
O 64.232 40.062 62.331
O 55.016 54.74 74.581
O 66.957 52.591 60.533
O 56.402 51.536 63.405
O 62.008 47.645 59.223
O 64.688 38.506 65.185
O 58.954 55.719 71.991
O 64.364 61.958 70.047
O 59.051 56.579 63.042
O 60.088 50.102 73.471
O 53.335 59.822 59.477
O 53.887 51.634 67.558
O 67.303 47.911 62.304
O 63.967 57.638 61.957
O 68.392 41.272 55.898
O 60.249 38.508 63.968
O 61.308 48.56 54.575
O 59.661 62.547 61.16
O 60.257 52.488 65.709
O 49.151 47.639 66.853
O 68.284 54.102 67.92
O 67.241 56.179 63.668
O 55.73 44.345 65.835
O 62.059 55.315 65.918
O 65.078 46.072 59.477
O 66.727 55.814 66.239
O 54.183 62.051 70.321
O 68.523 55.167 58.358
O 58.777 43.403 65.603
O 56.806 42.436 65.682
O 61.481 62.579 66.845
O 58.309 42.437 58.624
O 63.169 46.44 57.641
O 67.902 52.872 64.805
O 50.197 49.745 63.746
O 61.51 56.232 56.192
O 65.903 43.125 57.056
O 61.336 54.159 55.474
O 62.542 46.234 75.718
O 61.444 47.632 73.521
O 66.554 56.94 69.479
O 63.009 38.757 59.777
O 52.245 51.887 61.515
O 60.761 57.636 74.462
O 51.928 47.178 70.185
O 57.603 48.38 59.05
O 63.218 39.463 67.738
O 54.178 49.153 69.305
O 54.925 60.006 67.785
O 61.59 60.384 58.908
O 67.189 45.932 71.068
O 56.881 44.175 67.708
O 62.748 38.229 57.524
O 54.662 56.543 64.089
O 62.695 41.199 68.982
O 55.544 47.004 66.219
O 63.496 63.416 65.077
O 61.065 47.323 62.157
O 54.503 48.568 61.921
O 52.347 55.403 73.0
O 65.009 47.781 61.968
O 70.387 56.056 67.936
O 60.328 50.152 63.318
O 70.629 47.112 60.062
O 52.916 55.211 65.598
O 59.691 61.441 58.761
O 50.022 54.357 61.744
O 63.765 54.904 56.18
O 69.354 58.359 68.053
O 50.44 45.634 58.702
O 52.045 49.715 73.938
O 60.418 62.155 72.505
O 49.498 55.815 69.244
O 63.746 48.714 65.983
O 46.166 50.465 65.749
O 70.243 50.768 70.376
O 69.278 44.19 61.184
O 61.827 44.232 70.126
O 69.991 57.299 61.878
O 70.635 47.366 69.373
O 61.23 55.035 60.138
O 54.39 58.038 61.041
O 58.568 45.13 70.561
O 51.36 54.265 68.284
O 45.484 55.421 68.155
O 62.853 44.146 62.449
O 61.329 57.219 66.991
O 58.218 51.392 64.638
O 60.783 41.805 66.739
O 58.174 58.5 75.385
O 66.43 57.417 59.538
O 62.029 62.718 69.551
O 63.815 45.919 53.122
O 68.558 59.38 65.557
O 62.059 41.298 64.773
O 57.734 62.056 70.046
O 65.642 54.338 58.112
O 59.26 56.624 70.009
O 51.214 45.017 66.751
O 59.672 53.905 63.461
O 65.934 43.22 65.333
O 61.479 55.336 74.924
O 58.291 55.897 65.975
O 70.712 46.232 66.163
O 67.465 53.232 69.817
O 57.834 39.373 65.035
O 65.142 57.127 57.36
O 55.395 58.188 65.856
O 65.126 53.966 60.897
O 65.206 45.478 56.278
O 49.094 57.43 60.789
O 53.821 50.34 72.797
O 56.714 49.376 62.964
O 59.971 48.903 67.52
O 72.054 48.658 62.695
O 59.036 49.134 60.538
O 60.908 65.06 71.969
O 54.797 52.536 60.356
O 57.868 52.088 68.687
O 58.266 52.377 61.636
O 54.031 61.468 65.908
O 59.831 58.823 61.169
O 52.312 48.899 61.152
O 68.165 45.241 64.78
O 53.778 58.748 63.227
O 59.362 40.431 69.088
O 56.364 54.83 63.474
O 67.26 41.036 63.534
O 55.106 54.612 70.907
O 54.29 59.603 71.774
O 55.738 41.345 62.921
O 65.587 59.325 64.57
O 63.256 47.005 70.675
O 64.165 52.322 52.887
O 58.514 44.37 55.707
O 57.213 45.272 59.184
O 45.143 55.064 64.304
O 62.493 38.106 65.071
O 66.34 45.882 66.399
O 57.663 61.028 61.846
O 53.504 47.74 59.259
O 63.215 53.304 68.294
O 48.31 49.359 69.064
O 57.759 47.152 66.821
O 65.422 51.232 71.391
O 55.395 46.924 60.065
O 61.832 51.639 54.799
O 63.389 41.099 54.481
O 58.313 64.255 69.655
O 70.004 49.552 62.361
O 66.154 41.001 58.781
O 54.572 51.969 70.214
O 62.226 47.078 67.782
O 58.669 39.086 60.436
O 57.144 58.857 72.231
O 67.231 58.478 62.253
O 58.655 46.414 64.366
O 51.743 56.608 61.237
O 58.796 56.877 59.666
O 69.148 41.817 65.804
O 67.718 48.593 55.697
O 60.214 38.647 70.545
O 57.798 60.473 57.314
O 53.678 52.437 73.681
O 60.544 60.771 65.385
O 65.242 50.684 64.256
O 50.585 56.881 63.867
O 56.957 60.557 66.723
O 62.204 51.375 64.503
O 57.812 48.611 72.06
O 59.477 54.624 67.64
O 61.593 43.859 64.625
O 53.589 53.425 63.084
O 56.832 46.309 62.245
O 53.187 49.53 64.323
O 51.17 59.369 62.253
O 65.969 52.9 66.381
O 62.406 59.781 62.749
O 63.46 46.096 63.813
O 69.443 41.708 62.433
O 59.433 46.664 54.217
O 56.405 50.712 66.119
O 62.105 55.706 69.222
O 61.067 53.359 73.111
O 53.953 44.795 70.772
O 61.613 40.045 58.66
O 61.245 42.632 60.381
O 61.075 41.491 53.069
O 63.539 52.401 73.384
O 56.131 58.195 58.527
O 60.517 60.802 70.185
O 55.489 44.035 61.792
O 62.754 63.941 71.446
O 66.843 50.424 62.784
O 59.188 61.6 68.093
O 53.394 41.588 65.588
O 59.636 45.376 73.29
O 49.132 50.328 60.552
O 46.676 54.87 62.737
O 58.454 57.81 67.415
O 51.909 51.365 55.163
O 50.19 53.992 53.244
O 63.848 61.673 60.101
O 62.08 57.686 71.165
O 59.899 46.772 58.819
N 52.353 53.934 53.978
N 50.123 52.271 56.216
N 54.45 50.646 53.996
C 52.791 51.562 51.129
C 49.365 53.325 56.879
C 51.406 53.938 52.972
C 56.677 51.811 56.155
C 49.413 50.996 56.292
C 51.942 53.806 55.355
C 54.053 49.22 53.886
C 55.642 51.408 57.001
C 54.453 52.135 57.049
C 55.33 53.677 55.408
C 52.916 48.985 52.897
C 53.052 54.098 56.375
C 51.331 52.398 55.595
C 51.894 53.827 51.502
C 54.285 53.274 56.25
C 56.517 52.946 55.359
H 53.972 60.508 71.883
H 54.331 59.265 72.677
H 53.717 56.416 63.94
H 60.765 60.61 69.273
H 60.007 61.619 70.117
H 54.834 56.055 64.904
H 60.73 39.916 58.291
H 61.585 40.943 59.014
H 57.346 53.289 54.718
H 56.529 41.663 63.375
H 55.216 50.759 54.669
H 53.207 45.391 70.636
H 54.389 44.773 69.91
H 68.941 44.92 64.304
H 67.5 45.351 64.088
H 54.436 47.605 61.924
H 54.675 48.784 60.996
H 61.296 52.978 73.968
H 61.081 52.601 72.513
H 61.964 41.694 68.59
H 62.258 40.472 69.442
H 60.056 59.601 61.693
H 60.56 58.213 61.339
H 62.719 56.111 68.596
H 61.247 55.79 68.788
H 66.045 45.89 56.522
H 65.27 45.377 55.32
H 48.836 56.576 61.159
H 54.539 50.737 72.289
H 53.283 49.899 72.128
H 64.856 54.715 60.35
H 64.689 53.211 60.483
H 51.127 54.581 55.525
H 52.605 53.958 57.397
H 66.957 54.023 70.034
H 66.885 52.744 69.219
H 58.331 40.196 65.124
H 59.707 41.146 68.539
H 58.559 40.156 68.629
H 53.648 51.217 54.314
H 57.063 55.246 63.993
H 67.528 40.222 63.98
H 67.032 41.63 64.259
H 63.065 51.726 72.882
H 64.058 52.863 72.714
H 54.436 55.2 70.535
H 55.914 55.138 70.879
H 55.89 54.289 64.118
H 55.236 54.601 54.815
H 52.996 58.483 63.727
H 53.729 59.712 63.219
H 55.233 47.918 66.211
H 55.767 46.83 65.296
H 56.53 51.468 66.706
H 64.857 56.53 58.063
H 56.07 57.841 65.259
H 54.717 58.532 65.261
H 64.32 57.358 56.909
H 57.63 51.259 56.147
H 56.297 49.967 66.724
H 53.315 53.824 53.762
H 60.702 48.127 62.55
H 57.466 45.708 62.655
H 70.375 48.29 69.265
H 71.286 47.229 68.673
H 56.299 46.62 62.988
H 65.97 53.7 58.758
H 66.384 54.943 57.991
H 59.461 57.353 69.409
H 59.131 55.871 69.42
H 57.06 61.458 70.391
H 57.393 62.312 69.18
H 66.812 46.3 70.259
H 53.866 57.27 60.781
H 66.416 45.702 71.598
H 60.06 61.316 64.752
H 55.021 57.679 61.677
H 61.469 60.991 65.217
H 60.824 55.595 59.465
H 62.162 55.282 60.11
H 70.449 56.87 61.144
H 69.26 57.764 61.452
H 51.369 45.407 67.62
H 51.777 44.233 66.747
H 57.709 60.843 66.19
H 56.236 60.492 66.085
H 70.014 46.454 66.792
H 54.701 44.182 62.33
H 62.655 41.812 65.332
H 62.491 41.306 63.91
H 66.208 43.663 66.146
H 65.896 43.935 64.685
H 60.424 54.079 64.041
H 58.938 53.767 64.072
H 56.194 43.929 62.443
H 56.138 44.738 67.962
H 57.652 44.74 67.84
H 51.373 56.572 64.331
H 63.074 51.066 64.223
H 61.883 50.667 65.076
H 50.306 57.651 64.378
H 59.214 56.161 66.07
H 57.892 56.63 65.489
H 65.247 49.905 64.826
H 60.68 55.175 74.407
H 62.165 55.456 74.256
H 65.182 51.421 64.877
H 58.307 45.966 70.967
H 58.69 44.539 71.314
H 57.259 60.015 57.971
H 53.592 52.949 74.495
H 53.645 53.106 72.985
H 50.824 54.875 67.762
H 51.861 53.775 67.62
H 61.806 47.099 62.734
H 52.718 49.741 61.392
H 51.523 49.157 60.66
H 55.61 59.365 68.012
H 68.781 44.707 60.538
H 55.16 60.785 68.304
H 69.954 43.749 60.654
H 62.475 44.947 70.163
H 62.046 43.767 69.309
H 70.215 50.549 69.436
H 69.518 51.395 70.487
H 58.401 57.716 59.4
H 58.217 56.565 60.373
H 61.213 59.53 59.155
H 61.466 58.1 67.362
H 61.037 57.394 66.088
H 58.016 52.131 65.226
H 58.423 50.668 65.243
H 62.918 44.977 61.962
H 60.235 41.193 66.23
H 60.737 42.627 66.235
H 61.853 60.771 59.753
H 62.733 43.484 61.756
H 51.934 55.783 60.774
H 50.949 56.406 61.748
H 53.652 51.827 57.739
H 60.557 39.313 63.532
H 57.531 57.983 72.369
H 56.279 58.667 71.848
H 64.888 62.586 69.535
H 65.023 61.354 70.412
H 48.914 46.892 66.289
H 48.932 48.411 66.317
H 61.118 61.948 73.137
H 59.787 61.434 72.618
H 69.138 54.155 67.474
H 67.648 54.064 67.195
H 67.335 55.252 63.415
H 68.152 56.489 63.742
H 67.096 47.097 62.78
H 67.63 47.602 61.451
H 54.004 51.955 66.655
H 54.752 51.773 67.964
H 59.912 49.591 74.272
H 60.348 49.433 72.825
H 58.173 44.906 54.98
H 58.623 45.004 56.428
H 59.201 56.028 63.82
H 58.645 57.378 63.401
H 63.649 40.022 67.079
H 59.622 55.961 72.644
H 58.123 55.784 72.478
H 64.537 56.985 62.382
H 64.323 58.483 62.257
H 54.238 52.482 70.96
H 53.808 51.454 69.928
H 58.653 60.802 68.194
H 59.541 61.528 67.198
H 69.19 49.035 62.324
H 53.498 42.467 65.974
H 69.731 47.321 60.346
H 71.158 47.242 60.859
H 49.599 55.493 70.149
H 66.278 40.981 57.824
H 66.063 41.941 58.98
H 53.56 54.808 66.194
H 48.635 55.477 68.976
H 52.279 55.623 66.194
H 64.584 48.281 66.189
H 63.113 47.986 65.953
H 60.182 51.021 63.711
H 59.444 49.871 63.05
H 65.453 47.239 61.304
H 64.342 48.263 61.464
H 59.275 60.602 58.994
H 59.94 61.325 57.836
H 60.029 51.764 66.305
H 61.095 52.816 66.057
H 61.303 47.177 68.048
H 62.659 46.737 68.574
H 59.517 62.579 62.113
H 59.584 61.609 60.947
H 61.655 49.386 54.216
H 61.619 47.891 53.952
H 70.39 49.436 61.484
H 50.77 46.533 58.577
H 64.667 55.215 56.331
H 63.46 54.649 57.06
H 51.241 45.097 58.725
H 52.259 55.969 72.223
H 50.956 54.17 61.906
H 49.563 53.632 62.186
H 68.396 55.824 57.662
H 55.778 50.537 57.663
H 71.921 48.044 63.428
H 72.69 49.295 63.043
H 69.213 54.591 58.007
H 54.748 50.997 53.073
H 51.075 47.623 70.266
H 51.81 46.593 69.426
H 58.356 49.648 60.99
H 59.861 49.456 60.924
H 47.431 49.422 68.671
H 48.904 49.399 68.304
H 56.039 41.872 65.516
H 57.223 42.033 66.453
H 62.402 62.354 66.66
H 61.187 63.022 66.039
H 55.074 62.366 70.123
H 53.617 62.596 69.76
H 58.604 44.125 64.987
H 65.996 51.975 71.616
H 65.809 50.49 71.871
H 58.898 42.636 65.029
H 53.116 61.725 65.74
H 57.204 52.096 69.388
H 58.384 51.293 68.87
H 58.366 51.542 62.11
H 57.503 52.228 61.064
H 54.534 62.268 65.71
H 55.425 53.208 60.649
H 54.943 51.804 60.97
H 53.331 55.185 56.28
H 65.474 46.27 66.221
H 60.141 49.668 66.957
H 66.451 45.995 67.351
H 56.355 49.734 62.143
H 57.311 48.677 62.668
H 59.196 49.164 68.033
H 52.539 47.736 59.247
H 53.737 48.498 58.708
H 61.089 57.27 73.631
H 60.001 58.167 74.194
H 65.563 46.251 58.662
H 62.305 56.506 56.666
H 60.831 56.208 56.878
H 52.32 52.7 60.999
H 51.466 52.035 62.065
H 66.901 56.671 68.619
H 66.881 56.259 70.08
H 54.019 49.465 68.406
H 53.34 48.746 69.558
H 49.564 50.11 63.115
H 50.865 49.33 63.186
H 57.897 47.635 58.51
H 57.346 49.046 58.401
H 65.748 42.647 56.232
H 66.58 43.772 56.822
H 64.054 47.301 71.13
H 62.623 46.865 71.39
H 62.868 46.052 56.809
H 63.819 47.098 57.365
H 67.063 52.51 64.493
H 67.69 53.79 65.016
H 67.237 56.532 65.843
H 66.277 55.411 65.487
H 62.814 55.358 66.518
H 61.335 55.016 66.482
H 55.033 43.985 65.273
H 56.385 44.671 65.207
H 60.432 54.382 55.729
H 61.574 53.443 56.077
H 64.364 46.721 59.467
H 60.823 47.288 74.176
H 62.219 47.871 74.044
H 58.193 41.501 58.42
H 58.195 42.874 57.771
H 53.475 48.705 63.913
H 64.415 40.618 63.098
H 63.268 40.013 62.308
H 64.305 39.34 64.884
H 55.49 51.645 63.106
H 56.771 52.426 63.342
H 63.039 44.759 67.614
H 64.469 44.706 68.121
H 54.093 54.561 68.406
H 53.216 53.783 69.372
H 67.088 52.116 57.69
H 66.706 51.342 56.441
H 55.803 54.328 74.202
H 54.49 54.982 73.809
H 67.706 53.109 60.213
H 66.88 51.877 59.887
H 50.08 50.274 66.544
H 51.122 49.921 67.591
H 64.117 54.942 63.002
H 64.743 53.811 63.799
H 56.645 63.529 64.834
H 57.38 62.238 64.52
H 57.104 46.618 69.149
H 55.592 46.508 69.231
H 63.578 41.631 53.698
H 64.218 40.633 54.647
H 69.046 51.4 60.586
H 68.095 50.243 60.836
H 66.497 57.947 62.587
H 67.664 58.799 63.054
H 61.546 48.383 58.805
H 61.877 47.797 60.167
H 67.538 47.394 65.254
H 65.953 48.365 59.116
H 66.27 49.093 60.41
H 67.575 48.893 65.012
H 63.566 41.816 60.591
H 63.741 40.81 59.467
H 57.052 42.978 60.651
H 52.619 57.117 67.772
H 52.026 58.411 67.243
H 60.811 44.255 56.363
H 60.09 42.948 56.643
H 67.216 55.298 61.214
H 51.593 50.26 70.694
H 50.145 50.026 71.087
H 69.472 54.975 61.935
H 69.505 54.782 63.441
H 68.119 56.207 60.398
H 56.548 44.393 70.096
H 56.366 42.934 69.715
H 56.568 60.642 59.977
H 55.109 61.054 59.9
H 64.235 41.736 57.535
H 63.989 40.248 57.353
H 57.784 44.494 59.201
H 57.228 45.547 58.259
H 51.067 53.562 64.018
H 51.225 53.806 65.508
H 71.5 54.164 68.649
H 71.658 53.787 67.186
H 50.703 51.567 64.871
H 49.283 51.987 64.536
H 63.613 57.432 64.843
H 65.017 56.934 64.543
H 62.037 52.042 57.831
H 63.447 52.36 58.298
H 62.327 38.719 65.798
H 62.859 37.326 65.507
H 64.092 43.539 55.047
H 62.754 43.714 54.35
H 68.281 49.169 57.868
H 67.4 50.082 58.703
H 59.201 49.747 70.789
H 60.287 50.768 71.079
H 68.326 52.746 62.532
H 60.548 51.215 68.469
H 61.099 52.35 69.315
H 70.969 51.131 65.325
H 64.26 62.545 60.131
H 63.907 61.36 61.012
H 62.022 59.262 73.651
H 63.419 59.851 73.576
H 71.545 50.796 66.69
H 69.812 52.525 62.307
H 53.184 46.524 63.759
H 54.396 45.632 63.962
H 63.815 60.55 68.449
H 62.593 59.649 68.444
H 66.627 51.237 62.31
H 66.166 49.801 62.491
H 55.495 47.489 71.61
H 54.021 47.855 71.646
H 65.63 49.662 54.727
H 64.164 50.056 54.737
H 56.608 57.143 70.296
H 55.385 56.856 69.442
H 53.531 44.898 59.516
H 53.746 45.593 60.849
H 47.304 54.178 62.981
H 47.239 55.623 62.516
H 57.545 57.758 67.735
H 66.043 58.754 65.201
H 65.026 59.88 65.126
H 58.774 58.649 67.769
H 53.833 50.178 64.013
H 66.06 60.469 59.218
H 59.517 45.909 59.025
H 55.874 49.9 70.751
H 59.803 47.267 59.642
H 56.701 49.799 69.481
H 62.74 57.302 71.756
H 61.258 57.255 71.429
H 62.219 59.88 71.233
H 63.111 61.026 71.68
H 68.607 44.393 67.91
H 69.038 44.024 66.501
H 60.399 47.926 69.909
H 59.263 47.268 69.147
H 58.823 53.884 74.995
H 59.89 53.966 76.072
H 58.649 41.508 62.806
H 59.503 40.987 61.664
H 62.258 51.468 59.976
H 61.969 50.004 60.261
H 47.955 57.038 65.981
H 46.642 56.275 65.992
H 63.094 49.766 71.884
H 50.464 52.513 71.135
H 51.946 52.831 71.031
H 63.811 48.894 72.9
H 59.99 45.679 61.163
H 59.221 44.403 60.865
H 70.082 45.803 62.448
H 69.276 46.943 63.044
H 62.294 51.415 55.616
H 60.914 51.401 54.981
H 58.911 63.894 70.322
H 58.793 64.133 68.827
H 68.619 42.112 59.192
H 70.098 41.765 59.163
H 69.756 45.122 57.605
H 68.649 45.181 56.567
H 59.174 58.723 71.107
H 60.467 44.943 73.059
H 49.938 50.655 60.972
H 49.362 49.429 60.285
H 62.141 49.246 68.502
H 63.193 49.358 69.592
H 59.62 46.157 72.723
H 58.753 51.264 59.489
H 60.041 51.807 58.894
H 66.712 44.1 60.013
H 67.62 44.032 58.797
H 58.654 60.149 71.156
H 51.461 46.596 65.125
H 69.786 48.632 65.909
H 71.269 48.662 66.237
H 57.481 55.567 67.994
H 57.453 54.248 68.745
H 57.484 51.647 71.524
H 56.681 51.061 72.673
H 70.042 53.4 60.241
H 61.722 41.195 55.921
H 62.471 42.496 56.155
H 57.998 47.118 64.293
H 63.393 52.078 66.226
H 62.902 50.931 67.092
H 59.352 46.686 63.756
H 65.37 49.502 57.234
H 64.734 50.88 57.294
H 63.928 57.532 67.396
H 63.435 43.753 57.95
H 62.75 49.369 56.283
H 62.834 49.843 57.724
H 62.213 43.013 58.466
H 66.855 48.367 56.066
H 53.197 52.59 63.37
H 53.735 53.905 63.909
H 47.347 51.462 67.82
H 48.339 51.613 66.68
H 64.937 56.399 67.451
H 66.895 58.016 60.135
H 65.997 56.791 60.132
H 62.339 62.131 68.849
H 68.209 58.483 65.494
H 46.756 51.05 65.257
H 66.744 44.403 62.254
H 67.903 43.597 62.815
H 57.799 58.226 74.539
H 58.231 59.461 75.311
H 65.551 52.758 54.992
H 64.289 52.521 55.802
H 52.892 44.248 64.834
H 61.446 44.633 64.068
H 62.011 44.221 65.416
H 65.092 61.399 66.876
H 65.707 62.697 67.369
H 67.756 48.606 67.722
H 67.792 47.369 68.603
H 65.888 41.873 62.03
H 66.922 41.197 61.147
H 65.619 52.657 67.247
H 65.255 53.413 65.981
H 51.159 47.028 61.29
H 59.008 41.449 54.69
H 58.249 42.705 54.301
H 57.462 48.38 71.191
H 57.563 47.861 72.614
H 59.286 54.093 66.857
H 59.66 53.968 68.323
H 53.338 45.909 66.777
H 53.952 46.913 67.736
H 58.999 58.527 65.378
H 59.295 59.347 64.135
H 63.808 53.811 67.725
H 65.664 43.696 69.717
H 64.548 43.656 70.746
H 62.391 53.27 67.792
H 67.464 53.913 54.911
H 67.695 54.16 56.391
H 49.091 54.498 59.69
H 48.068 53.818 60.583
H 58.032 60.418 62.498
H 60.844 52.588 62.139
H 52.395 61.348 67.784
H 53.046 60.486 68.851
H 64.177 51.43 61.708
H 64.112 50.412 60.583
H 55.34 46.422 59.242
H 56.345 47.008 60.219
H 61.044 48.466 65.346
H 59.531 48.346 65.283
H 57.648 46.333 66.323
H 70.958 49.858 59.188
H 71.469 51.287 59.235
H 59.754 43.491 63.187
H 58.88 54.477 61.395
H 57.362 54.424 61.404
H 58.705 47.176 67.014
H 60.771 42.372 63.044
H 62.035 51.651 62.241
H 63.397 47.541 55.252
H 64.67 47.718 54.442
H 57.47 61.822 62.359
H 65.334 40.935 68.214
H 65.191 42.391 67.803
H 66.301 47.829 73.716
H 66.295 47.865 72.198
H 47.852 51.612 62.796
H 47.324 51.338 61.399
H 59.823 43.841 52.686
H 60.942 44.543 53.436
H 66.43 50.328 67.356
H 49.159 54.654 64.091
H 49.361 55.443 65.373
H 65.069 50.278 68.029
H 61.635 44.706 59.763
H 61.547 45.113 58.303
H 55.929 58.108 59.467
H 56.484 57.329 58.287
H 56.61 56.379 74.418
H 55.413 57.314 74.406
H 60.365 42.471 60.02
H 61.384 41.892 60.986
H 60.43 46.378 65.664
H 60.142 45.517 66.881
H 61.074 59.732 56.449
H 60.219 58.865 57.356
H 63.011 57.332 59.021
H 54.362 42.899 68.757
H 54.12 43.83 67.582
H 69.389 52.296 66.32
H 68.073 51.638 66.696
H 64.079 58.402 58.868
H 64.326 46.492 63.972
H 63.004 46.196 64.658
H 58.294 52.192 73.652
H 58.091 50.859 74.349
H 62.421 49.014 63.717
H 63.048 49.687 62.509
H 62.101 56.541 62.394
H 61.184 57.37 63.276
H 58.545 46.767 53.851
H 59.305 52.73 70.928
H 60.101 54.01 71.115
H 47.002 53.359 66.717
H 47.867 54.578 66.986
H 67.656 46.175 59.341
H 68.618 46.852 58.38
H 61.728 59.697 63.43
H 62.875 60.589 62.99
H 55.971 59.639 62.028
H 56.11 58.767 63.263
