217
xyz format
O 48.289 54.675 60.198
O 58.119 54.41 60.805
O 61.15 51.715 61.861
O 48.067 51.742 61.864
O 45.731 53.856 60.759
O 59.294 51.231 58.69
O 61.932 50.662 59.556
O 62.882 52.385 57.515
O 56.402 51.536 63.405
O 62.008 47.645 59.223
O 54.379 42.676 54.149
O 52.245 51.887 61.515
O 57.603 48.38 59.05
O 52.558 44.333 54.702
O 52.748 42.888 50.036
O 56.714 49.376 62.964
O 59.036 49.134 60.538
O 54.797 52.536 60.356
O 58.266 52.377 61.636
O 53.856 44.755 52.084
O 54.861 45.758 49.41
O 46.363 47.688 49.017
O 57.213 45.272 59.184
O 55.395 46.924 60.065
O 54.216 54.975 43.071
O 53.589 53.425 63.084
O 49.132 50.328 60.552
O 48.062 49.495 54.971
O 51.909 51.365 55.163
O 50.686 49.697 48.558
O 49.172 45.68 46.848
O 53.301 46.819 47.257
O 53.93 51.905 51.539
O 48.851 49.071 45.41
O 50.19 53.992 53.244
O 49.286 50.822 51.315
O 59.899 46.772 58.819
N 51.782 48.251 46.32
N 52.353 53.934 53.978
N 47.582 49.311 51.473
N 47.255 47.449 45.656
N 48.411 51.553 54.037
N 50.479 46.045 45.037
N 51.761 52.453 51.079
N 47.749 49.355 48.296
N 52.84 50.036 49.228
N 50.123 52.271 56.216
N 54.45 50.646 53.996
N 47.151 45.013 48.815
C 48.588 50.626 55.037
C 48.957 45.954 50.29
C 52.791 51.562 51.129
C 51.898 49.739 48.263
C 49.365 53.325 56.879
C 51.406 53.938 52.972
C 49.254 46.025 45.639
C 50.386 53.922 48.435
C 56.677 51.811 56.155
C 48.16 48.371 50.547
C 49.413 50.996 56.292
C 48.154 46.94 51.113
C 52.893 51.882 46.466
C 48.427 51.155 57.474
C 48.124 52.651 57.501
C 51.942 53.806 55.355
C 51.302 56.212 48.639
C 47.032 52.668 52.302
C 46.467 52.748 44.96
C 47.799 48.687 45.956
C 52.571 50.405 44.506
C 54.053 49.22 53.886
C 55.642 51.408 57.001
C 54.453 52.135 57.049
C 51.714 45.782 45.77
C 46.353 51.272 45.295
C 55.33 53.677 55.408
C 47.358 48.43 49.217
C 52.916 48.985 52.897
C 47.997 46.502 44.861
C 48.149 44.729 49.876
C 51.361 54.801 49.194
C 50.756 46.292 43.628
C 47.511 51.339 52.935
C 53.052 54.098 56.375
C 47.076 49.542 47.028
C 52.735 45.346 44.69
C 48.205 50.485 51.84
C 53.356 49.113 51.453
C 51.331 52.398 55.595
C 47.085 51.016 46.603
C 52.312 46.996 46.517
C 46.197 52.397 51.069
C 52.523 50.115 50.631
C 51.894 53.827 51.502
C 52.271 46.074 43.432
C 44.896 50.866 45.352
C 51.055 54.819 50.684
C 52.145 50.677 45.935
C 54.285 53.274 56.25
C 52.412 49.441 46.828
C 56.517 52.946 55.359
C 46.223 53.463 53.307
C 47.172 45.301 44.376
H 57.346 53.289 54.718
H 46.634 44.163 48.564
H 55.216 50.759 54.669
H 53.18 45.103 52.679
H 54.537 44.422 52.681
H 52.985 54.119 51.425
H 49.343 54.303 48.555
H 47.62 45.375 47.967
H 50.641 53.926 47.347
H 48.931 50.837 58.421
H 47.517 50.526 57.331
H 51.127 54.581 55.525
H 49.811 45.563 50.91
H 52.605 53.958 57.397
H 50.294 56.66 48.817
H 53.529 49.255 46.86
H 47.936 53.024 58.534
H 50.906 48.382 45.863
H 53.648 51.217 54.314
H 51.278 55.837 51.105
H 55.236 54.601 54.815
H 49.964 54.621 50.859
H 50.145 50.156 56.452
H 49.06 54.111 56.133
H 51.494 56.201 47.539
H 55.476 46.177 50.024
H 54.223 45.319 49.988
H 57.63 51.259 56.147
H 50.852 52.155 50.786
H 53.315 53.824 53.762
H 49.998 53.803 57.675
H 53.652 51.827 57.739
H 46.373 45.688 43.682
H 52.533 52.166 47.484
H 53.353 44.672 55.131
H 52.137 43.801 55.389
H 47.091 46.597 51.226
H 53.777 45.608 44.989
H 50.467 47.345 43.355
H 52.479 45.488 42.506
H 52.675 44.237 44.551
H 46.49 45.733 49.144
H 53.728 48.878 54.911
H 50.166 45.575 42.994
H 51.541 44.983 46.545
H 55.778 50.537 57.663
H 53.507 43.174 50.56
H 53.14 42.61 49.199
H 48.851 43.939 49.48
H 54.748 50.997 53.073
H 46.003 49.2 47.141
H 58.356 49.648 60.99
H 59.861 49.456 60.924
H 46.609 51.625 47.418
H 48.577 49.893 48.452
H 49.235 48.678 50.337
H 46.759 49.024 51.951
H 51.419 49.877 50.77
H 48.594 46.979 52.149
H 47.22 52.871 56.877
H 52.402 54.402 49.034
H 54.965 48.635 53.574
H 57.503 52.228 61.064
H 52.07 56.86 49.126
H 55.425 53.208 60.649
H 54.943 51.804 60.97
H 50.418 52.866 48.792
H 53.331 55.185 56.28
H 48.15 51.357 46.487
H 46.605 50.784 53.329
H 53.804 50.032 48.986
H 49.412 46.442 49.385
H 54.439 49.401 51.389
H 52.32 52.7 60.999
H 51.466 52.035 62.065
H 53.259 48.104 50.963
H 48.927 52.406 54.021
H 52.442 51.33 43.891
H 57.897 47.635 58.51
H 57.346 49.046 58.401
H 51.955 49.598 44.042
H 51.038 50.892 45.952
H 53.991 51.68 46.508
H 53.645 50.102 44.466
H 52.726 52.754 45.787
H 45.886 54.423 52.845
H 47.941 53.268 52.003
H 45.816 53.364 50.657
H 46.803 51.894 50.278
H 46.828 53.709 54.212
H 45.319 52.89 53.627
H 52.561 47.933 53.083
H 52.051 49.664 53.13
H 45.319 51.753 51.316
H 55.196 42.98 54.564
H 55.49 51.645 63.106
H 53.998 42.077 54.804
H 53.716 54.235 43.438
H 57.784 44.494 59.201
H 57.228 45.547 58.259
H 62.037 52.042 57.831
H 59.517 45.909 59.025
H 59.803 47.267 59.642
H 62.258 51.468 59.976
H 61.969 50.004 60.261
H 49.938 50.655 60.972
H 49.362 49.429 60.285
H 58.753 51.264 59.489
H 60.041 51.807 58.894
H 53.735 53.905 63.909
H 49.091 54.498 59.69
H 48.068 53.818 60.583
H 55.34 46.422 59.242
H 56.345 47.008 60.219
