501
xyz format
Cl 62.646 58.926 60.688
Cl 64.214 44.247 60.337
O 68.359 43.086 54.523
O 71.279 56.117 59.229
O 68.971 51.431 66.409
O 63.784 46.708 48.397
O 67.345 48.817 50.344
O 67.066 54.338 55.681
O 63.168 58.198 58.623
O 62.842 59.32 50.441
O 61.976 45.353 59.134
O 66.077 51.943 48.352
O 72.191 52.326 56.892
O 62.038 56.92 63.279
O 67.744 46.953 58.777
O 63.229 49.027 63.19
O 60.41 51.628 51.882
O 70.947 50.65 59.738
O 58.119 54.41 60.805
O 64.723 51.009 61.033
O 70.082 54.827 62.669
O 72.346 50.641 55.342
O 73.432 53.05 59.428
O 61.15 51.715 61.861
O 65.515 50.061 67.201
O 65.032 58.193 53.772
O 60.649 44.321 52.543
O 64.323 47.801 55.339
O 63.682 51.245 66.618
O 70.887 45.059 49.576
O 66.038 60.789 52.061
O 65.019 50.15 57.858
O 67.252 43.596 62.101
O 65.816 54.329 48.2
O 64.804 52.153 55.074
O 68.357 48.068 68.253
O 65.989 41.157 61.39
O 71.0 53.484 60.153
O 63.193 49.181 57.119
O 68.506 46.737 47.887
O 63.124 43.232 58.701
O 73.858 46.883 49.56
O 61.128 58.983 57.055
O 71.535 55.489 64.188
O 62.014 41.787 56.626
O 70.4 48.793 66.636
O 59.294 51.231 58.69
O 66.14 43.802 53.398
O 64.999 55.127 54.17
O 66.688 44.048 59.049
O 59.147 49.572 52.362
O 61.932 50.662 59.556
O 69.345 41.933 58.581
O 72.411 52.339 63.983
O 69.07 44.581 57.195
O 59.475 44.985 61.593
O 65.671 61.294 58.902
O 61.228 59.219 53.159
O 72.837 46.478 52.5
O 60.875 56.202 50.356
O 64.897 49.875 54.136
O 67.535 49.778 57.797
O 69.161 52.654 63.008
O 63.522 44.213 54.656
O 64.067 41.072 56.855
O 67.307 52.029 56.754
O 64.268 53.989 62.977
O 67.36 55.888 52.61
O 64.053 41.016 60.357
O 66.814 46.949 52.976
O 60.505 43.448 55.93
O 69.466 49.221 48.582
O 67.82 55.291 60.46
O 71.85 55.05 56.796
O 67.848 60.506 61.688
O 64.113 56.623 64.676
O 62.882 52.385 57.515
O 66.986 42.563 49.955
O 65.57 48.977 59.756
O 67.853 48.054 64.624
O 69.19 46.171 62.472
O 68.628 50.902 61.299
O 59.135 57.985 54.928
O 66.957 52.591 60.533
O 62.008 47.645 59.223
O 74.787 49.243 53.663
O 67.303 47.911 62.304
O 63.967 57.638 61.957
O 68.392 41.272 55.898
O 61.308 48.56 54.575
O 63.531 43.32 52.289
O 67.241 56.179 63.668
O 64.807 59.715 55.941
O 65.078 46.072 59.477
O 66.727 55.814 66.239
O 68.523 55.167 58.358
O 67.002 54.671 50.022
O 63.169 46.44 57.641
O 67.902 52.872 64.805
O 61.51 56.232 56.192
O 65.903 43.125 57.056
O 63.897 50.046 47.79
O 61.336 54.159 55.474
O 64.779 53.145 50.193
O 70.507 57.39 55.906
O 57.603 48.38 59.05
O 67.928 44.615 47.791
O 71.943 43.874 48.046
O 61.59 60.384 58.908
O 68.608 48.549 53.638
O 68.57 43.342 51.808
O 61.065 47.323 62.157
O 65.009 47.781 61.968
O 60.328 50.152 63.318
O 70.629 47.112 60.062
O 63.765 54.904 56.18
O 63.746 48.714 65.983
O 68.991 57.036 50.856
O 70.023 49.895 51.219
O 69.278 44.19 61.184
O 62.898 54.962 51.608
O 69.991 57.299 61.878
O 61.818 53.825 48.639
O 61.23 55.035 60.138
O 64.586 43.393 49.489
O 67.75 51.667 53.748
O 69.56 50.759 56.025
O 62.853 44.146 62.449
O 58.822 46.964 51.092
O 70.24 45.853 51.53
O 63.529 50.618 50.228
O 66.43 57.417 59.538
O 63.815 45.919 53.122
O 65.642 54.338 58.112
O 72.893 43.61 51.991
O 65.142 57.127 57.36
O 65.126 53.966 60.897
O 65.206 45.478 56.278
O 61.18 45.78 50.956
O 66.21 44.838 51.374
O 72.054 48.658 62.695
O 59.036 49.134 60.538
O 58.266 52.377 61.636
O 59.831 58.823 61.169
O 72.47 48.32 50.95
O 68.165 45.241 64.78
O 74.87 54.001 57.937
O 70.421 51.212 48.57
O 68.875 57.428 53.018
O 61.48 51.258 49.088
O 64.165 52.322 52.887
O 58.514 44.37 55.707
O 64.109 55.729 48.859
O 66.34 45.882 66.399
O 61.832 51.639 54.799
O 63.389 41.099 54.481
O 75.155 50.796 56.369
O 70.004 49.552 62.361
O 66.353 46.773 48.338
O 66.154 41.001 58.781
O 72.686 51.383 52.983
O 67.231 58.478 62.253
O 71.047 54.057 50.982
O 68.467 53.516 52.803
O 58.796 56.877 59.666
O 67.718 48.593 55.697
O 73.844 53.827 55.999
O 71.166 47.902 54.0
O 65.242 50.684 64.256
O 62.204 51.375 64.503
O 61.593 43.859 64.625
O 64.177 47.751 50.972
O 65.969 52.9 66.381
O 62.406 59.781 62.749
O 63.46 46.096 63.813
O 59.433 46.664 54.217
O 71.725 44.324 58.455
O 71.739 54.065 53.176
O 61.613 40.045 58.66
O 61.245 42.632 60.381
O 61.075 41.491 53.069
O 66.843 50.424 62.784
O 59.899 46.772 58.819
H 61.585 40.943 59.014
H 69.06 44.009 51.312
H 68.945 42.506 51.501
H 68.939 48.313 52.763
H 69.013 49.408 53.812
H 68.941 44.92 64.304
H 67.5 45.351 64.088
H 72.377 48.871 50.162
H 72.949 48.885 51.568
H 60.056 59.601 61.693
H 60.56 58.213 61.339
H 66.045 45.89 56.522
H 65.27 45.377 55.32
H 64.856 54.715 60.35
H 64.689 53.211 60.483
H 72.0 43.571 52.357
H 64.857 56.53 58.063
H 64.32 57.358 56.909
H 69.825 51.744 48.029
H 71.287 51.36 48.169
H 57.63 51.259 56.147
H 60.702 48.127 62.55
H 62.5 53.147 48.548
H 60.993 53.336 48.529
H 65.97 53.7 58.758
H 66.384 54.943 57.991
H 64.5 42.452 49.293
H 60.824 55.595 59.465
H 62.162 55.282 60.11
H 64.941 43.766 48.672
H 70.449 56.87 61.144
H 69.26 57.764 61.452
H 63.074 51.066 64.223
H 61.883 50.667 65.076
H 65.247 49.905 64.826
H 65.182 51.421 64.877
H 63.142 55.79 52.04
H 62.996 55.156 50.668
H 70.676 47.072 54.053
H 71.105 48.146 53.068
H 70.148 50.728 55.261
H 69.895 50.061 56.601
H 61.806 47.099 62.734
H 68.781 44.707 60.538
H 70.285 48.967 51.162
H 69.229 49.943 50.672
H 70.839 53.188 51.346
H 70.473 54.656 51.476
H 58.401 57.716 59.4
H 58.217 56.565 60.373
H 68.705 53.405 51.874
H 69.144 54.116 53.142
H 68.362 56.811 50.159
H 69.655 57.57 50.402
H 61.213 59.53 59.155
H 62.918 44.977 61.962
H 61.853 60.771 59.753
H 62.733 43.484 61.756
H 67.029 51.297 54.273
H 68.449 51.82 54.396
H 73.335 51.695 53.625
H 73.092 51.583 52.131
H 67.335 55.252 63.415
H 67.096 47.097 62.78
H 67.63 47.602 61.451
H 58.173 44.906 54.98
H 58.623 45.004 56.428
H 74.005 48.677 53.685
H 74.884 49.535 54.578
H 64.537 56.985 62.382
H 64.323 58.483 62.257
H 68.136 41.55 56.786
H 69.19 49.035 62.324
H 69.731 47.321 60.346
H 71.158 47.242 60.859
H 66.278 40.981 57.824
H 66.063 41.941 58.98
H 64.584 48.281 66.189
H 63.113 47.986 65.953
H 65.453 47.239 61.304
H 64.342 48.263 61.464
H 64.206 43.101 51.635
H 62.937 43.916 51.816
H 61.655 49.386 54.216
H 61.619 47.891 53.952
H 70.39 49.436 61.484
H 64.667 55.215 56.331
H 63.46 54.649 57.06
H 68.396 55.824 57.662
H 71.921 48.044 63.428
H 72.69 49.295 63.043
H 69.213 54.591 58.007
H 64.725 53.574 51.056
H 65.176 52.287 50.388
H 58.356 49.648 60.99
H 59.861 49.456 60.924
H 66.873 53.794 50.404
H 66.197 55.147 50.262
H 61.9 45.847 51.595
H 65.474 46.27 66.221
H 66.451 45.995 67.351
H 66.986 44.584 50.859
H 65.523 44.965 50.708
H 65.563 46.251 58.662
H 62.305 56.506 56.666
H 60.831 56.208 56.878
H 57.346 49.046 58.401
H 65.748 42.647 56.232
H 66.58 43.772 56.822
H 62.868 46.052 56.809
H 63.819 47.098 57.365
H 67.063 52.51 64.493
H 67.69 53.79 65.016
H 70.252 56.608 56.411
H 64.888 60.489 55.369
H 64.124 59.185 55.512
H 66.277 55.411 65.487
H 67.267 44.382 48.453
H 63.651 50.978 47.854
H 64.837 50.073 47.571
H 60.432 54.382 55.729
H 61.574 53.443 56.077
H 64.364 46.721 59.467
H 67.088 52.116 57.69
H 66.706 51.342 56.441
H 67.706 53.109 60.213
H 66.88 51.877 59.887
H 64.117 54.942 63.002
H 64.743 53.811 63.799
H 66.295 42.461 50.622
H 67.407 41.695 49.926
H 75.821 51.259 56.893
H 74.492 50.535 57.02
H 63.578 41.631 53.698
H 64.218 40.633 54.647
H 69.046 51.4 60.586
H 68.095 50.243 60.836
H 66.497 57.947 62.587
H 67.664 58.799 63.054
H 61.546 48.383 58.805
H 61.877 47.797 60.167
H 67.538 47.394 65.254
H 59.449 57.375 54.248
H 59.835 58.648 54.982
H 65.953 48.365 59.116
H 66.27 49.093 60.41
H 67.575 48.893 65.012
H 63.566 41.816 60.591
H 63.741 40.81 59.467
H 69.222 57.308 53.91
H 71.213 54.634 56.201
H 66.563 47.803 53.349
H 66.301 46.896 52.16
H 60.811 44.255 56.363
H 60.09 42.948 56.643
H 68.832 58.387 52.916
H 72.351 55.639 56.219
H 67.216 55.298 61.214
H 72.084 50.153 56.133
H 72.394 49.961 54.658
H 69.472 54.975 61.935
H 69.505 54.782 63.441
H 61.499 50.319 49.313
H 61.597 51.7 49.938
H 69.732 48.338 48.869
H 68.506 49.158 48.507
H 68.119 56.207 60.398
H 65.026 51.987 52.605
H 63.693 51.531 53.172
H 64.235 41.736 57.535
H 63.989 40.248 57.353
H 66.85 56.557 52.137
H 67.838 55.427 51.91
H 63.613 57.432 64.843
H 65.017 56.934 64.543
H 62.037 52.042 57.831
H 63.447 52.36 58.298
H 64.615 56.175 48.167
H 63.699 54.986 48.4
H 64.092 43.539 55.047
H 62.754 43.714 54.35
H 68.281 49.169 57.868
H 67.4 50.082 58.703
H 68.326 52.746 62.532
H 69.812 52.525 62.307
H 66.627 51.237 62.31
H 66.166 49.801 62.491
H 73.572 45.885 52.301
H 60.803 55.315 50.729
H 61.123 56.749 51.111
H 72.72 46.386 53.454
H 65.63 49.662 54.727
H 64.164 50.056 54.737
H 61.831 58.471 53.063
H 66.06 60.469 59.218
H 59.517 45.909 59.025
H 59.803 47.267 59.642
H 62.258 51.468 59.976
H 61.969 50.004 60.261
H 65.913 46.087 48.857
H 59.99 45.679 61.163
H 59.221 44.403 60.865
H 66.261 47.565 48.881
H 70.082 45.803 62.448
H 69.276 46.943 63.044
H 62.294 51.415 55.616
H 60.914 51.401 54.981
H 71.763 52.681 63.354
H 69.756 45.122 57.605
H 68.649 45.181 56.567
H 66.155 43.108 52.727
H 65.279 44.222 53.274
H 64.753 54.345 53.661
H 65.39 55.715 53.511
H 58.753 51.264 59.489
H 60.041 51.807 58.894
H 66.712 44.1 60.013
H 67.62 44.032 58.797
H 58.419 49.622 52.995
H 59.896 49.281 52.897
H 69.786 48.632 65.909
H 66.475 60.009 51.696
H 70.174 44.494 49.253
H 70.63 45.943 49.285
H 73.087 53.702 55.414
H 74.171 52.93 56.146
H 70.042 53.4 60.241
H 71.306 53.576 61.063
H 61.722 41.195 55.921
H 62.471 42.496 56.155
H 63.393 52.078 66.226
H 62.902 50.931 67.092
H 65.37 49.502 57.234
H 64.734 50.88 57.294
H 63.435 43.753 57.95
H 62.75 49.369 56.283
H 62.834 49.843 57.724
H 62.213 43.013 58.466
H 68.535 46.485 48.818
H 66.855 48.367 56.066
H 67.685 49.554 55.608
H 66.895 58.016 60.135
H 65.997 56.791 60.132
H 64.667 47.081 50.478
H 63.263 47.444 50.93
H 66.744 44.403 62.254
H 67.903 43.597 62.815
H 63.812 50.677 51.149
H 63.794 49.728 49.963
H 69.542 46.328 51.998
H 70.928 46.519 51.406
H 64.111 45.758 52.218
H 63.301 46.734 53.053
H 59.43 47.536 51.577
H 59.048 46.077 51.397
H 65.448 53.984 47.377
H 65.551 52.758 54.992
H 64.289 52.521 55.802
H 61.446 44.633 64.068
H 67.756 48.606 67.722
H 65.888 41.873 62.03
H 65.619 52.657 67.247
H 65.255 53.413 65.981
H 66.452 54.994 47.907
H 73.319 53.762 60.07
H 73.384 52.248 59.964
H 70.601 56.477 58.644
H 71.976 56.785 59.21
H 67.464 53.913 54.911
H 67.695 54.16 56.391
H 67.306 48.652 51.294
H 66.6 49.41 50.183
H 60.844 52.588 62.139
H 64.177 51.43 61.708
H 64.112 50.412 60.583
H 70.958 49.858 59.188
H 71.469 51.287 59.235
H 58.88 54.477 61.395
H 62.035 51.651 62.241
H 63.397 47.541 55.252
H 64.67 47.718 54.442
H 65.502 58.1 52.934
H 64.102 58.194 53.514
H 59.823 43.841 52.686
H 60.942 44.543 53.436
H 66.43 50.328 67.356
H 65.069 50.278 68.029
H 61.635 44.706 59.763
H 61.547 45.113 58.303
H 66.084 51.876 47.389
H 61.279 42.362 53.431
H 66.789 51.354 48.629
H 60.365 42.471 60.02
H 61.384 41.892 60.986
H 61.074 59.732 56.449
H 60.219 58.865 57.356
H 63.011 57.332 59.021
H 68.073 51.638 66.696
H 64.079 58.402 58.868
H 64.326 46.492 63.972
H 63.004 46.196 64.658
H 68.338 43.926 54.048
H 67.497 43.045 54.956
H 71.652 53.226 53.646
H 71.439 54.72 53.819
H 62.421 49.014 63.717
H 63.048 49.687 62.509
H 59.755 51.369 51.222
H 61.025 50.884 51.9
H 62.101 56.541 62.394
H 72.713 51.77 57.485
H 58.545 46.767 53.851
H 59.984 46.506 53.441
H 71.674 52.878 57.491
H 67.656 46.175 59.341
H 68.618 46.852 58.38
H 61.728 59.697 63.43
H 62.875 60.589 62.99
