161
xyz format
Cl 31.247 50.946 48.398
O 24.901 52.29 51.995
O 34.03 51.908 48.431
O 33.547 55.93 43.381
O 31.718 50.328 50.467
O 30.798 55.98 50.701
O 36.137 54.707 47.034
O 26.166 52.854 46.693
O 30.128 53.045 49.088
O 35.998 54.064 51.222
O 29.555 46.662 46.322
O 29.172 50.2 48.425
O 29.263 57.353 47.75
O 33.794 56.833 46.106
O 33.548 46.777 43.633
O 32.254 53.515 45.469
O 31.879 55.375 48.019
O 33.429 56.825 48.595
O 32.252 49.193 47.517
O 33.453 54.701 51.781
O 29.931 55.761 44.616
O 30.816 47.124 43.877
O 26.647 49.718 47.157
O 36.032 56.502 49.186
O 24.665 52.096 48.669
O 27.725 46.583 48.447
O 33.56 58.405 51.13
O 36.566 48.865 45.684
O 23.585 49.717 51.698
O 34.865 50.637 46.801
O 26.554 55.236 47.178
O 26.397 50.49 49.722
O 34.066 53.885 49.408
O 29.503 53.396 43.912
O 29.309 49.506 45.239
O 34.394 52.84 46.177
O 37.205 51.46 46.884
O 29.399 52.358 46.08
O 35.791 57.384 44.901
O 35.203 50.261 44.664
O 34.023 53.09 43.91
O 35.492 58.963 47.841
O 30.592 46.561 48.669
O 32.52 45.173 45.866
O 26.254 53.848 50.583
O 33.772 47.17 47.384
O 30.721 49.255 42.815
O 37.87 56.507 47.514
O 32.8 48.774 45.137
O 32.19 51.182 42.566
O 35.062 50.156 51.212
O 28.73 51.543 51.349
H 35.943 50.747 44.28
H 34.426 50.687 44.28
H 31.498 46.231 48.628
H 34.931 53.129 43.585
H 33.49 53.268 43.125
H 27.783 51.795 44.153
H 26.281 52.019 44.145
H 30.335 52.209 46.263
H 28.948 51.757 46.686
H 35.045 58.346 48.433
H 34.721 49.736 50.412
H 23.156 50.624 49.31
H 24.198 49.751 48.633
H 35.332 52.755 46.392
H 34.124 53.641 46.644
H 30.041 49.453 45.866
H 29.304 50.434 44.971
H 27.721 48.576 43.969
H 33.967 50.691 46.451
H 34.847 49.85 47.359
H 33.829 54.491 48.694
H 33.219 53.519 49.69
H 37.678 51.003 47.592
H 37.512 52.372 46.955
H 35.606 50.88 50.877
H 29.392 52.872 43.109
H 28.642 53.816 44.032
H 26.395 49.146 47.893
H 26.965 50.52 47.59
H 32.07 58.101 45.48
H 31.605 56.699 45.83
H 31.205 46.474 44.475
H 30.426 47.777 44.472
H 26.803 51.363 49.655
H 27.379 55.666 47.433
H 26.291 50.359 50.672
H 31.548 48.788 42.642
H 30.901 49.748 43.625
H 33.817 58.675 50.24
H 36.172 56.566 45.245
H 32.827 57.794 50.982
H 28.47 47.187 48.338
H 38.878 54.239 49.325
H 25.364 52.757 48.74
H 36.083 55.808 49.856
H 31.937 45.279 46.629
H 36.011 48.132 45.979
H 36.863 49.273 46.506
H 33.385 45.005 46.26
H 23.579 50.526 52.225
H 36.328 48.213 48.361
H 36.547 46.724 48.165
H 29.601 55.605 45.509
H 34.526 46.575 47.292
H 33.969 47.886 46.767
H 30.601 56.925 50.707
H 30.488 55.676 51.563
H 35.472 55.266 47.455
H 36.415 54.11 47.739
H 31.072 49.863 51.014
H 32.567 50.082 50.855
H 33.536 47.094 49.723
H 32.63 54.894 51.315
H 34.117 55.202 51.29
H 22.194 51.755 51.036
H 32.155 54.341 45.958
H 31.484 53.501 44.886
H 29.676 51.4 51.477
H 28.36 50.652 51.365
H 31.497 48.593 47.463
H 32.735 48.884 48.294
H 32.618 57.281 48.853
H 33.839 56.592 49.437
H 31.129 55.958 47.847
H 31.733 55.074 48.924
H 33.945 46.458 44.453
H 31.557 55.217 42.664
H 30.47 46.917 46.494
H 29.091 47.506 46.25
H 33.774 55.872 46.184
H 34.508 57.097 46.7
H 30.875 53.096 48.479
H 36.444 53.262 50.922
H 27.116 52.963 46.831
H 25.996 53.341 45.877
H 36.667 54.355 44.931
H 25.67 53.69 53.522
H 29.367 52.925 48.506
H 37.796 56.088 46.647
H 37.837 55.765 48.13
H 32.606 49.713 45.027
H 33.673 48.672 44.737
H 34.705 52.812 41.061
H 27.407 50.882 53.334
H 32.481 51.351 43.471
H 32.977 51.359 42.036
H 28.597 50.209 49.2
H 29.206 49.268 48.175
H 29.339 56.964 48.63
H 26.977 53.523 50.032
H 32.564 48.625 52.728
H 33.226 44.868 48.527
H 34.741 44.842 48.631
H 25.625 51.777 52.376
H 24.828 51.949 51.095
H 34.706 51.801 49.111
H 33.457 51.141 48.554
H 34.102 55.289 43.842
H 33.614 56.725 43.924
