73
xyz format
O 48.637 63.626 27.633
O 47.057 60.214 27.955
O 49.36 58.68 25.953
O 49.496 57.744 28.383
O 47.835 65.519 32.386
O 53.192 61.572 27.84
O 46.858 63.734 30.549
O 47.059 58.37 29.734
O 46.178 62.324 32.096
O 48.9 62.315 31.863
O 51.25 56.499 26.035
O 45.759 60.767 25.944
O 48.706 59.716 30.628
O 45.524 62.925 28.119
O 50.361 62.177 28.747
O 53.069 59.277 25.674
O 47.192 56.643 28.071
O 49.451 60.881 26.037
O 43.399 62.901 25.854
O 51.981 58.893 29.032
O 50.86 64.333 27.138
H 46.012 63.738 27.935
H 46.171 62.228 27.957
H 49.736 56.208 24.461
H 54.071 62.688 29.52
H 48.489 66.03 29.426
H 52.633 58.573 26.17
H 45.809 55.929 29.748
H 46.297 59.453 32.307
H 48.285 60.189 29.899
H 49.543 60.183 30.751
H 49.269 60.976 25.093
H 49.815 61.739 26.287
H 49.904 61.344 28.917
H 49.906 62.809 29.318
H 48.511 62.111 31.003
H 49.721 62.772 31.641
H 44.327 58.717 28.384
H 53.651 59.689 26.324
H 47.995 56.14 28.255
H 47.433 57.19 27.313
H 46.309 60.648 25.16
H 44.858 60.701 25.605
H 51.737 56.783 25.251
H 49.006 58.533 22.892
H 43.843 62.601 25.051
H 43.006 62.096 26.214
H 45.65 58.069 23.779
H 50.058 57.37 27.694
H 49.453 58.683 28.159
H 50.371 58.184 30.353
H 46.243 58.371 30.251
H 47.538 57.601 30.065
H 46.469 61.675 32.748
H 45.41 61.908 31.684
H 51.897 58.359 23.517
H 46.531 64.534 30.117
H 46.937 63.1 29.826
H 53.748 60.861 28.183
H 52.308 61.343 28.154
H 48.073 65.328 31.47
H 46.885 65.688 32.346
H 47.533 56.652 24.81
H 49.121 58.268 25.113
H 50.307 58.846 25.865
H 52.94 58.908 28.923
H 51.649 58.827 28.128
H 50.635 64.631 26.248
H 51.062 63.396 27.023
H 48.311 62.723 27.738
H 48.337 64.073 28.434
H 47.409 59.36 27.676
H 46.127 60.03 28.137
