493
xyz format
Na 46.336 56.344 34.969
O 48.262 50.179 24.401
O 61.925 48.975 33.936
O 55.605 54.552 33.093
O 57.564 54.032 32.004
O 56.077 50.987 30.501
O 54.182 49.336 31.495
O 55.752 53.306 41.348
O 55.09 53.194 37.529
O 54.453 56.755 39.842
O 54.774 50.098 37.186
O 45.733 48.509 31.953
O 45.023 54.088 36.793
O 49.594 50.321 28.425
O 56.201 49.297 25.156
O 48.66 49.362 33.595
O 43.128 47.633 32.968
O 56.128 49.545 27.927
O 56.718 50.371 36.194
O 60.603 53.293 37.665
O 50.528 47.952 30.327
O 46.529 42.063 30.219
O 52.703 53.557 40.845
O 52.563 51.837 35.898
O 55.942 47.335 32.968
O 57.432 47.613 30.077
O 61.097 47.285 39.771
O 50.579 51.258 36.654
O 48.833 45.132 36.582
O 60.892 54.228 28.697
O 53.649 54.883 36.971
O 62.061 43.908 37.631
O 51.83 45.651 25.741
O 52.045 39.375 30.216
O 53.676 55.974 24.5
O 51.38 53.206 23.962
O 55.723 41.84 36.029
O 57.768 51.798 33.928
O 50.363 40.468 38.283
O 58.688 50.203 26.442
O 55.916 56.593 25.711
O 58.569 52.523 28.233
O 54.64 43.574 28.561
O 46.756 45.28 28.776
O 60.787 51.273 31.003
O 49.874 57.374 30.519
O 49.397 39.75 27.915
O 48.387 53.642 30.03
O 60.727 45.296 32.895
O 54.553 45.898 25.157
O 63.267 47.106 33.72
O 48.247 55.485 32.451
O 58.175 43.39 27.245
O 44.636 45.743 30.719
O 49.969 54.723 33.618
O 60.062 44.345 41.674
O 56.982 41.707 39.823
O 54.967 41.777 33.958
O 47.96 41.069 32.132
O 59.668 41.292 39.142
O 57.482 43.742 42.228
O 56.982 56.852 31.554
O 56.906 48.665 42.027
O 57.692 43.331 24.311
O 53.237 47.776 37.279
O 58.972 44.967 38.96
O 44.294 43.052 29.815
O 51.131 41.219 32.423
O 50.827 43.883 30.833
O 53.405 46.384 31.076
O 62.057 48.702 30.499
O 59.8 52.798 25.368
O 58.31 55.312 26.587
O 44.903 46.984 25.397
O 59.065 53.587 33.812
O 58.902 49.145 28.359
O 53.542 54.461 26.093
O 59.951 56.297 35.449
O 53.706 55.812 28.714
O 51.207 52.913 38.078
O 51.116 50.463 33.315
O 51.25 56.499 26.035
O 54.767 42.662 30.575
O 49.416 51.428 30.997
O 52.165 58.072 35.945
O 52.399 54.986 31.057
O 49.677 47.318 35.392
O 61.668 51.737 35.816
O 52.511 51.435 24.703
O 60.942 45.956 29.562
O 51.132 54.952 35.903
O 58.318 47.048 25.715
O 49.978 42.608 26.311
O 59.849 56.469 30.648
O 48.646 40.269 30.2
O 44.469 54.002 29.164
O 60.14 41.978 34.969
O 45.106 43.419 27.047
O 46.113 50.098 34.367
O 57.365 45.403 34.892
O 44.267 51.138 30.976
O 46.923 54.191 35.632
O 48.282 52.62 32.825
O 57.302 55.255 38.117
O 50.811 39.306 35.772
O 51.232 43.383 37.162
O 58.436 47.377 32.045
O 49.447 41.421 34.204
O 62.378 50.704 28.496
O 46.963 45.185 32.225
O 45.346 46.34 35.392
O 60.701 48.478 37.688
O 56.446 50.871 40.283
O 52.624 41.258 36.235
O 47.394 50.357 29.947
O 46.539 55.3 29.686
O 47.657 43.455 34.18
O 57.225 52.662 37.699
O 51.229 50.341 30.39
O 60.816 46.482 35.409
O 45.371 53.799 33.656
O 55.261 57.088 32.938
O 55.716 50.3 33.078
O 60.364 48.822 31.943
O 44.749 49.803 27.586
O 53.759 44.779 36.904
O 44.893 51.368 25.879
O 50.591 53.675 28.484
O 49.847 44.732 33.838
O 59.194 50.643 35.513
O 47.192 56.643 28.071
O 47.9 42.23 37.959
O 63.094 53.899 32.832
O 51.156 42.059 28.588
O 54.387 53.321 24.297
O 54.064 53.309 35.06
O 51.332 56.014 38.196
O 49.239 55.616 23.884
O 56.146 47.272 36.315
O 55.609 38.781 38.286
O 47.91 51.668 39.049
O 61.243 44.699 26.709
O 46.743 41.184 28.097
O 49.387 46.449 23.492
O 45.648 52.248 27.755
O 59.438 46.785 42.027
O 47.028 45.182 25.768
O 58.176 49.376 31.163
O 50.148 46.313 31.866
O 53.613 47.024 33.713
O 46.129 57.247 32.393
O 55.535 41.724 27.054
O 49.132 54.37 36.61
O 49.153 52.077 26.007
O 48.047 50.59 35.994
O 44.806 43.652 32.61
O 48.298 43.553 28.503
O 46.627 52.684 24.989
O 59.719 49.752 39.534
O 52.253 49.144 35.857
O 59.652 52.897 39.842
O 52.876 52.59 28.746
O 48.858 46.918 28.19
O 62.582 54.613 34.904
O 54.759 58.174 27.922
O 58.439 45.375 30.012
O 46.74 54.581 27.217
O 47.77 49.6 26.866
O 52.559 49.22 28.088
O 60.785 47.793 26.633
O 61.838 51.324 39.278
O 42.973 49.986 33.639
O 57.805 42.605 36.97
O 63.232 47.84 39.281
O 52.591 52.933 32.31
O 58.618 46.359 37.294
O 56.58 44.706 27.996
O 46.348 51.833 31.199
O 47.9 47.945 25.418
O 51.981 58.893 29.032
O 63.671 43.581 35.382
O 51.804 48.349 33.324
H 55.533 39.743 38.265
H 56.951 45.537 28.32
H 55.869 44.987 27.407
H 49.558 54.738 24.128
H 56.92 47.648 36.752
H 55.849 46.585 36.924
H 50.568 56.014 38.786
H 52.087 56.004 38.798
H 51.593 42.395 29.38
H 50.918 41.154 28.824
H 54.671 53.832 23.529
H 55.107 53.437 24.929
H 62.385 53.25 32.746
H 53.645 53.367 34.192
H 58.678 45.644 36.648
H 59.218 47.031 36.947
H 54.824 52.733 34.909
H 52.92 51.905 25.441
H 51.648 51.174 25.048
H 51.777 51.145 33.489
H 60.497 48.025 32.471
H 60.185 49.506 32.601
H 50.373 50.713 33.879
H 52.456 48.412 28.606
H 52.64 49.912 28.756
H 54.39 44.496 37.578
H 54.286 44.81 36.096
H 51.686 52.916 31.975
H 56.502 49.988 33.544
H 55.17 50.68 33.778
H 53.099 52.483 31.624
H 43.141 50.784 34.155
H 43.441 50.145 32.81
H 44.026 49.252 27.262
H 44.518 49.966 28.509
H 60.203 47.252 27.181
H 61.341 48.254 27.274
H 48.272 48.931 27.349
H 46.929 49.641 27.338
H 51.33 49.833 31.204
H 51.625 51.195 30.602
H 57.268 56.08 38.617
H 57.233 54.572 38.796
H 45.915 49.214 34.7
H 45.49 50.214 33.639
H 51.296 39.825 35.118
H 47.462 54.049 27.574
H 45.181 52.905 33.346
H 45.892 54.185 32.94
H 57.569 52.964 36.849
H 57.492 51.735 37.739
H 47.284 44.243 34.593
H 47.0 43.21 33.517
H 45.809 55.929 29.748
H 46.826 55.191 30.601
H 59.99 46.227 34.981
H 61.455 45.839 35.076
H 54.516 57.202 33.54
H 56.016 56.967 33.527
H 50.649 43.047 36.469
H 60.51 46.007 30.424
H 61.04 46.88 29.299
H 61.25 51.289 35.07
H 61.375 51.229 36.583
H 51.524 44.238 36.821
H 58.65 46.475 32.313
H 58.093 47.781 32.852
H 50.14 41.675 34.826
H 48.653 41.374 34.751
H 62.752 50.101 27.841
H 62.175 51.498 27.987
H 47.736 45.464 31.719
H 46.405 44.749 31.569
H 47.59 54.415 34.97
H 46.692 53.277 35.423
H 57.811 46.017 34.294
H 56.917 44.788 34.298
H 44.201 51.511 30.088
H 44.008 51.868 31.552
H 50.528 47.547 34.998
H 49.212 46.859 34.682
H 47.557 52.831 33.426
H 49.01 52.39 33.416
H 45.204 47.131 34.858
H 50.287 43.511 31.541
H 51.717 43.896 31.206
H 56.865 49.026 42.921
H 60.093 53.59 25.836
H 59.57 52.185 26.077
H 62.289 48.784 29.566
H 62.798 49.116 30.957
H 52.555 45.927 31.089
H 53.538 46.594 30.143
H 57.96 54.601 27.139
H 57.456 47.877 42.123
H 58.173 45.031 39.498
H 59.501 45.723 39.244
H 53.916 47.26 37.731
H 52.753 48.198 38.0
H 57.893 57.169 31.516
H 56.934 56.208 30.837
H 45.014 43.04 31.893
H 44.538 43.074 33.335
H 51.963 54.573 35.591
H 50.985 55.7 35.311
H 51.567 40.729 33.131
H 51.717 41.972 32.272
H 59.477 41.782 35.643
H 44.521 43.712 29.147
H 49.428 52.561 25.218
H 49.639 51.245 25.946
H 50.448 43.264 26.84
H 50.682 42.154 25.831
H 48.814 41.209 30.06
H 56.059 41.682 26.245
H 59.811 49.149 28.682
H 58.443 49.745 28.959
H 54.623 41.719 26.737
H 58.859 51.368 36.055
H 58.991 49.856 36.034
H 47.995 56.14 28.255
H 47.396 41.767 38.64
H 48.634 42.625 38.447
H 50.743 52.927 38.925
H 50.491 53.277 29.358
H 51.204 53.837 37.8
H 50.785 54.601 28.675
H 49.201 44.623 33.129
H 50.345 43.905 33.824
H 54.105 54.843 26.777
H 53.029 53.793 26.565
H 59.941 55.413 35.061
H 55.474 42.056 30.321
H 54.938 42.835 31.509
H 54.106 55.098 29.226
H 53.015 56.152 29.295
H 53.219 54.905 31.561
H 52.452 54.267 30.415
H 48.498 46.796 23.639
H 49.258 45.76 22.829
H 51.812 55.815 26.419
H 51.737 56.783 25.251
H 51.911 57.313 36.485
H 58.844 53.532 34.75
H 59.828 53.002 33.722
H 53.664 46.791 34.649
H 53.004 46.37 33.347
H 49.718 52.325 31.185
H 49.549 50.962 31.832
H 44.415 46.302 25.875
H 44.994 47.695 26.044
H 61.114 44.489 27.643
H 59.517 42.169 39.515
H 60.501 41.013 39.542
H 46.911 51.768 25.101
H 47.33 53.195 25.408
H 59.744 50.716 39.572
H 59.2 49.505 40.31
H 48.844 44.269 28.154
H 48.764 42.754 28.226
H 60.613 45.028 41.273
H 60.141 43.6 41.066
H 50.535 54.855 32.847
H 50.379 53.98 34.078
H 48.493 40.315 32.415
H 48.556 41.821 32.232
H 54.16 41.795 33.428
H 55.673 41.745 33.3
H 51.576 49.466 35.249
H 52.97 48.864 35.275
H 53.913 56.847 24.836
H 54.072 55.951 23.62
H 63.753 47.876 33.399
H 63.142 47.289 34.659
H 47.494 51.871 39.896
H 48.536 52.391 38.921
H 48.721 56.157 31.944
H 48.452 54.663 31.989
H 49.386 46.896 31.974
H 58.461 50.26 31.426
H 57.243 49.353 31.41
H 50.014 45.92 30.994
H 43.838 46.062 30.279
H 60.879 44.698 32.153
H 61.448 45.934 32.826
H 54.283 45.711 26.065
H 46.605 42.136 28.021
H 47.455 41.005 27.47
H 44.533 46.048 31.63
H 46.424 51.79 27.409
H 45.839 52.344 28.696
H 58.001 42.606 26.709
H 58.305 44.089 26.592
H 57.059 42.505 40.36
H 50.553 56.687 30.536
H 49.061 38.865 28.104
H 50.121 39.593 27.296
H 61.607 51.156 30.506
H 60.101 51.23 30.326
H 46.669 46.07 29.324
H 46.541 44.558 29.38
H 50.981 48.114 32.878
H 52.423 48.501 32.599
H 54.092 44.364 28.644
H 53.998 42.854 28.516
H 57.15 40.991 40.448
H 57.934 50.449 25.892
H 59.243 49.681 25.849
H 59.373 51.989 28.26
H 57.96 51.994 27.704
H 48.591 54.439 29.524
H 47.55 53.341 29.656
H 48.746 55.252 36.686
H 49.016 53.993 37.491
H 47.368 49.932 36.188
H 47.853 51.308 36.61
H 49.862 40.75 37.508
H 54.954 42.365 36.287
H 55.563 40.982 36.44
H 57.057 52.109 33.354
H 58.388 51.38 33.318
H 50.037 38.419 31.77
H 55.895 56.269 26.621
H 50.628 52.948 23.414
H 52.133 53.147 23.361
H 61.651 46.72 40.324
H 60.583 47.797 40.408
H 48.822 46.358 28.975
H 48.088 46.643 27.677
H 46.184 41.467 30.895
H 47.172 42.603 30.695
H 53.073 53.784 39.983
H 55.832 46.495 33.431
H 55.591 47.986 33.589
H 53.483 51.922 29.088
H 52.107 52.079 28.464
H 56.54 47.509 30.429
H 57.293 47.728 29.129
H 47.173 47.468 25.837
H 48.688 47.476 25.723
H 53.422 55.817 37.055
H 53.335 54.495 37.797
H 62.389 44.481 36.926
H 52.596 39.918 29.639
H 46.015 52.735 31.29
H 46.391 51.511 32.108
H 56.05 50.338 39.582
H 56.093 50.483 41.093
H 53.379 40.863 36.687
H 51.942 41.295 36.917
H 61.282 48.21 36.965
H 60.556 49.419 37.527
H 46.897 49.637 29.538
H 47.823 49.939 30.703
H 55.005 57.599 28.657
H 54.247 57.597 27.341
H 53.13 51.332 35.302
H 52.026 52.374 35.303
H 58.821 52.836 40.33
H 50.252 50.801 37.439
H 49.947 51.977 36.528
H 57.751 44.791 30.355
H 58.846 44.86 29.305
H 42.982 48.102 32.137
H 42.252 47.607 33.373
H 63.749 47.196 39.78
H 62.991 48.502 39.941
H 49.172 51.166 28.627
H 49.445 49.795 29.22
H 56.334 50.327 27.4
H 56.476 48.815 27.399
H 55.844 50.188 25.258
H 55.79 48.976 24.344
H 58.493 42.296 37.572
H 57.11 42.923 37.56
H 58.898 46.42 41.316
H 51.45 47.744 30.522
H 50.468 47.849 29.369
H 59.695 53.099 37.401
H 47.921 45.427 25.495
H 47.163 44.402 26.321
H 56.473 51.032 35.534
H 56.839 49.565 35.677
H 49.037 49.627 24.564
H 48.41 48.755 32.888
H 48.244 48.985 34.38
H 54.346 56.113 39.129
H 54.451 52.605 37.109
H 55.486 53.668 36.787
H 53.486 49.532 30.855
H 54.326 48.387 31.395
H 49.054 44.705 37.419
H 49.595 44.943 36.021
H 60.96 54.281 27.736
H 61.033 53.292 28.886
H 47.851 49.776 23.626
H 55.118 54.032 41.3
H 56.186 54.101 33.718
H 54.985 55.028 33.659
H 58.037 54.856 32.178
H 57.405 54.055 31.052
H 55.042 49.189 37.006
H 53.813 50.075 37.102
H 62.361 50.531 39.103
H 56.147 51.587 29.748
H 55.732 51.547 31.208
H 61.654 49.027 34.861
H 62.271 49.856 33.748
H 55.772 52.959 40.447
H 45.723 49.277 31.369
H 46.085 47.803 31.397
