245
xyz format
Cl 62.646 58.926 60.688
O 66.298 65.926 54.185
O 61.531 64.618 56.662
O 59.892 64.597 44.045
O 62.267 63.912 49.325
O 65.522 73.736 52.528
O 66.081 64.437 51.062
O 57.793 65.457 45.373
O 63.466 72.94 53.637
O 57.005 69.809 55.479
O 55.71 72.65 54.97
O 53.925 62.227 47.433
O 59.139 60.722 52.596
O 63.446 63.312 46.768
O 67.472 70.208 60.375
O 61.128 58.983 57.055
O 61.631 61.417 54.456
O 66.394 67.533 57.174
O 59.878 66.912 54.031
O 54.545 65.38 49.164
O 61.826 62.956 59.73
O 56.736 71.876 56.756
O 57.782 65.822 55.598
O 64.751 70.124 53.396
O 57.659 64.519 48.088
O 54.899 66.253 56.186
O 65.671 61.294 58.902
O 61.228 59.219 53.159
O 59.658 68.709 55.633
O 65.263 69.121 61.854
O 54.567 68.535 53.18
O 61.419 67.367 51.856
O 60.537 63.447 55.094
O 59.743 73.301 51.058
O 69.302 68.926 56.655
O 54.912 63.025 55.92
O 55.779 60.703 52.103
O 60.777 65.268 60.86
O 58.991 62.781 56.522
O 60.085 65.541 47.945
O 64.193 63.194 52.568
O 59.135 57.985 54.928
O 54.5 64.222 51.801
O 60.014 61.846 50.729
O 59.661 62.547 61.16
O 62.932 65.063 51.091
O 64.807 59.715 55.941
O 64.283 66.522 62.313
O 57.823 72.214 52.872
O 62.334 70.071 60.867
O 61.59 60.384 58.908
O 57.776 62.291 50.856
O 57.288 67.433 57.747
O 63.034 70.06 51.11
O 59.691 61.441 58.761
O 62.089 69.299 55.23
O 56.574 72.226 51.034
O 55.711 66.633 47.31
O 54.624 64.417 45.167
O 58.02 64.553 53.514
O 66.157 70.708 55.349
O 56.798 62.435 53.25
O 62.023 66.342 54.868
O 62.833 70.559 58.25
O 55.027 69.354 50.173
O 63.676 66.559 57.751
O 58.978 69.657 53.142
O 65.904 67.722 59.316
O 58.988 70.621 48.589
O 58.993 65.84 58.401
O 57.568 62.218 45.647
O 58.034 60.286 47.16
O 56.94 69.882 51.128
O 55.129 70.258 57.088
O 55.939 60.065 56.213
O 56.236 63.753 58.922
O 52.588 64.842 52.716
O 62.963 61.964 56.456
O 59.605 66.027 50.135
O 62.884 73.044 50.188
O 57.798 60.473 57.314
O 66.579 69.031 52.834
O 56.23 60.142 49.067
O 62.414 65.692 45.616
O 53.609 61.002 51.89
O 60.825 67.465 60.918
O 65.453 66.525 51.355
O 56.036 67.297 59.66
O 68.354 69.211 58.622
O 65.906 69.426 50.77
O 64.154 70.009 56.571
O 63.848 61.673 60.101
H 56.986 66.541 57.532
H 57.627 67.769 56.908
H 59.774 65.658 58.939
H 58.367 65.156 58.667
H 58.082 70.935 48.7
H 56.147 60.79 55.611
H 60.056 59.601 61.693
H 63.36 67.103 57.019
H 64.12 65.822 57.314
H 58.844 68.798 53.562
H 59.938 69.75 53.111
H 60.421 67.679 60.068
H 61.868 70.578 58.258
H 63.052 69.801 58.805
H 61.875 66.096 46.307
H 54.176 69.699 49.875
H 55.593 69.437 49.395
H 65.383 68.502 59.085
H 65.255 67.007 59.322
H 61.715 66.944 55.558
H 62.735 65.85 55.294
H 55.115 67.328 47.615
H 56.197 66.382 48.105
H 65.894 68.354 52.763
H 67.402 68.534 52.748
H 57.103 61.787 53.898
H 56.321 63.084 53.782
H 57.875 61.335 50.763
H 57.255 62.544 50.084
H 57.48 61.384 57.351
H 57.259 60.015 57.971
H 58.654 64.099 52.945
H 57.326 64.834 52.905
H 62.899 72.215 50.683
H 61.213 59.53 59.155
H 61.853 60.771 59.753
H 56.004 72.764 51.597
H 56.973 72.866 50.432
H 59.754 66.913 50.49
H 59.589 65.465 50.92
H 58.469 72.125 53.583
H 57.28 71.42 52.955
H 60.83 62.184 50.338
H 60.021 60.909 50.498
H 62.178 69.124 56.176
H 62.761 68.735 54.828
H 63.7 69.442 50.786
H 63.015 69.899 52.062
H 59.275 60.602 58.994
H 59.94 61.325 57.836
H 59.517 62.579 62.113
H 59.584 61.609 60.947
H 63.215 65.577 51.858
H 62.597 64.243 51.474
H 65.288 66.204 52.251
H 66.394 66.738 51.357
H 56.792 68.977 51.429
H 57.886 70.018 51.266
H 64.888 60.489 55.369
H 64.124 59.185 55.512
H 62.05 69.887 61.771
H 61.527 70.371 60.429
H 54.723 63.373 51.399
H 54.654 64.078 52.743
H 52.488 63.967 53.113
H 52.763 65.417 53.471
H 68.277 66.762 60.729
H 68.736 68.145 56.618
H 65.02 62.866 52.192
H 63.57 62.473 52.415
H 63.394 61.494 57.181
H 63.614 62.626 56.193
H 60.455 64.814 47.429
H 59.909 66.224 47.285
H 55.739 61.186 51.269
H 56.524 60.1 51.984
H 61.659 64.884 60.784
H 60.303 64.644 61.423
H 58.877 63.508 57.146
H 58.307 62.937 55.86
H 58.17 62.629 46.28
H 55.573 62.913 56.614
H 59.947 63.094 54.416
H 61.356 63.625 54.615
H 65.724 68.638 50.243
H 66.743 69.75 50.416
H 64.26 62.545 60.131
H 63.907 61.36 61.012
H 61.342 66.589 52.422
H 61.244 68.105 52.453
H 65.3 68.298 61.351
H 64.894 69.756 61.228
H 60.054 68.658 56.512
H 59.906 69.587 55.32
H 60.443 58.946 52.669
H 61.831 58.471 53.063
H 54.836 65.455 55.646
H 55.532 68.494 53.166
H 54.893 65.919 57.091
H 57.031 64.0 47.57
H 57.31 64.471 48.987
H 55.369 63.333 58.861
H 56.082 64.646 58.592
H 64.638 71.011 53.759
H 64.696 69.55 54.17
H 60.39 74.011 50.965
H 59.545 73.052 50.147
H 64.429 70.913 56.769
H 64.733 69.468 57.121
H 60.983 63.291 59.402
H 62.324 62.76 58.927
H 57.176 71.188 57.271
H 56.487 72.534 57.416
H 59.207 66.633 53.396
H 59.763 66.3 54.769
H 54.804 64.451 49.113
H 54.671 65.602 50.095
H 56.912 66.12 55.304
H 57.594 65.007 56.079
H 55.59 72.083 54.198
H 56.029 73.481 54.597
H 57.814 70.315 55.336
H 56.935 69.259 54.69
H 66.54 68.26 56.557
H 65.934 66.871 56.644
H 62.583 61.272 54.402
H 61.363 61.528 53.535
H 66.511 70.438 56.206
H 66.046 71.662 55.438
H 62.532 63.604 46.657
H 59.181 61.305 53.363
H 58.535 60.022 52.872
H 65.89 64.252 50.133
H 66.382 65.453 55.022
H 65.959 66.792 54.445
H 62.094 64.337 57.394
H 60.849 65.152 57.089
H 63.599 72.684 52.715
H 62.505 72.968 53.73
H 54.654 70.267 56.248
H 55.566 69.397 57.094
H 58.264 64.795 45.895
H 67.785 69.749 58.058
H 55.319 66.847 59.196
H 55.983 68.206 59.338
H 61.074 59.732 56.449
H 67.161 69.351 60.694
H 53.736 61.742 52.497
H 60.181 64.318 44.923
H 56.685 59.743 49.819
H 55.298 60.112 49.32
H 62.249 64.682 48.742
H 62.001 63.183 48.75
