97
xyz format
O 47.424 54.104 66.271
O 49.199 54.548 65.05
O 48.067 51.742 61.864
O 46.198 44.885 70.629
O 44.69 45.659 69.211
O 48.289 51.398 67.62
O 46.774 49.983 71.37
O 50.58 46.217 65.016
O 43.274 49.346 66.01
O 51.724 53.542 64.725
O 50.654 50.674 67.209
O 49.944 52.038 65.237
O 44.582 51.93 66.294
O 44.901 48.673 62.946
O 42.532 51.14 70.219
O 49.151 47.639 66.853
O 50.197 49.745 63.746
O 43.846 53.612 67.873
O 46.166 50.465 65.749
O 45.484 55.421 68.155
O 42.871 48.179 72.138
O 44.71 49.266 68.374
O 46.216 45.517 66.637
O 46.948 48.523 73.007
O 45.674 46.127 73.378
O 43.662 53.147 64.699
O 48.31 49.359 69.064
O 44.827 51.62 69.107
O 46.766 48.107 66.076
O 45.983 47.686 70.461
O 48.067 45.836 64.366
H 43.822 46.739 64.01
H 46.521 49.057 73.689
H 47.452 47.871 73.509
H 47.389 46.445 64.046
H 43.33 47.334 72.046
H 42.494 48.331 71.263
H 46.925 47.624 66.897
H 46.174 47.529 65.58
H 45.053 55.486 67.293
H 45.827 54.519 68.172
H 47.273 53.004 71.872
H 48.914 46.892 66.289
H 48.932 48.411 66.317
H 44.869 45.054 64.958
H 43.574 53.887 66.988
H 43.073 53.145 68.215
H 49.563 53.632 62.186
H 46.648 45.261 67.461
H 45.376 45.896 66.926
H 47.431 49.422 68.671
H 48.904 49.399 68.304
H 43.818 49.004 68.115
H 45.271 48.58 67.991
H 51.466 52.035 62.065
H 45.295 47.009 73.475
H 46.322 46.075 74.092
H 49.564 50.11 63.115
H 50.865 49.33 63.186
H 45.41 54.664 65.141
H 44.493 52.47 72.319
H 45.613 51.075 69.241
H 45.137 52.517 69.281
H 50.08 50.274 66.544
H 51.122 49.921 67.591
H 42.124 51.624 69.49
H 43.066 50.469 69.777
H 50.145 50.026 71.087
H 51.067 53.562 64.018
H 51.225 53.806 65.508
H 50.703 51.567 64.871
H 49.283 51.987 64.536
H 43.529 53.636 70.686
H 45.253 52.047 66.979
H 43.806 51.628 66.783
H 44.073 48.918 63.377
H 45.4 48.229 63.644
H 51.461 46.596 65.125
H 50.693 45.575 64.304
H 43.36 49.982 65.29
H 45.712 44.983 71.457
H 47.01 45.385 70.779
H 45.274 47.919 71.072
H 46.749 47.562 71.035
H 47.347 51.462 67.82
H 48.339 51.613 66.68
H 45.83 50.05 71.177
H 47.189 50.49 70.662
H 45.851 49.843 65.082
H 46.756 51.05 65.257
H 45.632 52.801 63.368
H 47.852 51.612 62.796
H 49.159 54.654 64.091
H 45.596 50.734 62.619
H 44.733 46.602 69.01
H 47.002 53.359 66.717
H 47.867 54.578 66.986
