155
xyz format
O 48.262 50.179 24.401
O 51.415 41.073 23.372
O 60.857 42.33 27.258
O 56.201 49.297 25.156
O 56.128 49.545 27.927
O 50.527 39.15 25.125
O 43.6 42.791 24.648
O 46.529 42.063 30.219
O 57.432 47.613 30.077
O 48.59 41.912 23.242
O 55.212 42.13 23.332
O 51.83 45.651 25.741
O 52.045 39.375 30.216
O 53.178 41.818 24.845
O 58.688 50.203 26.442
O 54.64 43.574 28.561
O 46.756 45.28 28.776
O 49.397 39.75 27.915
O 54.553 45.898 25.157
O 58.175 43.39 27.245
O 54.32 47.556 22.265
O 57.692 43.331 24.311
O 62.176 42.232 29.016
O 49.502 35.804 24.964
O 50.827 43.883 30.833
O 53.405 46.384 31.076
O 44.903 46.984 25.397
O 55.965 34.98 26.51
O 51.857 36.584 25.087
O 54.767 42.662 30.575
O 49.291 43.846 24.583
O 58.318 47.048 25.715
O 49.978 42.608 26.311
O 48.646 40.269 30.2
O 45.106 43.419 27.047
O 53.813 34.429 26.364
O 60.189 41.505 24.371
O 50.68 48.841 22.118
O 53.987 37.131 25.152
O 54.628 39.041 26.229
O 51.156 42.059 28.588
O 53.624 44.997 22.491
O 61.243 44.699 26.709
O 46.743 41.184 28.097
O 49.387 46.449 23.492
O 47.028 45.182 25.768
O 55.535 41.724 27.054
O 48.298 43.553 28.503
O 51.482 44.896 22.983
O 48.858 46.918 28.19
O 46.329 41.858 25.392
O 58.439 45.375 30.012
O 47.77 49.6 26.866
O 45.291 39.253 26.091
O 47.893 39.234 23.908
O 56.58 44.706 27.996
O 47.9 47.945 25.418
H 53.636 44.038 22.602
H 56.951 45.537 28.32
H 55.869 44.987 27.407
H 51.593 42.395 29.38
H 50.918 41.154 28.824
H 54.356 45.301 23.042
H 45.898 38.863 25.449
H 45.783 40.004 26.444
H 53.668 39.076 26.316
H 54.832 39.785 25.648
H 48.272 48.931 27.349
H 46.929 49.641 27.338
H 54.813 36.69 25.387
H 54.24 37.722 24.431
H 47.109 41.678 24.852
H 45.609 41.894 24.749
H 50.287 43.511 31.541
H 51.717 43.896 31.206
H 51.454 45.86 22.929
H 51.209 44.608 22.103
H 57.002 43.728 24.857
H 44.403 42.766 27.152
H 57.5 42.386 24.35
H 45.138 43.571 26.094
H 57.976 47.746 25.142
H 50.037 43.601 24.022
H 48.572 43.996 23.956
H 48.953 36.416 25.47
H 50.448 43.264 26.84
H 50.682 42.154 25.831
H 48.814 41.209 30.06
H 56.059 41.682 26.245
H 54.623 41.719 26.737
H 51.755 37.098 25.898
H 52.239 35.751 25.39
H 55.474 42.056 30.321
H 54.938 42.835 31.509
H 48.498 46.796 23.639
H 49.258 45.76 22.829
H 44.415 46.302 25.875
H 44.994 47.695 26.044
H 56.4 34.53 27.244
H 60.349 44.877 26.389
H 53.401 47.477 22.549
H 54.822 47.455 23.083
H 48.844 44.269 28.154
H 48.764 42.754 28.226
H 60.199 42.626 26.617
H 61.512 41.87 26.717
H 53.101 42.325 24.028
H 53.299 40.91 24.542
H 54.283 45.711 26.065
H 46.605 42.136 28.021
H 47.455 41.005 27.47
H 55.354 45.373 25.043
H 58.001 42.606 26.709
H 58.305 44.089 26.592
H 49.061 38.865 28.104
H 50.121 39.593 27.296
H 46.669 46.07 29.324
H 46.541 44.558 29.38
H 44.984 45.769 23.564
H 54.092 44.364 28.644
H 53.998 42.854 28.516
H 57.934 50.449 25.892
H 59.243 49.681 25.849
H 48.822 46.358 28.975
H 48.088 46.643 27.677
H 47.172 42.603 30.695
H 47.173 47.468 25.837
H 48.688 47.476 25.723
H 51.692 44.702 25.628
H 51.078 46.048 25.283
H 48.286 38.365 23.76
H 48.332 39.551 24.707
H 52.596 39.918 29.639
H 59.402 41.43 24.925
H 53.023 33.885 26.257
H 49.095 41.464 23.931
H 48.529 41.255 22.537
H 57.751 44.791 30.355
H 58.846 44.86 29.305
H 56.334 50.327 27.4
H 56.476 48.815 27.399
H 55.844 50.188 25.258
H 55.79 48.976 24.344
H 43.263 42.23 23.939
H 44.054 43.503 24.181
H 51.401 38.985 24.749
H 50.094 38.289 25.083
H 47.921 45.427 25.495
H 47.163 44.402 26.321
H 49.037 49.627 24.564
H 55.332 41.664 24.169
H 55.355 43.056 23.563
H 51.061 41.912 23.053
H 52.08 40.839 22.712
H 47.851 49.776 23.626
