230
xyz format
O 32.33 43.493 36.27
O 34.331 51.095 28.381
O 37.519 46.932 31.979
O 39.522 44.361 34.858
O 32.586 46.087 34.72
O 35.646 45.563 28.761
O 43.128 47.633 32.968
O 38.829 49.07 31.297
O 34.33 47.058 35.839
O 37.329 43.272 36.635
O 36.424 39.783 33.249
O 31.622 39.946 31.332
O 40.307 48.273 23.517
O 37.747 40.213 34.957
O 30.16 50.975 34.524
O 34.715 43.491 26.406
O 36.757 48.855 30.077
O 41.465 50.784 30.986
O 32.903 48.551 33.609
O 29.983 43.413 31.089
O 31.487 44.811 29.285
O 38.904 37.534 26.455
O 42.509 44.712 31.816
O 38.092 51.296 27.954
O 35.692 41.76 34.177
O 31.269 44.941 32.984
O 35.142 40.518 27.148
O 34.394 51.205 31.691
O 32.331 50.555 27.192
O 35.244 44.44 37.319
O 44.636 45.743 30.719
O 39.352 44.169 24.83
O 35.47 37.49 31.572
O 34.058 37.958 34.719
O 35.981 47.245 25.677
O 30.109 48.309 36.131
O 33.06 37.526 31.225
O 44.294 43.052 29.815
O 33.377 48.493 26.461
O 42.041 49.464 28.779
O 41.846 41.941 31.692
O 34.695 40.461 31.599
O 38.483 38.741 32.313
O 28.584 45.546 34.732
O 35.683 51.386 26.597
O 41.037 47.328 30.485
O 29.438 51.371 32.483
O 36.516 44.034 34.174
O 37.055 42.936 31.153
O 42.205 43.697 34.264
O 40.068 52.462 29.522
O 34.693 38.832 29.193
O 36.886 51.982 29.661
O 41.266 46.155 26.218
O 33.187 42.709 33.562
O 34.922 43.384 29.488
O 33.465 40.527 35.041
O 33.293 43.719 31.61
O 28.235 43.314 33.495
O 38.848 47.839 25.813
O 38.686 49.873 33.379
O 41.364 43.526 26.576
O 35.865 45.491 31.816
O 37.132 45.325 27.148
O 39.405 45.462 29.705
O 40.099 40.717 33.761
O 37.667 39.729 27.141
O 38.443 43.813 32.62
O 36.251 49.122 35.91
O 33.145 46.774 29.52
O 39.247 47.14 34.961
O 31.907 51.609 30.454
O 40.338 50.895 27.642
O 44.806 43.652 32.61
O 31.043 48.185 29.152
O 38.084 50.946 24.48
O 36.37 37.072 29.131
O 42.271 46.033 28.182
O 35.725 48.453 33.013
O 34.196 51.64 34.002
O 38.956 49.056 28.378
O 33.741 48.832 30.02
O 30.609 45.454 35.664
O 30.038 48.87 33.103
H 38.792 48.246 28.876
H 34.46 50.762 34.303
H 39.143 49.712 29.062
H 35.114 45.976 31.453
H 36.352 45.204 31.034
H 37.55 44.88 27.896
H 37.294 44.729 26.406
H 33.219 53.433 27.738
H 37.947 49.704 33.977
H 36.229 47.811 33.528
H 35.104 47.908 32.513
H 41.865 45.587 28.936
H 41.872 46.912 28.194
H 32.933 44.123 30.811
H 34.227 43.963 31.59
H 42.071 43.704 25.944
H 41.503 44.186 27.267
H 33.732 40.652 34.122
H 32.668 41.065 35.123
H 34.199 43.833 29.034
H 34.758 42.449 29.313
H 40.627 45.882 25.548
H 42.022 46.462 25.703
H 30.348 48.892 32.189
H 30.518 48.127 33.489
H 37.815 50.019 24.498
H 38.41 51.108 25.374
H 32.577 43.399 33.85
H 34.055 43.126 33.635
H 37.214 51.628 30.496
H 39.152 47.897 34.371
H 37.532 43.206 30.359
H 36.363 42.352 30.818
H 44.538 43.074 33.335
H 32.962 38.273 31.829
H 31.733 52.445 30.905
H 35.009 51.063 25.986
H 31.696 50.942 31.118
H 40.903 47.07 31.405
H 41.992 47.256 30.363
H 44.521 43.712 29.147
H 44.499 42.212 29.385
H 28.762 50.829 32.056
H 35.723 44.247 34.681
H 36.182 43.88 33.281
H 42.712 48.795 28.966
H 41.261 49.143 29.248
H 41.967 43.302 33.416
H 39.101 43.692 31.924
H 35.446 39.414 29.031
H 38.05 44.671 32.418
H 42.759 41.648 31.801
H 41.511 41.387 30.976
H 28.045 43.861 32.723
H 28.597 42.503 33.117
H 42.733 44.467 34.018
H 33.928 39.408 29.075
H 39.225 48.618 26.239
H 38.938 47.147 26.48
H 36.89 48.524 35.503
H 35.499 49.101 35.305
H 38.02 39.546 26.261
H 38.343 38.266 33.141
H 38.145 38.135 31.641
H 28.918 45.985 33.94
H 34.73 40.704 30.665
H 34.552 41.302 32.05
H 36.88 39.171 27.193
H 34.073 48.918 26.978
H 32.658 48.378 27.095
H 35.165 36.814 30.954
H 35.782 38.201 30.998
H 35.243 47.185 26.296
H 36.756 47.307 26.248
H 33.493 47.104 28.682
H 33.412 45.846 29.53
H 38.924 44.967 24.498
H 38.728 43.466 24.61
H 39.088 45.462 30.616
H 32.661 51.437 26.981
H 31.692 50.712 27.898
H 38.814 46.078 29.256
H 39.691 41.366 33.174
H 43.838 46.062 30.279
H 33.628 51.778 31.826
H 34.156 50.392 32.155
H 44.533 46.048 31.63
H 34.913 43.577 37.04
H 34.736 45.064 36.786
H 35.545 41.218 26.618
H 34.408 40.961 27.592
H 31.727 45.315 32.221
H 30.351 44.878 32.692
H 35.667 41.239 34.99
H 36.634 41.845 33.988
H 33.057 49.321 30.495
H 40.173 50.819 26.693
H 41.155 51.406 27.693
H 41.867 45.079 31.196
H 43.002 44.074 31.285
H 37.913 52.106 27.46
H 37.536 50.636 27.522
H 31.178 45.424 28.606
H 31.138 45.183 30.105
H 38.265 37.461 27.175
H 39.497 36.785 26.597
H 29.484 42.587 31.105
H 29.357 44.053 30.729
H 30.91 50.689 33.988
H 33.011 48.58 32.65
H 32.737 49.471 33.849
H 42.026 50.01 31.12
H 34.496 48.853 30.621
H 34.079 43.049 26.982
H 35.383 43.826 27.017
H 36.688 49.689 29.596
H 36.648 49.112 31.001
H 36.961 37.803 28.913
H 36.513 36.439 28.417
H 31.085 47.531 29.861
H 31.056 49.03 29.619
H 34.964 46.949 35.119
H 40.259 47.546 24.15
H 38.388 40.667 35.518
H 39.694 48.928 23.872
H 37.16 42.566 35.999
H 37.606 44.015 36.085
H 35.811 39.058 33.079
H 36.715 40.05 32.368
H 42.982 48.102 32.137
H 42.252 47.607 33.373
H 39.076 45.038 34.334
H 39.977 43.824 34.197
H 35.111 45.781 27.987
H 35.562 46.342 29.325
H 31.993 46.634 34.189
H 33.304 45.87 34.112
H 38.647 50.012 31.184
H 39.782 49.003 31.163
H 33.641 50.826 29.001
H 34.958 50.362 28.405
H 31.619 40.824 30.931
H 32.307 43.099 37.15
H 32.673 44.382 36.425
H 38.322 47.216 32.434
H 37.703 47.12 31.05
