516
xyz format
Cl 43.794 48.821 62.402
O 41.873 53.115 63.585
O 44.149 52.899 62.931
O 46.564 43.774 67.068
O 57.597 59.338 57.539
O 42.188 50.675 62.95
O 61.441 58.696 58.791
O 46.743 58.154 65.405
O 55.909 47.765 62.103
O 46.844 56.48 58.52
O 56.971 56.456 61.233
O 40.088 57.549 58.42
O 46.663 66.699 59.117
O 51.763 62.637 59.15
O 45.692 46.004 64.106
O 57.836 66.776 57.42
O 53.002 55.234 64.948
O 54.656 65.65 55.468
O 42.323 55.043 62.03
O 61.527 49.013 64.664
O 47.757 62.177 54.129
O 53.917 56.456 60.752
O 40.243 50.717 61.66
O 57.683 59.812 64.423
O 44.185 65.414 55.893
O 40.948 51.363 64.765
O 51.765 46.336 64.034
O 41.774 61.694 60.902
O 51.628 50.261 61.284
O 38.847 60.131 61.901
O 53.557 45.642 60.169
O 41.235 57.933 63.952
O 59.502 63.042 59.388
O 46.638 48.271 63.479
O 57.431 47.442 65.418
O 52.742 58.402 61.113
O 44.167 54.986 66.099
O 58.673 53.894 65.016
O 56.811 62.889 63.154
O 42.694 60.723 64.855
O 58.789 60.565 59.902
O 39.03 53.908 61.234
O 50.162 51.271 64.117
O 40.068 57.162 60.948
O 54.348 46.002 62.355
O 53.377 50.61 68.82
O 46.916 62.152 63.017
O 45.175 46.409 58.733
O 50.273 56.49 65.264
O 53.983 66.103 58.313
O 48.834 49.165 65.159
O 46.415 52.829 62.418
O 42.794 57.222 59.934
O 48.588 43.365 65.566
O 47.177 43.744 62.759
O 55.37 46.163 66.94
O 51.057 59.988 54.169
O 55.685 61.72 59.188
O 56.732 52.207 62.434
O 46.198 59.249 63.505
O 50.681 58.873 68.478
O 42.951 56.566 64.066
O 46.658 55.775 68.277
O 41.6 55.027 59.031
O 62.24 54.212 61.925
O 59.031 58.313 61.513
O 50.022 63.738 63.642
O 46.737 45.464 69.126
O 64.493 53.638 62.435
O 40.201 57.024 65.69
O 62.618 56.531 63.984
O 47.762 55.844 60.986
O 53.353 47.356 66.608
O 46.741 61.867 59.206
O 45.974 59.007 58.176
O 52.018 58.647 64.896
O 52.682 60.277 56.078
O 53.811 44.261 64.831
O 39.858 53.519 65.249
O 52.819 47.389 61.283
O 52.914 45.971 68.26
O 50.232 54.354 70.041
O 45.507 46.617 67.49
O 57.718 56.898 58.626
O 53.947 61.025 65.406
O 49.302 66.993 58.485
O 58.04 61.06 61.915
O 43.482 46.449 68.337
O 41.962 55.848 66.992
O 47.747 51.05 66.596
O 48.541 46.155 63.954
O 45.5 48.538 60.796
O 41.478 52.254 60.711
O 50.958 56.351 60.074
O 48.758 68.417 56.898
O 45.817 65.168 60.873
O 40.888 48.29 65.34
O 62.285 54.161 59.67
O 55.52 58.809 59.409
O 45.239 56.254 61.474
O 52.598 57.597 66.74
O 55.626 59.976 54.841
O 50.512 47.683 67.878
O 60.84 55.037 65.817
O 56.716 49.371 63.372
O 43.588 59.374 62.572
O 56.498 49.126 68.092
O 55.733 57.99 66.767
O 47.72 46.648 66.743
O 51.685 50.231 66.084
O 52.387 52.503 68.297
O 48.031 50.506 62.418
O 50.187 50.649 68.236
O 48.439 47.377 69.691
O 48.767 64.791 54.479
O 57.376 56.165 67.525
O 49.752 61.001 56.662
O 51.03 54.17 64.199
O 43.323 48.368 65.14
O 40.901 56.159 56.451
O 54.921 60.251 61.477
O 51.598 63.565 62.036
O 58.788 60.804 55.133
O 57.844 65.99 60.131
O 44.638 62.76 65.004
O 39.068 54.537 63.351
O 59.125 58.062 65.249
O 40.389 53.345 57.947
O 59.0 50.264 65.074
O 49.49 62.198 59.974
O 52.653 48.776 64.577
O 42.318 62.905 58.41
O 55.101 56.665 63.93
O 43.132 65.754 58.639
O 46.335 53.033 66.722
O 47.913 59.223 59.191
O 43.031 60.31 55.824
O 57.436 55.951 63.873
O 53.115 65.211 60.127
O 48.129 54.732 66.158
O 51.241 68.028 58.383
O 50.653 45.873 69.179
O 41.862 53.463 67.604
O 48.519 59.3 62.15
O 59.674 56.015 57.758
O 54.676 62.598 61.772
O 43.82 45.74 62.896
O 42.888 48.032 60.56
O 63.011 58.317 61.93
O 42.997 50.61 66.314
O 47.127 53.685 69.884
O 50.746 56.652 63.12
O 49.045 58.845 54.698
O 49.471 54.415 62.271
O 60.809 57.15 62.081
O 46.581 64.699 56.404
O 55.79 63.701 54.656
O 45.228 49.707 67.897
O 62.525 61.324 58.235
O 54.385 50.812 64.679
O 49.82 45.586 62.256
O 61.612 61.737 60.978
O 46.112 51.616 64.297
O 53.503 61.001 62.995
O 41.304 47.632 62.557
O 51.506 44.789 66.499
O 50.688 55.217 67.009
O 50.306 65.29 55.968
O 47.085 56.056 64.099
O 44.794 57.466 67.488
O 51.004 59.33 59.061
O 43.422 58.873 58.018
O 50.523 65.137 58.612
O 58.612 58.491 55.769
O 57.091 64.482 58.226
O 48.321 49.478 68.137
O 53.829 62.213 57.458
O 39.863 60.972 59.542
O 40.291 60.584 57.416
O 53.091 53.181 62.031
O 40.201 59.807 64.456
O 59.291 48.467 67.545
O 54.694 55.288 67.547
O 53.123 53.116 64.344
O 48.062 49.495 54.971
O 51.909 51.365 55.163
N 50.123 52.271 56.216
N 52.353 53.934 53.978
N 48.411 51.553 54.037
C 51.406 53.938 52.972
C 51.942 53.806 55.355
C 53.052 54.098 56.375
C 48.205 50.485 51.84
C 47.511 51.339 52.935
C 48.427 51.155 57.474
C 47.032 52.668 52.302
C 48.124 52.651 57.501
C 49.413 50.996 56.292
C 51.331 52.398 55.595
C 48.588 50.626 55.037
C 46.223 53.463 53.307
C 49.365 53.325 56.879
H 52.129 53.133 62.085
H 53.251 53.64 61.197
H 46.336 53.907 67.131
H 56.449 65.135 57.922
H 57.215 63.908 57.46
H 45.528 49.141 68.618
H 46.039 53.203 65.819
H 45.566 49.269 67.106
H 44.159 48.541 64.689
H 54.688 57.534 63.852
H 54.74 56.172 63.182
H 43.778 46.627 62.518
H 54.862 63.5 62.062
H 53.745 62.626 61.52
H 43.753 65.311 58.048
H 43.262 62.744 58.283
H 57.04 55.174 64.286
H 50.709 53.372 63.76
H 50.387 54.317 64.904
H 57.327 56.644 64.537
H 45.132 57.864 68.3
H 43.866 57.732 67.471
H 60.82 56.427 62.721
H 61.254 61.908 60.098
H 60.896 61.274 61.43
H 60.951 57.937 62.621
H 57.205 66.414 59.545
H 51.321 64.048 61.247
H 59.666 60.649 55.504
H 58.194 60.651 55.879
H 44.732 62.098 65.701
H 52.31 64.107 62.398
H 54.201 60.561 60.913
H 55.709 60.383 60.936
H 61.613 61.044 58.085
H 43.718 62.671 64.726
H 49.066 60.042 62.438
H 48.628 58.648 62.854
H 53.496 48.777 64.106
H 52.069 49.287 64.002
H 48.371 58.342 55.171
H 52.781 65.661 60.913
H 53.739 64.564 60.48
H 49.358 58.23 54.023
H 48.672 54.344 66.856
H 48.254 54.134 65.411
H 51.632 67.213 58.044
H 51.916 68.695 58.211
H 53.816 60.174 63.381
H 43.375 47.383 60.036
H 52.645 60.768 62.619
H 60.134 56.855 57.636
H 58.999 56.021 57.068
H 49.776 45.474 69.242
H 50.905 46.018 70.1
H 42.456 53.131 66.92
H 41.755 52.712 68.2
H 48.931 50.837 58.421
H 47.517 50.526 57.331
H 56.934 48.387 68.535
H 56.884 49.122 67.208
H 49.06 54.111 56.133
H 55.066 57.341 66.513
H 47.689 46.832 67.69
H 48.289 45.87 66.679
H 47.936 53.024 58.534
H 55.517 58.193 67.685
H 50.145 50.156 56.452
H 49.54 60.181 57.126
H 48.892 61.416 56.525
H 50.975 49.674 66.427
H 51.849 50.859 66.798
H 44.113 58.684 62.997
H 44.25 59.951 62.171
H 58.666 61.308 62.607
H 57.345 60.59 62.392
H 53.331 55.185 56.28
H 49.998 53.803 57.675
H 47.22 52.871 56.877
H 55.78 59.535 58.829
H 48.831 67.579 59.091
H 48.669 66.284 58.313
H 55.209 58.128 58.799
H 52.356 56.733 67.096
H 53.062 58.024 67.47
H 45.201 57.013 62.069
H 45.164 55.495 62.067
H 36.744 60.916 56.805
H 56.289 49.89 64.065
H 57.615 49.245 63.701
H 60.331 54.442 66.382
H 60.843 54.591 64.96
H 49.381 47.571 69.774
H 48.024 47.986 70.314
H 49.892 51.369 67.664
H 50.293 51.071 69.098
H 47.963 64.649 53.964
H 48.795 50.953 62.032
H 57.642 57.08 67.372
H 56.875 55.937 66.733
H 49.365 65.224 53.857
H 47.756 49.887 61.731
H 52.76 53.365 68.076
H 54.739 60.104 55.201
H 56.075 59.454 55.517
H 51.286 47.681 67.301
H 51.772 52.697 69.016
H 49.81 47.325 67.322
H 47.975 51.77 65.995
H 47.706 51.479 67.461
H 47.81 49.017 67.46
H 47.689 49.599 68.857
H 47.961 46.521 63.275
H 49.729 64.822 56.584
H 48.471 46.787 64.68
H 50.91 65.776 56.543
H 62.539 54.869 59.065
H 62.024 53.441 59.082
H 46.408 48.211 60.763
H 42.874 60.971 56.509
H 42.149 59.971 55.625
H 47.453 58.6 59.766
H 48.574 59.624 59.769
H 45.584 49.408 61.206
H 41.966 52.655 61.441
H 40.524 53.216 65.878
H 41.632 55.233 66.326
H 42.25 56.612 66.477
H 43.721 45.897 69.092
H 52.388 48.014 60.687
H 51.263 56.97 59.399
H 50.005 56.303 59.927
H 44.934 65.531 60.736
H 46.328 65.922 61.192
H 53.427 45.42 67.655
H 52.799 45.411 69.038
H 52.36 47.518 62.122
H 54.713 60.46 65.568
H 53.483 61.031 66.252
H 56.805 56.66 58.421
H 45.381 47.032 66.628
H 45.466 45.672 67.298
H 51.012 54.683 69.576
H 49.806 53.777 69.395
H 58.019 56.181 59.198
H 53.977 47.635 65.927
H 53.607 47.877 67.38
H 47.327 62.528 58.816
H 46.875 61.087 58.654
H 51.203 59.034 64.551
H 52.562 58.519 64.109
H 46.091 59.436 57.319
H 45.522 58.182 57.959
H 50.546 57.573 62.911
H 46.483 58.367 63.236
H 46.372 59.794 62.728
H 50.746 56.216 62.259
H 56.523 52.441 63.347
H 55.545 62.594 59.572
H 55.856 61.904 58.256
H 57.162 51.346 62.51
H 47.66 54.478 69.748
H 51.459 59.356 68.173
H 49.229 54.859 63.093
H 48.426 56.229 61.571
H 50.511 58.241 67.769
H 47.257 56.607 60.678
H 48.646 54.008 61.978
H 51.945 60.657 56.571
H 52.887 59.466 56.559
H 47.777 53.006 70.101
H 50.471 62.898 63.803
H 49.421 63.539 62.913
H 39.476 56.64 65.182
H 39.848 57.871 65.99
H 46.34 46.043 69.788
H 47.227 44.818 69.649
H 58.978 57.789 60.705
H 59.606 59.05 61.272
H 54.344 62.033 56.662
H 42.541 55.244 59.005
H 41.181 55.856 59.292
H 61.714 54.331 62.725
H 62.394 53.259 61.892
H 46.214 56.092 69.074
H 47.492 56.263 68.271
H 53.704 61.341 57.853
H 46.03 66.019 58.856
H 46.113 67.38 59.524
H 52.28 57.682 61.561
H 53.38 58.708 61.769
H 43.543 56.323 63.344
H 42.813 55.736 64.539
H 55.782 46.931 67.356
H 41.025 60.067 57.77
H 43.672 56.836 60.042
H 47.016 44.373 63.473
H 48.354 44.231 65.212
H 42.374 57.079 60.79
H 54.276 65.184 58.258
H 54.792 66.589 58.515
H 46.909 52.291 61.787
H 46.466 53.72 62.05
H 49.651 48.947 64.695
H 48.306 49.622 64.493
H 46.709 61.913 63.929
H 47.038 63.109 63.053
H 52.655 53.066 65.188
H 54.031 53.32 64.598
H 50.215 57.311 65.769
H 49.35 56.245 65.12
H 53.926 55.233 68.129
H 55.322 54.667 67.937
H 54.081 45.075 62.337
H 54.578 46.156 63.28
H 50.574 45.121 62.639
H 52.644 50.453 69.429
H 53.284 49.907 68.165
H 49.142 44.903 62.182
H 51.544 60.819 54.233
H 62.651 57.495 63.954
H 63.075 56.261 63.178
H 51.727 59.315 54.343
H 40.3 57.923 61.495
H 51.121 51.263 64.226
H 49.829 51.122 65.01
H 40.192 51.395 64.165
H 56.887 59.671 64.95
H 58.147 60.517 64.891
H 39.616 51.14 61.061
H 54.629 57.099 60.862
H 47.386 61.638 54.839
H 46.998 62.676 53.801
H 54.378 55.609 60.706
H 54.485 51.203 65.556
H 53.451 50.946 64.473
H 44.797 55.417 66.69
H 44.674 54.84 65.291
H 59.503 60.283 59.317
H 43.425 51.161 66.98
H 43.684 50.478 65.649
H 58.094 60.85 59.295
H 52.26 50.244 62.014
H 51.037 50.991 61.509
H 56.728 63.626 63.771
H 56.103 62.288 63.418
H 57.933 53.29 65.153
H 58.845 53.835 64.068
H 43.367 60.056 65.039
H 42.274 60.408 64.045
H 41.684 55.323 62.698
H 40.59 59.841 65.338
H 39.276 59.584 64.621
H 58.387 50.551 65.762
H 49.271 61.524 60.63
H 49.47 63.022 60.476
H 59.206 57.152 65.562
H 59.475 58.588 65.979
H 46.632 63.993 55.748
H 41.455 62.443 60.383
H 42.243 61.151 60.257
H 51.215 47.025 64.427
H 52.664 46.595 64.274
H 55.798 63.159 55.455
H 54.96 65.062 56.171
H 54.325 66.423 55.943
H 47.087 65.418 56.006
H 41.8 54.991 61.22
H 38.191 60.282 62.593
H 55.066 47.968 61.678
H 45.857 58.31 65.756
H 51.185 62.225 58.496
H 47.291 58.074 66.196
H 46.283 46.484 64.7
H 45.103 45.528 64.705
H 52.314 61.907 59.461
H 50.256 64.82 59.484
H 42.053 53.661 64.36
H 50.923 54.36 67.388
H 50.315 55.702 67.755
H 40.96 53.332 63.359
H 51.358 64.682 58.448
H 43.996 53.653 62.347
H 44.304 52.166 62.322
H 51.321 45.691 66.208
H 46.505 56.009 64.869
H 47.144 55.139 63.8
H 57.258 57.074 61.916
H 56.33 55.894 61.688
H 45.988 56.249 58.903
H 47.384 55.696 58.678
H 40.356 57.979 57.598
H 42.738 59.029 58.681
H 43.904 59.71 57.984
H 50.295 58.805 58.668
H 50.61 60.205 59.167
H 39.691 60.233 62.358
H 52.863 55.369 64.002
H 53.358 56.079 65.25
H 46.386 50.807 63.847
H 45.151 51.541 64.341
H 45.822 48.133 62.982
H 58.188 58.289 54.925
H 59.306 57.825 55.843
H 46.337 48.663 64.308
H 54.41 45.776 59.736
H 58.614 63.103 59.014
H 60.077 63.027 58.612
H 41.51 58.515 63.233
H 58.396 58.973 57.938
H 61.673 57.767 58.916
H 61.612 58.851 57.854
H 57.067 58.557 57.334
H 42.682 50.693 62.121
