556
xyz format
O 32.33 43.493 36.27
O 34.331 51.095 28.381
O 33.547 55.93 43.381
O 37.519 46.932 31.979
O 39.522 44.361 34.858
O 38.108 54.297 27.379
O 32.586 46.087 34.72
O 37.534 56.033 29.941
O 37.603 54.09 36.874
O 35.047 57.531 39.733
O 35.646 45.563 28.761
O 25.972 52.103 35.086
O 38.829 49.07 31.297
O 28.288 44.115 42.157
O 38.916 52.01 32.064
O 34.669 53.535 32.647
O 34.33 47.058 35.839
O 31.442 49.918 38.638
O 27.779 46.239 43.778
O 35.8 40.266 38.185
O 37.77 49.323 42.741
O 25.063 46.875 39.686
O 37.329 43.272 36.635
O 31.434 51.37 36.637
O 25.132 49.206 37.179
O 36.087 52.32 37.839
O 33.267 49.089 41.3
O 32.012 59.02 39.058
O 33.823 57.49 36.037
O 33.548 46.777 43.633
O 27.21 44.915 40.162
O 30.16 50.975 34.524
O 34.715 43.491 26.406
O 36.757 48.855 30.077
O 33.571 60.472 32.065
O 41.465 50.784 30.986
O 32.903 48.551 33.609
O 29.983 43.413 31.089
O 29.255 55.539 42.532
O 31.749 47.537 40.849
O 31.358 39.252 36.585
O 32.508 60.595 30.112
O 31.487 44.811 29.285
O 29.147 42.049 40.598
O 38.092 51.296 27.954
O 34.384 57.658 42.083
O 27.409 57.141 42.66
O 41.971 55.703 32.339
O 38.091 53.985 32.814
O 35.318 54.462 35.57
O 40.644 44.475 37.494
O 35.692 41.76 34.177
O 33.615 62.512 33.947
O 31.269 44.941 32.984
O 34.394 51.205 31.691
O 31.211 56.956 35.773
O 25.959 43.248 47.027
O 32.331 50.555 27.192
O 36.678 46.875 40.602
O 36.405 46.299 37.519
O 35.244 44.44 37.319
O 26.055 42.137 41.776
O 35.934 45.985 42.469
O 40.502 58.425 30.405
O 35.981 47.245 25.677
O 26.374 53.253 41.419
O 30.109 48.309 36.131
O 38.927 54.71 24.712
O 35.879 57.619 36.81
O 38.278 56.39 34.887
O 30.816 47.124 43.877
O 33.204 55.026 41.103
O 32.668 41.843 39.067
O 31.13 55.868 33.737
O 40.227 57.338 34.477
O 35.277 59.994 30.358
O 26.284 47.246 41.59
O 33.377 48.493 26.461
O 29.347 42.171 45.413
O 33.687 53.546 30.518
O 27.074 40.563 39.312
O 34.412 62.958 30.545
O 29.457 54.438 36.791
O 34.695 40.461 31.599
O 40.535 57.907 37.278
O 32.349 54.56 38.524
O 40.196 51.677 39.231
O 35.826 54.847 38.167
O 31.392 56.378 39.587
O 28.584 45.546 34.732
O 33.894 43.538 40.384
O 38.604 51.744 41.346
O 22.985 51.131 41.585
O 27.125 44.516 37.501
O 38.638 48.827 37.901
O 32.397 53.663 28.188
O 31.234 43.464 43.251
O 35.683 51.386 26.597
O 35.254 60.288 36.134
O 41.037 47.328 30.485
O 39.748 54.056 36.206
O 29.438 51.371 32.483
O 36.516 44.034 34.174
O 36.904 54.586 41.793
O 31.361 60.244 34.288
O 31.285 52.849 34.228
O 37.055 42.936 31.153
O 40.068 52.462 29.522
O 29.291 53.725 39.126
O 38.04 44.595 39.198
O 35.034 50.578 40.027
O 40.437 55.974 29.266
O 36.886 51.982 29.661
O 29.503 53.396 43.912
O 26.765 48.709 43.978
O 35.44 54.642 28.067
O 29.41 58.085 34.515
O 33.187 42.709 33.562
O 29.615 57.402 37.347
O 39.134 55.815 32.179
O 38.589 51.006 35.766
O 23.17 48.138 40.886
O 42.724 55.002 30.394
O 34.922 43.384 29.488
O 31.295 58.776 31.78
O 29.174 51.139 37.763
O 34.707 55.884 33.208
O 39.988 57.619 27.493
O 33.465 40.527 35.041
O 33.293 43.719 31.61
O 27.037 51.918 43.553
O 27.34 60.318 36.531
O 38.559 49.318 40.297
O 28.235 43.314 33.495
O 40.534 50.018 36.069
O 27.318 50.233 41.013
O 38.848 47.839 25.813
O 38.686 49.873 33.379
O 34.463 48.203 38.824
O 28.841 40.928 42.861
O 30.272 42.39 37.595
O 34.023 53.09 43.91
O 29.126 52.297 30.21
O 31.129 63.323 33.11
O 29.516 50.703 41.081
O 35.865 45.491 31.816
O 37.132 45.325 27.148
O 35.423 61.272 34.117
O 33.038 56.375 30.754
O 39.405 45.462 29.705
O 38.37 58.492 36.904
O 29.133 42.04 35.199
O 37.669 56.619 40.494
O 40.098 53.051 26.619
O 25.801 44.315 43.516
O 30.83 45.234 41.651
O 30.927 53.199 40.867
O 38.443 43.813 32.62
O 36.251 49.122 35.91
O 35.059 57.15 28.243
O 29.254 46.596 38.507
O 38.862 54.0 40.963
O 33.145 46.774 29.52
O 30.721 49.255 42.815
O 26.011 55.067 40.228
O 35.275 54.96 31.084
O 35.656 48.968 42.243
O 39.247 47.14 34.961
O 31.907 51.609 30.454
O 40.338 50.895 27.642
O 30.718 55.772 29.42
O 41.935 47.489 35.878
O 27.812 50.917 34.873
O 28.691 56.212 38.95
O 29.34 39.66 37.989
O 31.043 48.185 29.152
O 38.084 50.946 24.48
O 31.325 60.57 36.467
O 34.483 52.707 40.128
O 39.422 58.85 32.292
O 26.258 57.448 38.043
O 28.058 60.946 39.135
O 32.19 51.182 42.566
O 32.599 53.517 36.145
O 33.689 45.502 38.67
O 33.872 50.523 36.959
O 35.725 48.453 33.013
O 41.843 53.022 34.695
O 34.196 51.64 34.002
O 38.956 49.056 28.378
O 36.483 51.152 35.074
O 31.411 56.074 42.243
O 33.741 48.832 30.02
O 36.132 57.776 33.006
O 27.327 49.045 38.502
O 30.609 45.454 35.664
O 26.595 57.174 35.885
O 28.574 44.703 46.284
O 30.038 48.87 33.103
O 25.994 58.043 40.664
H 38.792 48.246 28.876
H 33.239 51.649 34.134
H 34.46 50.762 34.303
H 29.725 41.82 38.149
H 30.544 41.812 36.871
H 39.143 49.712 29.062
H 34.764 60.575 34.009
H 35.759 61.41 33.223
H 41.15 53.047 34.023
H 35.114 45.976 31.453
H 36.352 45.204 31.034
H 37.55 44.88 27.896
H 37.294 44.729 26.406
H 32.141 54.501 27.784
H 38.939 44.363 39.461
H 33.219 53.433 27.738
H 37.713 43.796 38.768
H 33.49 53.268 43.125
H 29.776 51.655 29.899
H 29.644 53.101 30.343
H 37.947 49.704 33.977
H 39.427 50.044 33.974
H 33.815 47.679 38.335
H 35.196 48.297 38.203
H 36.229 47.811 33.528
H 35.104 47.908 32.513
H 34.831 50.518 36.85
H 33.686 49.679 37.39
H 28.492 41.589 43.472
H 37.64 51.705 41.368
H 35.456 55.846 33.815
H 33.939 55.891 33.793
H 29.477 50.486 37.119
H 27.783 51.795 44.153
H 26.281 52.019 44.145
H 28.842 51.862 37.216
H 39.138 57.662 27.947
H 32.933 44.123 30.811
H 23.726 50.818 41.051
H 22.62 51.859 41.067
H 34.227 43.963 31.59
H 30.213 50.563 40.428
H 29.982 51.086 41.835
H 33.732 40.652 34.122
H 32.668 41.065 35.123
H 34.199 43.833 29.034
H 34.758 42.449 29.313
H 30.821 59.229 31.071
H 31.987 58.287 31.317
H 27.721 48.576 43.969
H 26.547 48.869 43.051
H 30.348 48.892 32.189
H 41.815 54.677 30.39
H 28.932 57.254 34.635
H 29.321 58.526 35.369
H 30.518 48.127 33.489
H 34.966 54.698 27.228
H 35.317 53.725 28.34
H 37.815 50.019 24.498
H 38.41 51.108 25.374
H 32.577 43.399 33.85
H 34.055 43.126 33.635
H 38.769 47.408 35.757
H 29.392 52.872 43.109
H 28.642 53.816 44.032
H 37.214 51.628 30.496
H 36.002 52.304 29.88
H 39.533 55.687 29.088
H 40.941 55.62 28.522
H 39.152 47.897 34.371
H 39.603 58.062 34.344
H 30.13 54.135 38.882
H 31.05 48.136 36.002
H 29.678 47.537 35.742
H 40.728 57.313 33.652
H 37.532 43.206 30.359
H 36.363 42.352 30.818
H 36.211 60.16 30.536
H 35.26 59.762 29.421
H 38.722 55.731 34.339
H 37.932 55.877 35.628
H 32.927 54.104 41.17
H 34.158 54.99 41.243
H 27.193 44.968 36.651
H 36.556 57.518 36.129
H 36.072 56.906 37.432
H 27.498 43.643 37.328
H 39.01 54.873 23.764
H 39.46 53.211 29.567
H 39.769 55.017 25.072
H 31.733 52.445 30.905
H 35.009 51.063 25.986
H 36.228 51.967 26.052
H 36.206 60.265 35.973
H 35.141 59.728 36.912
H 30.871 61.025 34.002
H 30.929 59.518 33.821
H 40.204 53.212 36.315
H 40.143 54.429 35.408
H 31.696 50.942 31.118
H 40.903 47.07 31.405
H 41.992 47.256 30.363
H 30.585 42.954 43.75
H 31.742 43.92 43.934
H 30.595 56.373 33.112
H 31.852 55.524 33.196
H 32.851 40.944 39.365
H 27.641 50.188 34.264
H 28.034 51.655 34.291
H 33.516 42.147 38.722
H 28.762 50.829 32.056
H 29.09 52.269 32.412
H 35.723 44.247 34.681
H 36.182 43.88 33.281
H 31.86 53.37 33.654
H 30.585 53.467 34.474
H 36.354 54.959 41.093
H 36.685 53.646 41.78
H 38.871 54.372 40.072
H 25.821 55.865 39.719
H 25.695 46.54 41.886
H 27.167 46.881 41.728
H 26.195 54.402 39.553
H 31.548 48.788 42.642
H 30.901 49.748 43.625
H 35.973 50.796 39.986
H 34.759 50.573 39.101
H 39.101 43.692 31.924
H 37.751 49.496 39.8
H 38.05 44.671 32.418
H 27.108 41.472 39.634
H 33.616 52.858 29.845
H 29.152 45.95 37.797
H 29.618 47.371 38.061
H 33.117 54.251 30.186
H 33.497 63.048 30.838
H 34.923 63.048 31.359
H 41.289 49.984 35.468
H 40.647 50.856 36.534
H 28.045 43.861 32.723
H 28.597 42.503 33.117
H 31.149 52.95 41.773
H 31.364 52.526 40.33
H 27.49 50.506 41.923
H 26.363 50.095 40.992
H 39.225 48.618 26.239
H 38.938 47.147 26.48
H 36.89 48.524 35.503
H 35.499 49.101 35.305
H 38.257 58.176 37.809
H 29.767 55.065 36.127
H 28.81 53.902 36.316
H 37.982 59.375 36.918
H 29.503 52.785 39.184
H 27.646 45.417 34.545
H 30.799 55.829 40.115
H 32.05 56.682 40.224
H 28.918 45.985 33.94
H 40.057 57.091 37.085
H 33.024 54.835 37.891
H 32.193 53.633 38.305
H 30.495 45.408 42.54
H 40.927 52.874 29.366
H 34.552 41.302 32.05
H 26.188 44.541 42.661
H 26.428 43.685 43.892
H 31.776 45.095 41.786
H 39.583 48.933 37.734
H 38.565 47.928 38.243
H 34.073 48.918 26.978
H 32.658 48.378 27.095
H 35.155 54.64 38.829
H 36.597 55.095 38.692
H 26.455 52.316 41.203
H 25.878 53.256 42.247
H 35.243 47.185 26.296
H 36.756 47.307 26.248
H 39.584 58.228 30.182
H 40.84 57.588 30.746
H 33.493 47.104 28.682
H 33.412 45.846 29.53
H 41.049 47.835 36.039
H 41.792 46.543 35.751
H 26.933 42.382 42.092
H 25.508 42.166 42.571
H 39.088 45.462 30.616
H 32.661 51.437 26.981
H 31.692 50.712 27.898
H 38.814 46.078 29.256
H 36.273 47.394 39.895
H 37.444 46.469 40.178
H 36.187 51.834 35.69
H 37.333 55.72 29.05
H 37.838 56.939 29.803
H 37.038 57.05 41.084
H 37.423 56.942 39.619
H 31.481 57.862 35.968
H 31.623 56.437 36.475
H 33.628 51.778 31.826
H 34.156 50.392 32.155
H 29.791 42.721 35.014
H 28.455 42.508 35.703
H 40.813 53.337 26.036
H 34.913 43.577 37.04
H 34.736 45.064 36.786
H 39.334 52.992 26.033
H 37.092 45.621 37.498
H 36.845 47.081 37.164
H 36.929 51.651 34.378
H 31.092 45.958 36.331
H 30.423 44.614 36.101
H 26.115 58.011 35.921
H 26.764 57.047 34.943
H 36.921 57.769 32.449
H 35.414 57.95 32.385
H 33.479 62.718 33.014
H 32.852 61.967 34.175
H 31.727 45.315 32.221
H 30.351 44.878 32.692
H 26.772 48.278 38.314
H 28.019 48.998 37.83
H 28.443 44.289 45.422
H 35.667 41.239 34.99
H 36.634 41.845 33.988
H 35.409 53.807 36.273
H 35.834 55.214 35.889
H 33.726 57.929 41.431
H 27.007 56.593 41.974
H 42.414 55.966 33.156
H 41.198 55.213 32.645
H 37.431 54.322 32.197
H 37.618 53.942 33.655
H 33.057 49.321 30.495
H 40.173 50.819 26.693
H 41.155 51.406 27.693
H 30.813 38.465 36.704
H 30.814 47.356 41.009
H 31.045 54.893 29.65
H 31.481 56.202 29.015
H 37.913 52.106 27.46
H 37.536 50.636 27.522
H 35.772 54.471 30.416
H 35.877 55.667 31.346
H 32.056 46.755 40.374
H 29.5 42.44 41.407
H 29.843 41.444 40.313
H 33.332 61.058 29.913
H 32.657 59.705 29.771
H 31.178 45.424 28.606
H 31.138 45.183 30.105
H 29.484 42.587 31.105
H 29.357 44.053 30.729
H 33.205 45.976 43.217
H 26.747 44.193 39.719
H 27.744 45.309 39.46
H 30.91 50.689 33.988
H 29.88 50.168 34.976
H 33.011 48.58 32.65
H 32.737 49.471 33.849
H 31.428 56.697 42.98
H 31.557 55.217 42.664
H 34.496 48.853 30.621
H 29.004 54.751 42.033
H 29.248 56.241 41.869
H 35.128 48.58 42.952
H 32.672 60.473 32.417
H 33.889 59.58 32.252
H 35.383 43.826 27.017
H 35.235 49.822 42.084
H 36.688 49.689 29.596
H 36.648 49.112 31.001
H 31.262 61.334 37.055
H 31.403 59.822 37.072
H 31.085 47.531 29.861
H 31.056 49.03 29.619
H 28.498 39.89 37.578
H 29.122 39.57 38.925
H 33.753 47.768 35.531
H 34.964 46.949 35.119
H 28.816 56.714 39.766
H 28.044 55.538 39.193
H 33.926 56.534 36.12
H 33.57 57.614 35.114
H 31.829 58.86 39.992
H 32.58 58.282 38.806
H 36.193 52.631 38.747
H 36.555 51.476 37.83
H 33.873 45.615 39.611
H 32.736 45.639 38.605
H 40.296 59.232 32.442
H 38.817 59.525 32.626
H 38.538 51.621 36.509
H 38.182 50.2 36.107
H 28.383 60.327 38.469
H 23.022 47.849 39.977
H 39.471 55.637 31.293
H 38.835 56.732 32.131
H 25.429 57.649 38.496
H 26.92 57.501 38.743
H 28.839 57.029 36.91
H 22.613 48.921 40.972
H 29.278 58.202 37.768
H 34.705 52.812 41.061
H 33.615 52.284 40.144
H 32.481 51.351 43.471
H 32.977 51.359 42.036
H 24.568 49.939 36.902
H 25.862 49.226 36.547
H 32.1 50.622 38.596
H 31.533 49.467 37.79
H 28.468 46.382 44.439
H 27.003 46.003 44.302
H 33.378 53.24 35.647
H 32.292 54.302 35.674
H 24.688 47.016 38.807
H 25.973 46.61 39.506
H 37.16 42.566 35.999
H 37.606 44.015 36.085
H 32.043 51.162 35.917
H 30.916 52.108 36.292
H 39.076 45.038 34.334
H 39.977 43.824 34.197
H 25.553 51.522 35.733
H 26.54 52.671 35.622
H 35.851 56.79 27.825
H 35.227 57.038 29.187
H 35.111 45.781 27.987
H 35.562 46.342 29.325
H 34.531 57.256 38.964
H 34.973 58.493 39.727
H 31.993 46.634 34.189
H 38.89 54.823 27.17
H 37.377 54.828 27.039
H 33.304 45.87 34.112
H 37.937 53.472 37.536
H 37.605 53.575 36.058
H 39.5 52.294 32.779
H 38.087 51.806 32.513
H 28.386 45.065 42.017
H 28.785 43.95 42.968
H 38.647 50.012 31.184
H 39.782 49.003 31.163
H 34.001 53.745 33.311
H 35.502 53.746 33.085
H 33.641 50.826 29.001
H 34.958 50.362 28.405
H 33.096 49.687 40.562
H 33.879 48.44 40.931
H 32.307 43.099 37.15
H 33.504 56.707 31.532
H 32.178 56.106 31.099
H 32.673 44.382 36.425
H 34.102 55.289 43.842
H 33.614 56.725 43.924
H 38.322 47.216 32.434
H 37.703 47.12 31.05
