414
xyz format
Cl 39.106 49.969 60.184
Cl 31.247 50.946 48.398
Na 35.918 45.033 51.34
Na 36.045 52.744 54.029
O 34.03 51.908 48.431
O 28.13 60.544 48.062
O 33.547 55.93 43.381
O 39.645 51.124 52.771
O 29.178 61.196 49.884
O 31.718 50.328 50.467
O 42.228 51.872 52.946
O 30.798 55.98 50.701
O 36.137 54.707 47.034
O 30.685 62.111 51.835
O 35.047 57.531 39.733
O 32.848 56.56 52.79
O 32.229 48.197 51.93
O 39.083 52.778 54.927
O 36.801 54.519 43.989
O 26.166 52.854 46.693
O 37.424 59.543 39.401
O 32.873 59.85 43.046
O 30.128 53.045 49.088
O 35.998 54.064 51.222
O 38.11 53.8 52.342
O 29.555 46.662 46.322
O 37.77 49.323 42.741
O 38.685 57.888 54.719
O 36.685 59.221 51.626
O 29.172 50.2 48.425
O 29.263 57.353 47.75
O 39.375 60.307 55.966
O 43.014 57.352 50.28
O 36.115 47.947 57.122
O 38.696 57.437 57.182
O 33.794 56.833 46.106
O 32.012 59.02 39.058
O 34.983 47.227 55.413
O 39.834 55.328 46.991
O 32.254 53.515 45.469
O 33.895 62.403 48.551
O 42.458 57.269 53.963
O 29.255 55.539 42.532
O 31.879 55.375 48.019
O 39.394 58.119 42.329
O 25.847 57.847 47.837
O 33.429 56.825 48.595
O 32.823 52.029 52.37
O 34.384 57.658 42.083
O 39.724 51.06 46.718
O 30.114 49.385 53.351
O 27.409 57.141 42.66
O 32.252 49.193 47.517
O 31.547 56.696 55.17
O 33.453 54.701 51.781
O 36.04 57.475 57.67
O 33.386 46.348 50.318
O 29.931 55.761 44.616
O 35.803 57.681 53.654
O 34.074 64.267 46.582
O 36.399 47.621 52.922
O 39.372 47.593 53.489
O 32.843 62.11 56.765
O 28.001 55.325 50.766
O 31.681 64.007 47.357
O 33.204 55.026 41.103
O 26.647 49.718 47.157
O 31.815 57.263 45.075
O 40.293 57.193 52.427
O 35.641 60.734 40.835
O 36.032 56.502 49.186
O 40.196 51.677 39.231
O 35.826 54.847 38.167
O 27.725 46.583 48.447
O 31.392 56.378 39.587
O 38.01 56.638 51.62
O 36.959 55.005 57.413
O 31.949 61.294 48.233
O 33.56 58.405 51.13
O 38.604 51.744 41.346
O 38.568 53.967 50.198
O 36.566 48.865 45.684
O 35.002 50.37 53.825
O 34.865 50.637 46.801
O 39.239 49.041 51.133
O 32.846 50.038 56.493
O 36.904 54.586 41.793
O 40.983 49.07 48.041
O 38.094 50.989 49.754
O 26.554 55.236 47.178
O 40.461 51.484 50.229
O 26.397 50.49 49.722
O 34.066 53.885 49.408
O 35.034 50.578 40.027
O 29.503 53.396 43.912
O 29.309 49.506 45.239
O 30.982 59.397 51.281
O 34.394 52.84 46.177
O 40.455 55.642 38.693
O 32.798 64.958 50.387
O 37.205 51.46 46.884
O 30.955 54.379 56.495
O 28.495 54.48 53.532
O 35.656 53.484 58.677
O 37.91 49.795 57.98
O 39.422 54.221 45.107
O 36.446 54.914 54.061
O 36.941 52.18 56.464
O 28.277 58.144 45.471
O 42.049 57.107 45.768
O 27.037 51.918 43.553
O 29.399 52.358 46.08
O 35.791 57.384 44.901
O 38.559 49.318 40.297
O 30.695 53.439 53.104
O 34.831 63.241 53.989
O 35.203 50.261 44.664
O 34.023 53.09 43.91
O 32.056 63.298 53.082
O 34.279 58.0 56.305
O 35.492 58.963 47.841
O 41.558 54.762 51.557
O 30.592 46.561 48.669
O 41.164 55.004 53.881
O 35.976 50.126 56.944
O 41.215 52.032 41.657
O 37.669 56.619 40.494
O 40.52 56.216 56.62
O 30.927 53.199 40.867
O 31.733 59.795 54.694
O 36.632 47.66 50.624
O 40.443 52.733 48.418
O 38.862 54.0 40.963
O 33.772 47.17 47.384
O 35.656 48.968 42.243
O 33.372 60.588 52.768
O 38.803 56.633 44.769
O 36.908 47.584 47.915
O 38.712 52.742 57.567
O 29.809 57.686 52.617
O 37.263 50.647 53.136
O 41.481 52.655 56.237
O 28.119 58.058 51.151
O 36.339 63.293 50.164
O 40.689 60.948 52.072
O 34.262 46.965 52.847
O 34.483 52.707 40.128
O 37.87 56.507 47.514
O 32.8 48.774 45.137
O 41.942 55.608 42.03
O 32.19 51.182 42.566
O 36.74 60.665 55.989
O 35.062 50.156 51.212
O 37.765 49.304 54.806
O 31.411 56.074 42.243
O 28.73 51.543 51.349
H 32.406 63.661 52.259
H 40.055 48.731 51.544
H 39.253 48.632 50.259
H 32.675 63.613 53.753
H 35.943 50.747 44.28
H 34.426 50.687 44.28
H 31.498 46.231 48.628
H 30.071 45.776 48.881
H 34.931 53.129 43.585
H 33.49 53.268 43.125
H 34.804 62.462 54.558
H 34.685 63.975 54.599
H 38.848 51.921 42.263
H 36.12 52.629 56.226
H 37.64 51.705 41.368
H 37.133 51.629 55.694
H 27.783 51.795 44.153
H 30.335 52.209 46.263
H 28.948 51.757 46.686
H 37.253 55.153 54.533
H 35.792 54.81 54.764
H 42.386 54.555 52.01
H 41.371 53.965 51.047
H 35.941 59.571 48.441
H 35.045 58.346 48.433
H 34.222 58.802 56.839
H 33.928 57.313 56.884
H 42.573 56.542 46.35
H 41.572 57.683 46.378
H 27.922 57.249 45.543
H 27.568 58.7 45.819
H 34.721 49.736 50.412
H 35.332 52.755 46.392
H 34.124 53.641 46.644
H 30.041 49.453 45.866
H 29.304 50.434 44.971
H 31.593 59.294 52.022
H 41.775 55.301 41.13
H 31.561 59.566 50.528
H 38.266 49.035 57.503
H 38.099 50.541 57.398
H 39.763 53.414 44.703
H 38.743 53.903 45.716
H 33.967 50.691 46.451
H 34.847 49.85 47.359
H 33.829 54.491 48.694
H 34.362 47.513 52.059
H 39.747 56.148 39.11
H 41.26 56.066 39.016
H 33.219 53.519 49.69
H 31.496 53.928 55.834
H 37.678 51.003 47.592
H 37.512 52.372 46.955
H 35.606 50.88 50.877
H 29.392 52.872 43.109
H 28.642 53.816 44.032
H 34.623 51.159 53.418
H 35.356 50.691 54.664
H 32.578 64.417 49.618
H 26.395 49.146 47.893
H 26.965 50.52 47.59
H 32.07 58.101 45.48
H 31.605 56.699 45.83
H 40.145 58.063 52.036
H 40.361 56.607 51.663
H 32.927 54.104 41.17
H 34.158 54.99 41.243
H 30.68 57.406 52.927
H 29.313 57.834 53.432
H 32.973 49.305 57.108
H 32.698 50.798 57.069
H 38.918 57.525 44.417
H 38.751 56.08 43.98
H 41.165 51.824 55.86
H 40.875 53.387 48.981
H 40.031 53.264 47.725
H 38.366 50.997 50.681
H 37.723 51.87 49.617
H 40.394 50.799 49.551
H 41.413 51.595 50.349
H 26.803 51.363 49.655
H 36.354 54.959 41.093
H 36.685 53.646 41.78
H 27.379 55.666 47.433
H 26.291 50.359 50.672
H 39.43 54.596 41.467
H 38.871 54.372 40.072
H 39.259 53.371 50.512
H 35.973 50.796 39.986
H 31.352 60.967 47.549
H 31.553 62.133 48.501
H 30.619 52.512 53.364
H 30.101 53.514 52.347
H 37.751 49.496 39.8
H 39.244 49.774 39.792
H 30.772 59.786 54.785
H 31.921 59.004 54.174
H 33.817 58.675 50.24
H 36.375 55.472 56.802
H 37.454 55.713 57.843
H 36.172 56.566 45.245
H 36.558 57.881 44.591
H 31.149 52.95 41.773
H 32.827 57.794 50.982
H 28.47 47.187 48.338
H 38.015 57.433 52.167
H 38.375 56.936 50.778
H 42.06 52.126 41.201
H 38.878 54.239 49.325
H 40.625 52.623 41.173
H 36.144 61.557 40.883
H 40.996 51.149 39.344
H 40.296 52.06 38.351
H 36.566 57.216 49.556
H 36.083 55.808 49.856
H 36.011 48.132 45.979
H 36.863 49.273 46.506
H 35.155 54.64 38.829
H 36.597 55.095 38.692
H 36.328 48.213 48.361
H 33.281 61.758 55.981
H 37.662 50.033 52.507
H 36.804 51.284 52.575
H 29.601 55.605 45.509
H 29.763 56.7 44.469
H 33.305 60.795 51.827
H 33.345 61.452 53.196
H 38.828 53.699 57.606
H 38.133 52.55 58.315
H 36.872 63.862 50.733
H 34.118 63.308 46.479
H 33.384 64.533 45.961
H 34.526 46.575 47.292
H 36.098 48.538 52.913
H 37.237 47.66 53.401
H 33.969 47.886 46.767
H 27.664 55.654 51.609
H 28.608 56.018 50.476
H 36.957 62.608 49.881
H 27.996 58.549 50.329
H 30.601 56.925 50.707
H 30.488 55.676 51.563
H 35.472 55.266 47.455
H 36.415 54.11 47.739
H 31.072 49.863 51.014
H 32.567 50.082 50.855
H 37.038 57.05 41.084
H 37.423 56.942 39.619
H 35.831 50.638 57.749
H 35.085 49.892 56.657
H 33.536 47.094 49.723
H 32.63 54.894 51.315
H 34.117 55.202 51.29
H 40.33 55.489 53.83
H 40.058 55.421 56.914
H 40.095 56.43 55.779
H 41.209 54.723 54.803
H 35.786 58.569 54.032
H 35.948 57.109 54.418
H 31.911 56.412 56.018
H 30.613 56.848 55.361
H 32.155 54.341 45.958
H 31.484 53.501 44.886
H 34.105 61.673 47.955
H 34.584 62.352 49.226
H 29.676 51.4 51.477
H 28.36 50.652 51.365
H 31.497 48.593 47.463
H 32.735 48.884 48.294
H 35.143 58.222 41.891
H 33.726 57.929 41.431
H 40.367 50.501 46.264
H 30.347 50.32 53.297
H 29.616 49.225 52.54
H 39.347 51.597 46.009
H 39.742 57.22 42.38
H 38.917 58.133 41.49
H 26.809 57.834 47.758
H 32.618 57.281 48.853
H 33.839 56.592 49.437
H 31.129 55.958 47.847
H 31.733 55.074 48.924
H 42.181 57.907 53.293
H 42.713 56.493 53.448
H 31.428 56.697 42.98
H 31.557 55.217 42.664
H 29.004 54.751 42.033
H 29.248 56.241 41.869
H 35.128 48.58 42.952
H 35.235 49.822 42.084
H 32.788 52.766 52.993
H 32.386 51.309 52.842
H 40.419 55.745 46.347
H 40.021 55.801 47.811
H 30.47 46.917 46.494
H 29.091 47.506 46.25
H 37.878 50.175 43.182
H 37.559 48.716 43.462
H 38.937 58.316 56.863
H 39.014 57.43 58.093
H 33.774 55.872 46.184
H 34.508 57.097 46.7
H 39.561 53.435 55.449
H 39.158 51.971 55.452
H 30.875 53.096 48.479
H 36.444 53.262 50.922
H 35.897 53.928 52.173
H 27.116 52.963 46.831
H 36.667 54.355 44.931
H 37.657 54.112 43.805
H 38.956 58.362 53.923
H 38.244 57.1 54.377
H 29.367 52.925 48.506
H 39.854 60.451 55.14
H 40.119 60.256 51.714
H 35.203 48.062 54.98
H 33.397 59.588 43.813
H 37.796 56.088 46.647
H 35.99 53.102 59.499
H 35.028 54.154 58.974
H 37.837 55.765 48.13
H 32.606 49.713 45.027
H 33.673 48.672 44.737
H 29.052 55.22 53.26
H 32.095 60.271 43.432
H 34.705 52.812 41.061
H 32.481 51.351 43.471
H 32.977 51.359 42.036
H 38.33 52.865 52.441
H 35.764 59.128 51.899
H 36.653 59.111 50.668
H 38.881 54.256 52.7
H 28.597 50.209 49.2
H 29.206 49.268 48.175
H 29.339 56.964 48.63
H 29.119 58.291 47.926
H 32.666 55.886 53.458
H 33.076 57.341 53.309
H 34.531 57.256 38.964
H 34.973 58.493 39.727
H 28.941 60.445 47.547
H 27.523 59.914 47.655
H 31.043 61.398 52.38
H 35.773 47.343 50.316
H 29.978 62.481 52.379
H 37.057 46.867 50.973
H 32.564 48.625 52.728
H 31.552 47.593 52.261
H 38.512 49.69 55.279
H 37.184 48.992 55.511
H 42.094 57.181 50.043
H 34.706 51.801 49.111
H 33.457 51.141 48.554
H 34.102 55.289 43.842
H 33.614 56.725 43.924
H 40.449 50.625 52.579
H 39.393 50.821 53.652
H 29.228 60.523 50.574
