184
xyz format
Cl 41.259 60.751 72.504
Na 41.179 68.089 69.505
O 46.791 61.308 68.338
O 40.501 62.894 63.585
O 41.751 65.527 63.853
O 46.842 66.009 72.567
O 38.522 57.998 74.117
O 37.741 56.897 68.277
O 37.602 63.398 67.675
O 43.906 67.948 71.448
O 46.699 55.348 70.014
O 45.067 66.077 70.416
O 31.672 61.262 66.672
O 36.526 54.043 73.94
O 39.899 60.189 68.296
O 36.647 56.414 65.243
O 42.543 66.263 68.848
O 36.78 56.49 71.425
O 40.726 66.261 71.97
O 43.247 60.061 70.726
O 43.318 58.978 68.133
O 42.727 71.353 65.521
O 45.332 62.126 71.237
O 45.791 57.047 72.962
O 44.576 64.489 65.446
O 41.727 60.218 65.82
O 38.772 59.287 62.177
O 38.35 61.942 61.796
O 42.291 57.22 66.609
O 47.057 65.904 68.424
O 39.682 63.674 72.594
O 40.328 58.319 65.298
O 39.651 55.792 66.746
O 39.999 54.215 73.409
O 46.702 68.89 70.75
O 37.459 63.726 63.168
O 37.723 55.759 74.62
O 39.539 65.561 66.666
O 46.598 60.076 71.351
O 45.717 58.465 74.663
O 45.047 71.571 66.799
O 43.627 58.729 63.446
O 43.705 55.211 72.213
O 40.68 60.52 63.249
O 40.225 56.434 62.301
O 44.738 63.208 68.548
O 37.689 60.247 64.995
O 40.951 70.726 63.494
O 38.789 62.81 65.645
O 42.684 59.327 73.528
O 35.661 60.035 66.811
O 38.217 62.174 71.924
O 33.973 58.652 63.702
O 35.882 67.647 66.446
O 35.522 60.678 62.854
O 44.781 57.993 70.55
O 45.016 57.813 65.766
O 40.902 70.103 67.319
O 34.723 62.614 67.073
O 41.134 62.894 68.441
O 46.993 63.383 71.966
O 41.748 55.727 63.732
O 37.411 64.431 70.788
O 39.961 61.539 70.61
O 42.305 63.03 71.102
O 38.013 59.058 66.887
O 44.667 66.524 67.253
O 48.404 63.435 69.29
O 39.021 60.055 74.726
O 43.461 55.677 69.217
H 44.302 66.018 63.566
H 44.875 57.855 66.72
H 43.01 58.21 63.978
H 38.816 65.598 66.027
H 39.67 66.484 66.917
H 36.744 67.381 66.102
H 45.145 70.679 66.445
H 44.355 71.479 67.466
H 37.307 62.338 72.202
H 38.358 61.244 72.142
H 38.817 58.546 67.044
H 37.822 59.454 67.747
H 41.471 63.138 70.628
H 42.893 63.671 70.682
H 35.113 59.276 66.571
H 41.927 59.282 74.126
H 43.423 59.548 74.108
H 35.69 60.0 67.775
H 44.438 64.102 68.757
H 44.242 62.979 67.753
H 37.721 55.995 73.684
H 37.137 56.412 75.023
H 40.094 60.579 64.014
H 41.552 60.379 63.638
H 36.85 63.194 63.695
H 39.694 61.844 69.734
H 40.245 60.629 70.459
H 37.963 64.218 63.828
H 43.3 56.069 72.036
H 37.99 64.956 70.221
H 36.892 63.909 70.165
H 45.977 59.355 74.932
H 47.447 66.6 67.881
H 47.816 65.51 68.873
H 46.302 64.028 71.767
H 41.845 56.68 65.945
H 42.428 58.065 66.163
H 38.447 61.684 62.721
H 45.841 60.001 71.945
H 47.193 59.377 71.648
H 39.563 54.988 73.028
H 36.376 60.877 63.258
H 34.899 61.215 63.359
H 39.486 58.643 64.953
H 40.875 58.217 64.51
H 34.292 61.837 67.452
H 35.631 62.322 66.924
H 44.471 58.295 71.413
H 45.739 58.102 70.6
H 40.041 56.314 67.458
H 47.336 68.474 70.153
H 47.726 63.65 71.397
H 47.178 68.943 71.589
H 40.694 70.853 66.749
H 41.151 69.406 66.699
H 39.637 63.829 71.642
H 40.522 63.215 72.713
H 39.379 58.815 62.761
H 38.038 59.528 62.755
H 41.348 61.094 65.967
H 42.594 60.27 66.241
H 46.754 57.029 73.012
H 45.594 56.554 72.155
H 43.314 59.93 68.291
H 43.323 58.597 69.02
H 42.711 60.809 70.435
H 42.594 59.399 70.986
H 41.534 66.713 71.697
H 40.283 66.06 71.136
H 44.472 62.122 70.798
H 45.112 62.221 72.172
H 42.797 70.642 64.871
H 39.298 53.485 75.402
H 35.921 54.499 74.538
H 37.133 53.584 74.534
H 41.807 65.649 68.967
H 44.123 55.641 69.92
H 42.309 66.75 68.048
H 36.98 57.28 64.976
H 36.466 55.708 71.897
H 36.766 57.184 72.096
H 43.91 64.84 66.05
H 45.255 64.135 66.034
H 40.859 60.162 68.399
H 39.775 60.497 67.389
H 39.834 60.312 74.273
H 38.325 60.474 74.204
H 47.217 66.856 72.295
H 45.891 66.134 72.456
H 39.482 57.96 74.022
H 38.231 58.461 73.321
H 32.505 60.778 66.724
H 46.909 56.194 70.429
H 44.357 65.653 70.913
H 45.624 65.339 70.136
H 38.614 62.358 64.81
H 38.738 62.105 66.303
H 37.063 60.892 65.348
H 37.144 59.468 64.825
H 45.516 66.237 66.892
H 44.914 67.107 67.981
H 38.372 57.355 68.846
H 36.971 57.479 68.273
H 36.923 64.019 67.967
H 46.461 61.494 67.45
H 46.198 60.619 68.663
H 41.959 62.883 67.94
H 40.457 62.746 67.769
H 37.738 62.83 68.443
H 43.805 68.34 70.571
H 44.862 67.929 71.581
H 41.269 62.762 64.155
H 40.104 63.708 63.919
H 47.556 63.321 68.843
