356
xyz format
Na 46.336 56.344 34.969
O 44.251 57.008 30.865
O 54.453 56.755 39.842
O 41.412 59.904 45.339
O 42.55 60.666 40.761
O 45.023 54.088 36.793
O 43.898 59.337 44.775
O 51.751 59.64 43.556
O 48.479 61.247 49.622
O 41.677 58.091 41.798
O 42.6 59.874 35.929
O 52.703 53.557 40.845
O 37.424 59.543 39.401
O 50.118 59.605 35.868
O 47.572 65.923 41.657
O 41.36 64.47 42.569
O 39.974 61.558 41.697
O 44.851 52.129 39.126
O 46.047 61.631 35.735
O 48.459 67.826 37.322
O 47.46 69.791 41.186
O 40.028 61.029 33.684
O 44.215 68.372 39.428
O 48.723 61.078 40.356
O 50.45 60.463 41.983
O 50.403 59.846 32.747
O 47.823 59.757 44.75
O 39.394 58.119 42.329
O 43.801 59.878 48.48
O 42.983 62.232 36.705
O 45.669 62.484 44.645
O 41.971 55.703 32.339
O 41.83 65.049 38.855
O 46.791 61.459 46.866
O 49.133 66.643 45.444
O 47.059 58.37 29.734
O 46.576 56.266 38.022
O 49.874 57.374 30.519
O 45.743 68.597 37.768
O 48.387 53.642 30.03
O 42.018 63.872 45.28
O 48.247 55.485 32.451
O 39.124 61.219 37.284
O 45.453 62.692 38.486
O 50.964 58.471 40.09
O 49.969 54.723 33.618
O 46.178 62.324 32.096
O 43.316 64.901 49.42
O 42.512 64.701 36.49
O 41.915 55.924 36.92
O 48.52 64.216 44.431
O 47.869 57.755 41.356
O 50.168 59.763 45.276
O 41.462 60.503 49.131
O 54.237 59.335 38.115
O 38.169 64.465 40.819
O 40.535 57.907 37.278
O 45.646 66.102 46.816
O 48.397 65.069 39.805
O 52.165 58.072 35.945
O 45.506 59.699 32.804
O 48.706 59.716 30.628
O 49.989 55.99 41.873
O 50.844 62.099 37.121
O 45.271 60.546 42.993
O 51.084 62.025 46.917
O 51.132 54.952 35.903
O 54.31 68.004 40.168
O 48.895 63.842 41.633
O 44.15 58.19 34.028
O 46.923 54.191 35.632
O 48.282 52.62 32.825
O 45.512 56.47 48.907
O 40.455 55.642 38.693
O 45.415 62.181 41.486
O 43.63 68.584 47.013
O 53.953 64.891 39.245
O 47.638 64.081 34.602
O 44.951 63.541 49.997
O 46.539 55.3 29.686
O 42.724 55.002 30.394
O 42.843 53.455 32.678
O 43.822 55.229 35.077
O 45.371 53.799 33.656
O 51.696 65.656 40.213
O 45.801 64.68 44.688
O 45.012 65.452 37.908
O 47.516 66.958 35.533
O 47.703 59.154 48.739
O 42.049 57.107 45.768
O 44.197 62.054 47.458
O 46.846 56.204 46.256
O 44.177 64.688 41.352
O 51.325 55.259 43.721
O 50.899 67.52 41.25
O 51.332 56.014 38.196
O 55.293 63.072 41.956
O 50.905 62.574 44.425
O 52.03 62.043 33.772
O 40.528 62.488 46.463
O 51.839 62.809 41.651
O 47.91 51.668 39.049
O 43.051 65.884 44.539
O 45.625 57.874 45.407
O 47.96 60.817 42.826
O 47.759 65.644 47.534
O 52.464 67.473 38.615
O 38.052 59.85 42.629
O 46.129 57.247 32.393
O 50.159 65.868 36.503
O 49.132 54.37 36.61
O 41.973 63.089 34.166
O 48.047 50.59 35.994
O 46.269 67.635 39.724
O 48.454 60.024 37.289
O 42.028 61.824 43.179
O 44.655 67.068 42.12
O 47.816 63.835 36.781
O 52.727 62.421 39.125
O 43.431 54.516 38.25
O 42.133 66.588 46.963
O 47.215 54.53 39.914
O 41.942 55.608 42.03
O 45.643 59.188 41.251
O 44.457 62.713 34.642
O 49.821 63.232 39.043
O 52.623 59.858 41.431
O 46.348 51.833 31.199
O 41.843 53.022 34.695
O 51.146 64.523 34.918
O 45.127 59.031 38.776
H 51.685 56.05 43.3
H 51.284 54.616 43.003
H 51.513 67.819 40.568
H 50.166 67.142 40.749
H 44.348 60.781 43.151
H 45.619 60.375 43.877
H 41.15 53.047 34.023
H 52.089 63.519 42.254
H 52.386 62.065 41.933
H 54.418 62.882 41.595
H 50.568 56.014 38.786
H 52.087 56.004 38.798
H 51.871 61.497 47.099
H 50.534 61.896 47.7
H 41.722 52.163 35.118
H 45.613 64.91 37.381
H 44.774 66.175 37.315
H 49.247 63.066 38.285
H 50.569 63.711 38.665
H 46.924 59.319 49.285
H 47.347 59.094 47.843
H 47.569 67.43 34.693
H 48.259 66.343 35.498
H 51.275 62.16 34.363
H 51.764 62.316 44.068
H 50.472 63.017 43.684
H 42.573 56.542 46.35
H 41.572 57.683 46.378
H 45.156 58.413 40.944
H 46.34 59.297 40.592
H 41.431 62.378 46.784
H 40.582 62.226 45.535
H 50.001 56.851 41.436
H 49.175 55.581 41.552
H 43.45 54.072 32.251
H 51.624 62.05 36.554
H 42.234 53.207 31.971
H 41.775 55.301 41.13
H 45.417 57.425 49.012
H 42.885 55.445 42.156
H 50.107 62.084 36.498
H 43.471 54.553 34.484
H 44.172 55.9 34.478
H 45.181 52.905 33.346
H 45.892 54.185 32.94
H 45.809 55.929 29.748
H 46.826 55.191 30.601
H 51.609 64.733 40.483
H 51.324 65.669 39.322
H 44.837 59.828 32.121
H 46.297 59.453 32.307
H 44.73 61.839 40.898
H 46.097 62.501 40.882
H 41.26 56.066 39.016
H 54.034 64.341 38.456
H 54.544 65.634 39.068
H 47.59 54.415 34.97
H 46.692 53.277 35.423
H 51.855 62.024 39.248
H 53.33 61.77 39.504
H 44.008 51.868 31.552
H 43.773 58.237 34.915
H 45.09 58.034 34.185
H 48.701 63.202 40.938
H 49.857 63.923 41.608
H 44.395 68.569 47.602
H 44.136 67.75 42.563
H 45.271 66.769 42.8
H 47.557 52.831 33.426
H 49.01 52.39 33.416
H 48.35 58.456 40.9
H 47.607 57.156 40.645
H 42.603 61.857 43.954
H 50.988 60.171 45.582
H 50.376 58.82 45.253
H 41.232 61.384 43.503
H 47.758 64.65 39.215
H 49.086 65.387 39.208
H 47.114 67.989 39.419
H 38.918 57.525 44.417
H 48.326 63.327 44.11
H 48.61 64.737 43.624
H 42.414 56.625 36.483
H 42.009 55.17 36.325
H 46.141 66.848 39.179
H 53.739 67.569 40.814
H 50.985 55.7 35.311
H 44.719 54.05 30.095
H 38.457 60.378 43.328
H 37.718 60.51 42.008
H 46.335 65.206 44.08
H 46.427 64.417 45.374
H 44.485 62.926 47.161
H 43.398 62.237 47.968
H 53.476 58.957 38.574
H 47.015 57.312 32.772
H 45.985 56.297 32.307
H 47.774 66.54 47.174
H 48.05 65.095 46.796
H 43.6 64.392 40.637
H 45.06 64.441 41.052
H 53.358 59.364 41.048
H 52.204 60.274 40.668
H 45.461 57.822 44.457
H 46.027 58.744 45.522
H 46.034 56.171 46.776
H 47.543 56.256 46.922
H 37.64 65.231 40.564
H 38.902 64.849 41.317
H 40.753 58.258 36.405
H 43.921 65.695 44.165
H 44.978 65.415 46.708
H 45.549 66.643 46.023
H 51.911 57.313 36.485
H 52.664 58.63 36.555
H 48.614 59.083 37.436
H 47.679 60.212 37.833
H 50.535 54.855 32.847
H 50.379 53.98 34.078
H 42.936 65.206 35.786
H 43.246 64.447 37.064
H 43.836 65.591 48.991
H 43.006 64.358 48.685
H 42.962 63.672 45.304
H 41.921 64.593 45.916
H 47.494 51.871 39.896
H 48.536 52.391 38.921
H 48.721 56.157 31.944
H 48.452 54.663 31.989
H 45.905 61.889 38.775
H 44.918 62.398 37.739
H 52.026 58.747 43.799
H 52.441 60.202 43.931
H 50.611 65.296 37.137
H 39.896 60.674 37.088
H 51.193 58.913 39.263
H 51.533 57.691 40.098
H 45.575 69.5 38.064
H 45.734 58.568 38.186
H 47.12 56.892 38.516
H 45.99 55.892 38.693
H 44.485 59.432 38.177
H 46.243 58.371 30.251
H 47.538 57.601 30.065
H 51.6 64.044 35.623
H 48.293 66.398 45.037
H 49.639 65.821 45.439
H 42.178 64.157 38.975
H 41.138 64.938 38.191
H 46.187 61.091 47.524
H 46.813 62.401 47.075
H 42.414 55.966 33.156
H 41.198 55.213 32.645
H 39.742 57.22 42.38
H 38.917 58.133 41.49
H 42.162 62.267 36.198
H 42.698 62.388 37.614
H 46.469 61.675 32.748
H 48.746 55.252 36.686
H 49.016 53.993 37.491
H 47.853 51.308 36.61
H 43.184 60.036 47.754
H 44.416 59.227 48.119
H 50.095 60.603 33.261
H 48.217 58.876 44.774
H 48.025 60.122 45.621
H 48.974 60.57 39.575
H 47.761 61.126 40.299
H 46.56 62.143 44.787
H 45.618 62.604 43.689
H 50.027 61.291 42.24
H 49.718 59.836 41.935
H 46.714 66.132 41.267
H 48.122 66.68 41.421
H 50.638 59.48 36.671
H 50.617 60.265 35.372
H 51.796 53.884 40.799
H 40.945 64.153 41.756
H 42.299 64.294 42.43
H 47.246 63.437 37.45
H 47.825 64.771 37.015
H 43.077 66.458 47.116
H 40.453 60.436 34.316
H 46.015 52.735 31.29
H 46.391 51.511 32.108
H 46.869 54.091 40.701
H 48.17 54.41 39.984
H 48.028 63.81 33.762
H 47.103 64.85 34.368
H 45.184 62.696 49.593
H 44.458 63.29 50.787
H 42.647 54.285 38.764
H 43.509 55.471 38.366
H 38.211 59.964 39.769
H 44.456 52.035 38.25
H 44.765 53.072 39.316
H 39.8 60.892 41.021
H 39.726 62.388 41.27
H 46.03 61.192 34.875
H 46.45 62.488 35.548
H 47.668 61.693 42.543
H 48.002 61.901 49.096
H 49.093 60.849 48.992
H 47.443 60.215 42.276
H 41.793 60.139 40.475
H 43.312 60.15 40.469
H 52.864 66.723 38.157
H 51.924 67.895 37.935
H 43.898 56.461 31.578
H 44.254 57.898 31.239
H 44.494 62.86 33.688
H 44.554 63.598 35.014
H 43.953 59.514 45.723
H 43.284 58.593 44.717
H 45.669 53.765 37.434
H 45.086 55.048 36.869
H 42.582 58.294 41.531
H 41.189 58.081 40.964
H 43.392 60.348 35.645
H 42.917 59.302 36.639
H 48.373 67.045 37.882
H 46.852 69.057 41.337
H 48.205 69.381 40.728
H 42.022 60.569 45.68
H 40.637 59.988 45.909
