237
xyz format
Na 46.336 56.344 34.969
O 44.251 57.008 30.865
O 55.09 53.194 37.529
O 54.453 56.755 39.842
O 54.774 50.098 37.186
O 45.733 48.509 31.953
O 42.55 60.666 40.761
O 45.023 54.088 36.793
O 48.66 49.362 33.595
O 41.677 58.091 41.798
O 42.6 59.874 35.929
O 52.703 53.557 40.845
O 52.563 51.837 35.898
O 50.118 59.605 35.868
O 50.579 51.258 36.654
O 44.851 52.129 39.126
O 46.047 61.631 35.735
O 53.649 54.883 36.971
O 48.723 61.078 40.356
O 50.45 60.463 41.983
O 50.403 59.846 32.747
O 39.394 58.119 42.329
O 41.971 55.703 32.339
O 48.924 50.386 40.746
O 47.059 58.37 29.734
O 46.576 56.266 38.022
O 49.874 57.374 30.519
O 48.387 53.642 30.03
O 48.247 55.485 32.451
O 45.453 62.692 38.486
O 50.964 58.471 40.09
O 49.969 54.723 33.618
O 41.915 55.924 36.92
O 53.237 47.776 37.279
O 40.227 57.338 34.477
O 47.869 57.755 41.356
O 40.535 57.907 37.278
O 51.207 52.913 38.078
O 51.116 50.463 33.315
O 49.416 51.428 30.997
O 52.165 58.072 35.945
O 52.399 54.986 31.057
O 49.677 47.318 35.392
O 45.506 59.699 32.804
O 48.706 59.716 30.628
O 49.989 55.99 41.873
O 50.844 62.099 37.121
O 39.748 54.056 36.206
O 51.132 54.952 35.903
O 46.113 50.098 34.367
O 44.15 58.19 34.028
O 44.267 51.138 30.976
O 46.923 54.191 35.632
O 48.282 52.62 32.825
O 40.455 55.642 38.693
O 45.346 46.34 35.392
O 47.394 50.357 29.947
O 46.539 55.3 29.686
O 42.724 55.002 30.394
O 42.843 53.455 32.678
O 43.822 55.229 35.077
O 51.229 50.341 30.39
O 45.371 53.799 33.656
O 55.716 50.3 33.078
O 51.325 55.259 43.721
O 54.064 53.309 35.06
O 51.332 56.014 38.196
O 47.91 51.668 39.049
O 38.37 58.492 36.904
O 41.215 52.032 41.657
O 37.669 56.619 40.494
O 47.96 60.817 42.826
O 50.148 46.313 31.866
O 53.613 47.024 33.713
O 46.129 57.247 32.393
O 49.132 54.37 36.61
O 38.862 54.0 40.963
O 48.047 50.59 35.994
O 48.454 60.024 37.289
O 52.253 49.144 35.857
O 43.431 54.516 38.25
O 47.215 54.53 39.914
O 41.942 55.608 42.03
O 45.643 59.188 41.251
O 42.973 49.986 33.639
O 52.591 52.933 32.31
O 46.348 51.833 31.199
O 41.843 53.022 34.695
O 45.127 59.031 38.776
O 51.804 48.349 33.324
H 51.685 56.05 43.3
H 51.284 54.616 43.003
H 41.15 53.047 34.023
H 50.568 56.014 38.786
H 52.087 56.004 38.798
H 53.645 53.367 34.192
H 54.824 52.733 34.909
H 41.722 52.163 35.118
H 51.777 51.145 33.489
H 50.373 50.713 33.879
H 51.686 52.916 31.975
H 55.17 50.68 33.778
H 53.099 52.483 31.624
H 43.141 50.784 34.155
H 43.441 50.145 32.81
H 45.156 58.413 40.944
H 46.34 59.297 40.592
H 51.33 49.833 31.204
H 51.625 51.195 30.602
H 50.001 56.851 41.436
H 49.175 55.581 41.552
H 43.45 54.072 32.251
H 45.915 49.214 34.7
H 42.234 53.207 31.971
H 45.49 50.214 33.639
H 41.775 55.301 41.13
H 42.885 55.445 42.156
H 50.107 62.084 36.498
H 43.471 54.553 34.484
H 44.172 55.9 34.478
H 45.181 52.905 33.346
H 45.892 54.185 32.94
H 45.809 55.929 29.748
H 46.826 55.191 30.601
H 44.837 59.828 32.121
H 46.297 59.453 32.307
H 39.747 56.148 39.11
H 41.26 56.066 39.016
H 47.59 54.415 34.97
H 46.692 53.277 35.423
H 44.008 51.868 31.552
H 43.773 58.237 34.915
H 45.09 58.034 34.185
H 50.528 47.547 34.998
H 49.212 46.859 34.682
H 47.557 52.831 33.426
H 49.01 52.39 33.416
H 45.204 47.131 34.858
H 48.35 58.456 40.9
H 47.607 57.156 40.645
H 53.916 47.26 37.731
H 52.753 48.198 38.0
H 42.414 56.625 36.483
H 42.009 55.17 36.325
H 40.204 53.212 36.315
H 40.143 54.429 35.408
H 51.963 54.573 35.591
H 50.985 55.7 35.311
H 44.719 54.05 30.095
H 39.43 54.596 41.467
H 38.871 54.372 40.072
H 47.015 57.312 32.772
H 45.985 56.297 32.307
H 50.743 52.927 38.925
H 51.204 53.837 37.8
H 40.753 58.258 36.405
H 40.057 57.091 37.085
H 51.911 57.313 36.485
H 52.664 58.63 36.555
H 53.664 46.791 34.649
H 53.004 46.37 33.347
H 49.718 52.325 31.185
H 49.549 50.962 31.832
H 48.614 59.083 37.436
H 47.679 60.212 37.833
H 50.535 54.855 32.847
H 50.379 53.98 34.078
H 51.576 49.466 35.249
H 52.97 48.864 35.275
H 47.494 51.871 39.896
H 48.536 52.391 38.921
H 48.721 56.157 31.944
H 48.452 54.663 31.989
H 45.905 61.889 38.775
H 49.386 46.896 31.974
H 37.038 57.05 41.084
H 37.423 56.942 39.619
H 51.193 58.913 39.263
H 51.533 57.691 40.098
H 50.371 58.184 30.353
H 45.734 58.568 38.186
H 47.12 56.892 38.516
H 45.99 55.892 38.693
H 44.485 59.432 38.177
H 46.243 58.371 30.251
H 47.538 57.601 30.065
H 50.981 48.114 32.878
H 52.423 48.501 32.599
H 49.862 50.579 40.627
H 48.836 50.254 41.698
H 42.414 55.966 33.156
H 39.742 57.22 42.38
H 48.591 54.439 29.524
H 47.55 53.341 29.656
H 48.746 55.252 36.686
H 49.016 53.993 37.491
H 47.368 49.932 36.188
H 47.853 51.308 36.61
H 48.974 60.57 39.575
H 49.718 59.836 41.935
H 50.638 59.48 36.671
H 50.617 60.265 35.372
H 53.073 53.784 39.983
H 51.796 53.884 40.799
H 53.422 55.817 37.055
H 53.335 54.495 37.797
H 46.015 52.735 31.29
H 46.391 51.511 32.108
H 46.869 54.091 40.701
H 48.17 54.41 39.984
H 47.823 49.939 30.703
H 53.13 51.332 35.302
H 52.026 52.374 35.303
H 42.647 54.285 38.764
H 43.509 55.471 38.366
H 44.456 52.035 38.25
H 44.765 53.072 39.316
H 50.252 50.801 37.439
H 49.947 51.977 36.528
H 46.03 61.192 34.875
H 47.443 60.215 42.276
H 43.312 60.15 40.469
H 43.898 56.461 31.578
H 44.254 57.898 31.239
H 45.669 53.765 37.434
H 45.086 55.048 36.869
H 42.582 58.294 41.531
H 41.189 58.081 40.964
H 43.392 60.348 35.645
H 42.917 59.302 36.639
H 48.41 48.755 32.888
H 48.244 48.985 34.38
H 54.451 52.605 37.109
H 55.042 49.189 37.006
H 53.813 50.075 37.102
H 45.723 49.277 31.369
H 46.085 47.803 31.397
