241
xyz format
O 60.146 56.875 53.159
O 44.149 52.899 62.931
O 60.162 52.561 56.899
O 57.597 59.338 57.539
O 42.265 46.72 56.738
O 46.844 56.48 58.52
O 60.978 55.528 51.632
O 61.105 52.787 51.826
O 60.501 53.232 54.83
O 45.175 46.409 58.733
O 46.415 52.829 62.418
O 51.057 59.988 54.169
O 57.117 55.963 54.17
O 47.762 55.844 60.986
O 45.974 59.007 58.176
O 41.833 52.719 51.41
O 62.17 49.53 59.563
O 42.942 56.44 51.365
O 45.5 48.538 60.796
O 50.958 56.351 60.074
O 52.694 49.535 41.485
O 39.74 52.968 53.647
O 48.031 50.506 62.418
O 59.466 47.215 55.924
O 51.679 51.593 41.681
O 43.843 52.176 57.88
O 60.47 49.471 55.962
O 56.304 59.22 52.234
O 58.759 48.506 59.928
O 59.33 50.382 58.828
O 59.674 56.015 57.758
O 58.17 54.604 49.893
O 58.229 57.499 51.061
O 46.363 47.688 49.017
O 52.478 58.49 52.256
O 49.045 58.845 54.698
O 49.471 54.415 62.271
O 56.192 54.099 51.455
O 62.904 52.514 55.401
O 46.112 51.616 64.297
O 58.612 58.491 55.769
O 44.262 48.825 56.84
O 48.554 51.544 42.45
O 49.286 50.822 51.315
O 48.062 49.495 54.971
O 51.909 51.365 55.163
O 50.686 49.697 48.558
O 49.172 45.68 46.848
O 53.301 46.819 47.257
O 53.93 51.905 51.539
O 48.851 49.071 45.41
O 50.19 53.992 53.244
N 47.582 49.311 51.473
N 51.761 52.453 51.079
N 51.782 48.251 46.32
N 47.255 47.449 45.656
N 47.151 45.013 48.815
N 50.123 52.271 56.216
N 52.84 50.036 49.228
N 47.749 49.355 48.296
N 52.353 53.934 53.978
N 54.45 50.646 53.996
N 48.411 51.553 54.037
N 50.479 46.045 45.037
C 51.406 53.938 52.972
C 51.894 53.827 51.502
C 51.361 54.801 49.194
C 53.356 49.113 51.453
C 45.26 44.81 45.927
C 51.055 54.819 50.684
C 52.271 46.074 43.432
C 52.893 51.882 46.466
C 50.756 46.292 43.628
C 51.898 49.739 48.263
C 54.053 49.22 53.886
C 52.145 50.677 45.935
C 51.942 53.806 55.355
C 51.714 45.782 45.77
C 49.254 46.025 45.639
C 54.285 53.274 56.25
C 52.523 50.115 50.631
C 52.312 46.996 46.517
C 52.916 48.985 52.897
C 52.735 45.346 44.69
C 50.386 53.922 48.435
C 45.238 42.808 47.286
C 52.571 50.405 44.506
C 47.172 45.301 44.376
C 47.138 43.291 45.869
C 51.302 56.212 48.639
C 53.052 54.098 56.375
C 52.412 49.441 46.828
C 48.205 50.485 51.84
C 47.358 48.43 49.217
C 56.517 52.946 55.359
C 47.085 51.016 46.603
C 47.799 48.687 45.956
C 47.076 49.542 47.028
C 46.197 52.397 51.069
C 46.353 51.272 45.295
C 46.467 52.748 44.96
C 52.791 51.562 51.129
C 55.33 53.677 55.408
C 48.957 45.954 50.29
C 47.511 51.339 52.935
C 48.149 44.729 49.876
C 54.453 52.135 57.049
C 48.427 51.155 57.474
C 47.032 52.668 52.302
C 48.124 52.651 57.501
C 49.413 50.996 56.292
C 44.896 50.866 45.352
C 51.331 52.398 55.595
C 55.642 51.408 57.001
C 48.154 46.94 51.113
C 48.16 48.371 50.547
C 48.588 50.626 55.037
C 47.997 46.502 44.861
C 56.677 51.811 56.155
C 46.223 53.463 53.307
C 49.365 53.325 56.879
H 61.204 50.048 56.208
H 60.173 49.827 55.115
H 59.773 47.548 56.777
H 52.862 54.848 43.828
H 58.446 49.198 60.524
H 58.586 50.087 58.288
H 60.056 50.457 58.196
H 53.171 58.909 51.73
H 51.71 58.497 51.671
H 58.999 56.021 57.068
H 51.127 54.581 55.525
H 48.931 50.837 58.421
H 47.517 50.526 57.331
H 49.06 54.111 56.133
H 51.494 56.201 47.539
H 47.62 45.375 47.967
H 47.936 53.024 58.534
H 53.529 49.255 46.86
H 49.811 45.563 50.91
H 50.641 53.926 47.347
H 49.343 54.303 48.555
H 50.145 50.156 56.452
H 55.236 54.601 54.815
H 52.985 54.119 51.425
H 46.634 44.163 48.564
H 55.216 50.759 54.669
H 57.346 53.289 54.718
H 49.964 54.621 50.859
H 50.852 52.155 50.786
H 53.315 53.824 53.762
H 57.63 51.259 56.147
H 47.593 44.314 50.765
H 51.278 55.837 51.105
H 53.648 51.217 54.314
H 50.906 48.382 45.863
H 52.605 53.958 57.397
H 48.851 43.939 49.48
H 48.577 49.893 48.452
H 46.003 49.2 47.141
H 46.609 51.625 47.418
H 48.15 51.357 46.487
H 46.863 50.678 44.484
H 51.419 49.877 50.77
H 48.594 46.979 52.149
H 52.788 47.064 43.347
H 47.86 44.657 43.762
H 54.748 50.997 53.073
H 55.778 50.537 57.663
H 50.418 52.866 48.792
H 53.331 55.185 56.28
H 52.07 56.86 49.126
H 49.998 53.803 57.675
H 50.294 56.66 48.817
H 47.22 52.871 56.877
H 44.382 51.166 44.406
H 44.378 51.365 46.206
H 52.402 54.402 49.034
H 52.65 48.571 41.51
H 52.362 49.757 40.606
H 54.965 48.635 53.574
H 47.539 53.054 44.901
H 48.795 50.953 62.032
H 49.235 48.678 50.337
H 46.605 50.784 53.329
H 53.259 48.104 50.963
H 48.927 52.406 54.021
H 54.439 49.401 51.389
H 52.051 49.664 53.13
H 49.412 46.442 49.385
H 53.804 50.032 48.986
H 52.442 51.33 43.891
H 51.955 49.598 44.042
H 53.645 50.102 44.466
H 52.726 52.754 45.787
H 53.991 51.68 46.508
H 52.561 47.933 53.083
H 46.828 53.709 54.212
H 45.319 52.89 53.627
H 45.816 53.364 50.657
H 46.803 51.894 50.278
H 46.759 49.024 51.951
H 45.886 54.423 52.845
H 47.941 53.268 52.003
H 45.964 53.365 45.744
H 48.342 47.059 43.932
H 46.477 47.113 46.174
H 45.981 52.96 43.978
H 45.319 51.753 51.316
H 51.038 50.892 45.952
H 53.652 51.827 57.739
H 52.533 52.166 47.484
H 50.005 56.303 59.927
H 47.091 46.597 51.226
H 46.373 45.688 43.682
H 53.777 45.608 44.989
H 50.467 47.345 43.355
H 50.166 45.575 42.994
H 46.49 45.733 49.144
H 53.728 48.878 54.911
H 52.479 45.488 42.506
H 51.541 44.983 46.545
H 52.675 44.237 44.551
H 56.624 53.422 50.92
H 56.238 54.891 50.904
H 48.646 54.008 61.978
H 42.578 52.395 50.888
H 57.99 56.25 53.877
H 56.521 56.322 53.5
H 45.173 49.135 56.91
H 61.178 53.08 54.159
H 59.673 53.192 54.335
H 46.909 52.291 61.787
H 46.466 53.72 62.05
H 53.64 48.488 39.344
H 51.01 52.108 42.149
H 60.374 53.416 51.788
H 60.183 56.096 53.729
H 45.988 56.249 58.903
H 47.384 55.696 58.678
H 60.046 53.517 56.965
