164
xyz format
O 32.33 43.493 36.27
O 43.478 37.536 32.884
O 42.524 34.909 32.465
O 39.522 44.361 34.858
O 39.314 31.651 33.129
O 34.648 36.102 33.564
O 32.586 46.087 34.72
O 35.646 45.563 28.761
O 40.376 33.695 31.332
O 41.313 35.804 27.555
O 35.8 40.266 38.185
O 37.329 43.272 36.635
O 36.424 39.783 33.249
O 31.622 39.946 31.332
O 38.961 38.536 35.998
O 37.747 40.213 34.957
O 34.715 43.491 26.406
O 29.983 43.413 31.089
O 31.358 39.252 36.585
O 31.487 44.811 29.285
O 38.904 37.534 26.455
O 41.526 35.03 30.015
O 35.692 41.76 34.177
O 31.269 44.941 32.984
O 35.142 40.518 27.148
O 35.47 37.49 31.572
O 34.058 37.958 34.719
O 43.138 32.651 34.92
O 33.06 37.526 31.225
O 39.744 33.042 36.293
O 38.41 35.733 29.344
O 34.695 40.461 31.599
O 38.483 38.741 32.313
O 39.485 34.394 34.115
O 36.516 44.034 34.174
O 37.816 35.908 32.996
O 37.055 42.936 31.153
O 34.693 38.832 29.193
O 33.187 42.709 33.562
O 40.877 36.138 36.382
O 34.922 43.384 29.488
O 43.35 36.09 35.489
O 34.01 39.061 36.96
O 35.6 37.071 36.932
O 33.465 40.527 35.041
O 33.293 43.719 31.61
O 28.235 43.314 33.495
O 30.272 42.39 37.595
O 32.083 36.132 34.879
O 35.865 45.491 31.816
O 37.132 45.325 27.148
O 39.405 45.462 29.705
O 37.144 31.56 33.516
O 40.099 40.717 33.761
O 37.667 39.729 27.141
O 38.443 43.813 32.62
O 33.145 46.774 29.52
O 40.063 36.819 33.649
O 36.37 37.072 29.131
O 40.67 37.559 30.971
H 35.114 45.976 31.453
H 36.352 45.204 31.034
H 37.55 44.88 27.896
H 37.294 44.729 26.406
H 40.265 34.53 34.667
H 32.388 36.743 35.561
H 31.134 36.3 34.827
H 38.77 34.277 34.753
H 36.187 37.673 36.456
H 35.808 37.235 37.86
H 32.933 44.123 30.811
H 34.227 43.963 31.59
H 40.498 38.324 31.534
H 40.862 36.851 31.598
H 33.732 40.652 34.122
H 32.668 41.065 35.123
H 34.199 43.833 29.034
H 34.758 42.449 29.313
H 42.577 35.751 35.021
H 33.569 38.245 37.226
H 33.398 39.754 37.237
H 41.517 36.814 36.638
H 40.701 35.665 37.204
H 32.577 43.399 33.85
H 34.055 43.126 33.635
H 40.661 37.531 33.908
H 39.586 36.613 34.463
H 37.532 43.206 30.359
H 36.363 42.352 30.818
H 42.51 33.367 35.077
H 33.14 36.765 31.814
H 32.962 38.273 31.829
H 37.057 36.497 32.899
H 38.16 35.827 32.098
H 35.723 44.247 34.681
H 36.182 43.88 33.281
H 39.473 33.244 37.197
H 40.704 33.139 36.314
H 39.101 43.692 31.924
H 35.446 39.414 29.031
H 38.05 44.671 32.418
H 28.045 43.861 32.723
H 28.597 42.503 33.117
H 33.928 39.408 29.075
H 38.02 39.546 26.261
H 38.343 38.266 33.141
H 38.145 38.135 31.641
H 34.73 40.704 30.665
H 34.552 41.302 32.05
H 36.88 39.171 27.193
H 38.656 36.467 29.921
H 37.993 35.101 29.942
H 33.766 38.329 33.877
H 34.802 38.519 34.971
H 35.165 36.814 30.954
H 35.782 38.201 30.998
H 33.493 47.104 28.682
H 33.412 45.846 29.53
H 40.581 40.135 33.16
H 39.691 41.366 33.174
H 37.19 32.523 33.46
H 35.545 41.218 26.618
H 34.408 40.961 27.592
H 31.727 45.315 32.221
H 30.351 44.878 32.692
H 40.912 35.712 29.717
H 35.667 41.239 34.99
H 36.634 41.845 33.988
H 30.813 38.465 36.704
H 31.253 39.464 35.649
H 31.178 45.424 28.606
H 31.138 45.183 30.105
H 38.265 37.461 27.175
H 39.497 36.785 26.597
H 29.484 42.587 31.105
H 29.357 44.053 30.729
H 34.079 43.049 26.982
H 35.383 43.826 27.017
H 36.961 37.803 28.913
H 36.513 36.439 28.417
H 38.388 40.667 35.518
H 37.176 39.754 35.585
H 38.465 37.708 36.006
H 39.879 38.252 35.902
H 35.35 40.742 37.476
H 37.16 42.566 35.999
H 35.811 39.058 33.079
H 36.715 40.05 32.368
H 39.546 33.842 30.861
H 35.111 45.781 27.987
H 35.562 46.342 29.325
H 42.632 37.071 32.887
H 35.068 35.663 34.314
H 34.99 35.625 32.798
H 33.304 45.87 34.112
H 39.104 32.258 32.408
H 39.691 32.224 33.809
H 41.649 36.45 26.922
H 40.895 35.134 27.0
H 41.649 34.701 32.818
H 31.619 40.824 30.931
H 30.721 39.628 31.194
H 32.307 43.099 37.15
H 32.673 44.382 36.425
