361
xyz format
Cl 39.106 49.969 60.184
O 48.289 54.675 60.198
O 40.501 62.894 63.585
O 42.041 62.691 62.027
O 47.424 54.104 66.271
O 40.864 56.219 58.793
O 49.199 54.548 65.05
O 48.067 51.742 61.864
O 45.343 58.568 57.018
O 50.429 46.887 61.906
O 49.235 60.47 57.866
O 39.93 54.031 60.539
O 51.694 59.22 57.721
O 44.439 61.737 54.351
O 39.375 60.307 55.966
O 43.637 63.062 63.495
O 46.699 55.348 70.014
O 38.696 57.437 57.182
O 48.289 51.398 67.62
O 43.983 64.926 61.101
O 45.731 53.856 60.759
O 37.775 60.29 59.145
O 43.274 49.346 66.01
O 42.458 57.269 53.963
O 42.547 54.312 57.931
O 44.804 60.501 60.742
O 47.298 56.666 66.583
O 47.926 61.005 61.121
O 42.424 48.02 61.262
O 51.724 53.542 64.725
O 37.778 52.699 61.682
O 42.588 50.596 60.018
O 50.654 50.674 67.209
O 43.318 58.978 68.133
O 49.581 59.632 54.869
O 43.351 53.627 60.992
O 49.944 52.038 65.237
O 44.582 51.93 66.294
O 42.331 51.399 63.601
O 44.901 48.673 62.946
O 42.532 51.14 70.219
O 41.727 60.218 65.82
O 38.772 59.287 62.177
O 56.402 51.536 63.405
O 45.306 56.67 62.387
O 47.052 57.775 61.629
O 44.16 58.405 59.33
O 42.291 57.22 66.609
O 53.335 59.822 59.477
O 52.648 62.02 61.581
O 47.15 59.032 58.231
O 49.151 47.639 66.853
O 39.605 58.243 60.413
O 43.485 63.394 56.677
O 40.328 58.319 65.298
O 42.88 56.545 56.125
O 50.197 49.745 63.746
O 41.098 59.129 57.18
O 39.651 55.792 66.746
O 47.78 58.377 55.011
O 52.245 51.887 61.515
O 54.662 56.543 64.089
O 52.916 55.211 65.598
O 42.262 60.957 56.794
O 50.022 54.357 61.744
O 43.846 53.612 67.873
O 41.194 61.252 59.64
O 49.498 55.815 69.244
O 43.83 66.339 58.582
O 43.627 58.729 63.446
O 46.166 50.465 65.749
O 40.68 60.52 63.249
O 40.225 56.434 62.301
O 54.39 58.038 61.041
O 47.377 48.498 61.554
O 51.36 54.265 68.284
O 45.484 55.421 68.155
O 45.654 62.323 59.04
O 45.91 45.331 62.631
O 41.46 54.421 67.434
O 36.171 58.634 61.883
O 42.855 56.962 61.352
O 46.19 64.401 57.621
O 49.094 57.43 60.789
O 47.129 60.991 55.846
O 44.71 49.266 68.374
O 54.797 52.536 60.356
O 52.312 48.899 61.152
O 53.778 58.748 63.227
O 56.364 54.83 63.474
O 45.016 57.813 65.766
O 46.555 64.265 64.237
O 43.674 60.899 63.094
O 39.733 52.288 62.804
O 41.594 51.597 66.938
O 41.164 55.004 53.881
O 43.662 53.147 64.699
O 40.52 56.216 56.62
O 40.748 49.866 63.123
O 45.143 55.064 64.304
O 50.522 60.756 60.53
O 42.631 53.482 71.005
O 38.043 57.227 62.013
O 38.712 52.742 57.567
O 44.827 51.62 69.107
O 41.481 52.655 56.237
O 45.915 63.195 61.624
O 41.748 55.727 63.732
O 51.743 56.608 61.237
O 50.585 56.881 63.867
O 53.589 53.425 63.084
O 53.187 49.53 64.323
O 51.17 59.369 62.253
O 46.766 48.107 66.076
O 48.602 65.852 62.258
O 37.492 54.612 60.328
O 44.961 53.241 62.831
O 45.115 50.715 61.782
O 48.067 45.836 64.366
O 40.618 48.928 58.161
O 49.132 50.328 60.552
O 47.472 63.353 60.031
O 46.676 54.87 62.737
O 48.062 49.495 54.971
O 51.909 51.365 55.163
O 45.936 66.161 60.452
O 43.461 55.677 69.217
N 52.353 53.934 53.978
N 48.411 51.553 54.037
N 50.123 52.271 56.216
N 54.45 50.646 53.996
C 48.588 50.626 55.037
C 49.365 53.325 56.879
C 49.413 50.996 56.292
C 48.427 51.155 57.474
C 48.124 52.651 57.501
C 51.942 53.806 55.355
C 53.052 54.098 56.375
C 51.331 52.398 55.595
C 46.223 53.463 53.307
H 44.285 59.029 64.086
H 54.834 56.055 64.904
H 43.225 60.715 62.26
H 44.557 61.179 62.823
H 46.187 64.799 63.522
H 47.333 63.854 63.839
H 44.875 57.855 66.72
H 45.843 58.294 65.635
H 43.01 58.21 63.978
H 46.838 65.028 57.966
H 45.738 64.896 56.927
H 48.931 50.837 58.421
H 38.003 54.412 59.534
H 49.166 57.257 59.842
H 48.836 56.576 61.159
H 47.517 50.526 57.331
H 36.734 55.108 59.993
H 51.127 54.581 55.525
H 52.605 53.958 57.397
H 43.34 56.484 60.668
H 42.975 57.89 61.111
H 47.936 53.024 58.534
H 41.103 49.338 58.888
H 55.89 54.289 64.118
H 52.996 58.483 63.727
H 53.729 59.712 63.219
H 50.145 50.156 56.452
H 49.06 54.111 56.133
H 51.996 59.137 61.81
H 50.743 58.516 62.403
H 46.925 47.624 66.897
H 46.174 47.529 65.58
H 53.866 57.27 60.781
H 51.373 56.572 64.331
H 41.487 54.352 66.472
H 41.95 55.232 67.619
H 50.306 57.651 64.378
H 46.695 47.905 61.894
H 49.998 53.803 57.675
H 51.861 53.775 67.62
H 52.718 49.741 61.392
H 51.523 49.157 60.66
H 45.053 55.486 67.293
H 45.827 54.519 68.172
H 48.188 48.174 61.965
H 40.094 60.579 64.014
H 41.552 60.379 63.638
H 40.823 57.189 62.371
H 40.362 56.116 61.4
H 51.934 55.783 60.774
H 50.949 56.406 61.748
H 45.091 63.107 59.027
H 45.991 62.268 58.137
H 42.013 55.195 62.971
H 41.492 55.071 64.392
H 40.071 58.592 59.643
H 38.684 58.209 60.128
H 52.824 59.013 59.601
H 43.31 53.857 64.148
H 43.74 58.773 58.543
H 44.771 57.746 58.977
H 41.845 56.68 65.945
H 42.428 58.065 66.163
H 41.165 51.824 55.86
H 42.43 52.639 56.063
H 42.193 61.076 55.838
H 43.158 60.619 56.919
H 53.56 54.808 66.194
H 48.635 55.477 68.976
H 52.279 55.623 66.194
H 52.619 61.279 60.963
H 43.574 53.887 66.988
H 43.073 53.145 68.215
H 40.917 61.518 58.754
H 46.957 59.579 59.002
H 47.376 58.173 58.611
H 41.545 60.362 59.513
H 50.956 54.17 61.906
H 49.563 53.632 62.186
H 42.89 52.83 65.185
H 39.486 58.643 64.953
H 40.875 58.217 64.51
H 47.22 52.871 56.877
H 55.425 53.208 60.649
H 54.943 51.804 60.97
H 47.452 60.45 56.577
H 46.262 61.291 56.148
H 41.254 49.545 62.366
H 41.226 49.514 63.884
H 40.041 56.314 67.458
H 39.349 54.989 67.188
H 52.32 52.7 60.999
H 51.466 52.035 62.065
H 48.927 52.406 54.021
H 49.564 50.11 63.115
H 50.865 49.33 63.186
H 40.479 59.616 57.739
H 41.561 58.553 57.801
H 45.029 55.997 64.522
H 45.41 54.664 65.141
H 41.188 51.759 66.077
H 41.149 52.222 67.523
H 43.654 64.068 56.006
H 47.132 58.827 54.454
H 47.611 57.441 54.849
H 42.522 63.356 56.726
H 42.498 57.431 56.156
H 43.628 56.596 56.734
H 45.613 51.075 69.241
H 45.137 52.517 69.281
H 39.379 58.815 62.761
H 55.49 51.645 63.106
H 45.253 62.649 61.181
H 42.444 51.441 60.462
H 43.089 50.834 59.228
H 46.162 62.674 62.398
H 37.711 56.548 61.413
H 37.732 56.938 62.88
H 50.08 50.274 66.544
H 51.122 49.921 67.591
H 41.348 61.094 65.967
H 42.594 60.27 66.241
H 46.846 57.686 60.69
H 46.996 58.725 61.787
H 44.903 57.508 62.127
H 45.323 56.16 61.568
H 42.129 52.192 63.088
H 42.9 50.885 63.013
H 43.314 59.93 68.291
H 43.323 58.597 69.02
H 43.69 54.437 61.394
H 43.011 53.921 60.138
H 36.84 52.571 61.492
H 38.211 52.492 60.845
H 51.067 53.562 64.018
H 51.225 53.806 65.508
H 40.058 55.421 56.914
H 40.095 56.43 55.779
H 50.703 51.567 64.871
H 41.209 54.723 54.803
H 39.499 51.489 62.316
H 39.952 51.961 63.686
H 49.283 51.987 64.536
H 47.204 64.28 60.002
H 48.163 63.334 60.704
H 43.374 47.853 61.225
H 42.159 48.042 60.334
H 46.396 65.895 61.258
H 44.123 55.641 69.92
H 47.304 54.178 62.981
H 47.239 55.623 62.516
H 53.833 50.178 64.013
H 42.625 55.755 69.693
H 48.487 60.222 61.173
H 47.885 61.196 60.175
H 43.529 53.636 70.686
H 42.078 53.693 70.242
H 47.955 57.038 65.981
H 46.642 56.275 65.992
H 45.253 52.047 66.979
H 43.806 51.628 66.783
H 44.073 48.918 63.377
H 45.4 48.229 63.644
H 41.707 54.201 58.393
H 42.289 54.643 57.062
H 49.938 50.655 60.972
H 42.181 57.907 53.293
H 42.713 56.493 53.448
H 49.362 49.429 60.285
H 45.068 60.35 59.826
H 45.119 59.714 61.205
H 43.36 49.982 65.29
H 42.46 48.87 65.8
H 38.937 58.316 56.863
H 39.014 57.43 58.093
H 44.534 58.638 56.496
H 46.038 58.488 56.352
H 38.888 61.13 56.094
H 39.854 60.451 55.14
H 44.26 61.605 55.29
H 46.543 54.758 70.762
H 46.909 56.194 70.429
H 53.197 52.59 63.37
H 45.257 53.927 59.921
H 45.879 52.908 60.86
H 53.735 53.905 63.909
H 47.347 51.462 67.82
H 48.339 51.613 66.68
H 43.779 65.785 60.71
H 43.833 64.304 60.378
H 46.569 45.711 62.036
H 45.851 49.843 65.082
H 46.756 51.05 65.257
H 51.519 60.08 58.123
H 48.838 61.286 58.194
H 49.155 59.86 58.61
H 51.159 47.028 61.29
H 49.683 46.669 61.333
H 39.677 54.028 61.471
H 40.867 53.801 60.555
H 50.577 61.345 59.767
H 50.717 59.885 60.162
H 45.632 52.801 63.368
H 44.301 52.553 62.681
H 49.091 54.498 59.69
H 48.068 53.818 60.583
H 47.852 51.612 62.796
H 47.324 51.338 61.399
H 49.159 54.654 64.091
H 49.361 55.443 65.373
H 45.528 49.99 61.297
H 45.596 50.734 62.619
H 41.295 62.258 61.594
H 42.739 62.665 61.361
H 43.897 62.704 64.353
H 44.218 63.824 63.379
H 48.189 64.985 62.158
H 47.002 53.359 66.717
H 47.867 54.578 66.986
H 40.083 55.86 59.234
H 41.464 56.423 59.521
