54
xyz format
O 35.157 26.844 52.851
O 33.466 28.099 53.863
O 34.633 35.421 54.0
O 35.382 34.223 58.415
O 34.495 31.565 59.76
O 36.863 27.526 57.835
O 38.103 30.039 55.727
O 36.116 32.709 54.784
O 33.464 31.615 55.099
O 36.3 32.58 61.624
O 32.216 30.69 52.555
O 36.704 32.63 52.673
O 37.609 25.714 51.631
O 36.324 31.597 57.694
O 38.327 32.878 54.35
O 35.27 29.077 56.845
O 32.852 29.488 55.893
O 36.833 30.582 59.644
H 35.571 31.726 57.103
H 37.068 31.469 57.093
H 35.766 32.422 52.588
H 36.9 34.637 55.498
H 36.225 31.774 54.999
H 35.345 32.975 55.3
H 38.648 32.328 55.075
H 30.72 31.37 50.101
H 37.219 26.359 52.234
H 33.629 33.051 52.158
H 32.004 34.121 57.009
H 34.017 31.524 54.313
H 32.973 32.431 54.941
H 35.544 29.726 56.185
H 35.191 28.257 56.341
H 38.217 29.638 56.598
H 37.103 29.969 58.949
H 37.628 31.106 59.808
H 37.779 28.089 60.16
H 36.039 27.362 49.962
H 36.299 27.977 58.476
H 34.609 31.035 58.962
H 34.044 30.967 60.37
H 35.134 25.913 53.103
H 34.429 26.929 52.222
H 35.952 33.788 57.769
H 34.517 34.233 57.987
H 31.359 30.875 52.151
H 32.794 30.526 51.8
H 32.861 28.632 56.338
H 32.815 30.124 56.618
H 33.991 34.969 54.562
H 35.22 35.859 54.628
H 32.693 27.753 54.328
H 33.122 28.865 53.387
H 31.595 34.784 54.347
