469
xyz format
Cl 39.106 49.969 60.184
Cl 31.247 50.946 48.398
Na 35.918 45.033 51.34
Na 36.045 52.744 54.029
O 47.762 42.709 62.717
O 34.03 51.908 48.431
O 48.289 54.675 60.198
O 45.322 43.488 68.492
O 47.424 54.104 66.271
O 40.864 56.219 58.793
O 39.645 51.124 52.771
O 41.066 44.348 67.211
O 35.549 49.602 66.684
O 31.718 50.328 50.467
O 33.544 49.568 62.046
O 42.228 51.872 52.946
O 41.814 46.814 68.166
O 39.204 41.383 60.672
O 32.848 56.56 52.79
O 40.079 48.43 70.027
O 49.199 54.548 65.05
O 48.067 51.742 61.864
O 34.482 52.566 66.49
O 39.083 52.778 54.927
O 35.998 54.064 51.222
O 38.11 53.8 52.342
O 38.685 57.888 54.719
O 50.429 46.887 61.906
O 39.93 54.031 60.539
O 44.69 45.659 69.211
O 45.201 45.167 57.601
O 36.115 47.947 57.122
O 40.764 50.231 68.466
O 40.484 46.959 63.032
O 38.696 57.437 57.182
O 48.289 51.398 67.62
O 45.731 53.856 60.759
O 34.983 47.227 55.413
O 50.58 46.217 65.016
O 43.274 49.346 66.01
O 42.547 54.312 57.931
O 32.823 52.029 52.37
O 47.298 56.666 66.583
O 37.448 52.083 65.074
O 36.8 43.442 66.413
O 38.212 46.403 67.42
O 31.547 56.696 55.17
O 42.424 48.02 61.262
O 33.453 54.701 51.781
O 37.778 52.699 61.682
O 42.588 50.596 60.018
O 50.654 50.674 67.209
O 36.04 57.475 57.67
O 35.803 57.681 53.654
O 32.256 46.71 56.603
O 43.351 53.627 60.992
O 49.944 52.038 65.237
O 35.473 47.645 62.085
O 36.313 55.225 62.82
O 34.184 48.452 59.501
O 44.582 51.93 66.294
O 35.825 45.508 61.706
O 42.721 45.412 66.232
O 42.331 51.399 63.601
O 35.24 43.816 64.776
O 35.956 53.697 65.118
O 44.901 48.673 62.946
O 42.532 51.14 70.219
O 36.399 47.621 52.922
O 41.643 43.515 61.298
O 39.372 47.593 53.489
O 39.298 50.135 64.821
O 45.306 56.67 62.387
O 47.052 57.775 61.629
O 45.389 47.891 56.965
O 37.791 47.788 64.487
O 41.03 51.908 71.811
O 42.291 57.22 66.609
O 50.409 44.516 61.86
O 49.151 47.639 66.853
O 45.084 44.18 65.307
O 39.839 44.713 60.639
O 40.293 57.193 52.427
O 36.973 43.195 62.621
O 50.197 49.745 63.746
O 32.96 47.145 64.291
O 39.651 55.792 66.746
O 36.032 56.502 49.186
O 38.01 56.638 51.62
O 35.494 46.774 64.889
O 52.245 51.887 61.515
O 36.959 55.005 57.413
O 38.568 53.967 50.198
O 35.002 50.37 53.825
O 33.74 53.775 62.964
O 39.239 49.041 51.133
O 54.503 48.568 61.921
O 32.846 50.038 56.493
O 41.008 43.753 65.09
O 50.022 54.357 61.744
O 43.846 53.612 67.873
O 38.094 50.989 49.754
O 47.252 42.258 65.355
O 50.44 45.634 58.702
O 44.837 41.826 64.612
O 40.461 51.484 50.229
O 43.627 58.729 63.446
O 34.066 53.885 49.408
O 46.166 50.465 65.749
O 34.119 50.603 65.335
O 36.277 45.16 58.973
O 40.225 56.434 62.301
O 47.377 48.498 61.554
O 45.484 55.421 68.155
O 30.955 54.379 56.495
O 45.91 45.331 62.631
O 35.656 53.484 58.677
O 41.46 54.421 67.434
O 37.91 49.795 57.98
O 42.855 56.962 61.352
O 36.446 54.914 54.061
O 42.871 48.179 72.138
O 36.941 52.18 56.464
O 42.267 41.582 63.243
O 49.094 57.43 60.789
O 44.71 49.266 68.374
O 30.695 53.439 53.104
O 46.216 45.517 66.637
O 47.311 44.784 59.723
O 37.175 44.512 56.397
O 38.245 44.847 65.382
O 52.312 48.899 61.152
O 34.279 58.0 56.305
O 41.558 54.762 51.557
O 44.277 43.052 60.919
O 45.016 57.813 65.766
O 37.94 49.073 67.089
O 37.411 49.635 61.542
O 39.733 52.288 62.804
O 43.87 51.972 72.863
O 41.594 51.597 66.938
O 41.164 55.004 53.881
O 35.976 50.126 56.944
O 43.662 53.147 64.699
O 40.52 56.216 56.62
O 40.748 49.866 63.123
O 45.143 55.064 64.304
O 37.19 54.806 67.572
O 53.504 47.74 59.259
O 48.31 49.359 69.064
O 40.805 46.606 71.031
O 36.632 47.66 50.624
O 42.631 53.482 71.005
O 41.943 42.159 66.751
O 38.712 52.742 57.567
O 37.263 50.647 53.136
O 44.827 51.62 69.107
O 41.481 52.655 56.237
O 41.748 55.727 63.732
O 36.398 50.531 63.789
O 34.262 46.965 52.847
O 35.371 50.464 60.959
O 53.187 49.53 64.323
O 46.766 48.107 66.076
O 33.05 46.901 62.086
O 37.492 54.612 60.328
O 44.961 53.241 62.831
O 43.377 43.717 58.569
O 45.115 50.715 61.782
O 45.983 47.686 70.461
O 48.067 45.836 64.366
O 35.062 50.156 51.212
O 37.765 49.304 54.806
O 43.75 46.683 63.049
O 40.618 48.928 58.161
O 49.132 50.328 60.552
O 40.244 46.565 66.366
O 46.676 54.87 62.737
O 43.461 55.677 69.217
C 48.427 51.155 57.474
C 48.124 52.651 57.501
H 44.024 42.132 60.772
H 45.103 43.143 60.428
H 37.544 45.37 56.153
H 43.362 45.812 62.898
H 43.822 46.739 64.01
H 44.875 57.855 66.72
H 45.843 58.294 65.635
H 47.891 44.3 59.121
H 47.776 44.976 64.038
H 47.389 46.445 64.046
H 36.12 52.629 56.226
H 41.532 41.635 62.619
H 43.049 41.635 62.68
H 37.133 51.629 55.694
H 48.931 50.837 58.421
H 38.003 54.412 59.534
H 48.836 56.576 61.159
H 36.734 55.108 59.993
H 37.253 55.153 54.533
H 35.792 54.81 54.764
H 43.34 56.484 60.668
H 42.975 57.89 61.111
H 42.494 48.331 71.263
H 40.08 48.255 58.596
H 41.103 49.338 58.888
H 33.249 46.317 61.343
H 32.44 47.549 61.71
H 34.721 49.736 50.412
H 46.925 47.624 66.897
H 46.174 47.529 65.58
H 38.266 49.035 57.503
H 38.099 50.541 57.398
H 34.253 53.092 62.515
H 41.487 54.352 66.472
H 41.95 55.232 67.619
H 33.219 53.519 49.69
H 34.97 51.213 61.417
H 35.802 50.867 60.195
H 31.496 53.928 55.834
H 46.695 47.905 61.894
H 35.606 50.88 50.877
H 38.008 44.174 64.731
H 38.236 45.669 64.876
H 52.718 49.741 61.392
H 51.523 49.157 60.66
H 45.053 55.486 67.293
H 45.827 54.519 68.172
H 48.188 48.174 61.965
H 40.823 57.189 62.371
H 40.362 56.116 61.4
H 33.985 51.341 64.728
H 34.302 49.856 64.752
H 34.623 51.159 53.418
H 35.356 50.691 54.664
H 42.013 55.195 62.971
H 41.492 55.071 64.392
H 39.358 43.904 60.851
H 40.098 44.59 59.717
H 49.672 44.386 61.25
H 51.161 44.682 61.278
H 48.914 46.892 66.289
H 48.932 48.411 66.317
H 45.072 41.989 65.534
H 44.086 42.412 64.459
H 43.31 53.857 64.148
H 32.973 49.305 57.108
H 32.698 50.798 57.069
H 41.845 56.68 65.945
H 42.428 58.065 66.163
H 41.165 51.824 55.86
H 40.173 43.823 64.61
H 41.581 43.269 64.482
H 38.366 50.997 50.681
H 37.723 51.87 49.617
H 44.421 44.038 65.995
H 44.869 45.054 64.958
H 50.77 46.533 58.577
H 43.574 53.887 66.988
H 43.073 53.145 68.215
H 49.563 53.632 62.186
H 46.901 42.986 64.827
H 42.89 52.83 65.185
H 39.259 53.371 50.512
H 30.619 52.512 53.364
H 46.648 45.261 67.461
H 45.376 45.896 66.926
H 47.431 49.422 68.671
H 36.135 43.381 62.18
H 37.597 43.09 61.892
H 36.375 55.472 56.802
H 37.454 55.713 57.843
H 43.818 49.004 68.115
H 45.271 48.58 67.991
H 52.539 47.736 59.247
H 41.254 49.545 62.366
H 41.226 49.514 63.884
H 40.041 56.314 67.458
H 39.349 54.989 67.188
H 32.279 47.732 64.642
H 35.39 46.009 65.469
H 36.071 46.451 64.185
H 51.466 52.035 62.065
H 38.015 57.433 52.167
H 49.564 50.11 63.115
H 50.865 49.33 63.186
H 38.878 54.239 49.325
H 45.029 55.997 64.522
H 45.41 54.664 65.141
H 38.1 49.088 61.937
H 41.188 51.759 66.077
H 44.493 52.47 72.319
H 43.178 51.714 72.242
H 41.473 45.916 70.939
H 40.554 46.559 71.962
H 41.149 52.222 67.523
H 37.568 50.51 61.918
H 38.707 48.538 67.324
H 36.083 55.808 49.856
H 37.394 49.054 67.884
H 41.386 42.999 60.524
H 42.007 44.326 60.922
H 45.613 51.075 69.241
H 45.137 52.517 69.281
H 39.944 48.344 53.693
H 39.282 47.136 54.334
H 40.488 51.49 71.131
H 40.614 51.632 72.637
H 42.444 51.441 60.462
H 43.089 50.834 59.228
H 37.662 50.033 52.507
H 36.804 51.284 52.575
H 38.415 50.12 65.21
H 39.885 50.056 65.583
H 50.08 50.274 66.544
H 35.176 45.493 62.42
H 36.655 45.713 62.155
H 38.415 48.306 63.963
H 37.039 48.383 64.6
H 43.285 46.192 66.309
H 42.561 45.339 65.282
H 38.828 53.699 57.606
H 38.133 52.55 58.315
H 35.851 44.267 64.18
H 36.098 48.538 52.913
H 37.237 47.66 53.401
H 42.124 51.624 69.49
H 43.066 50.469 69.777
H 44.547 48.033 57.414
H 45.135 47.733 56.047
H 46.846 57.686 60.69
H 46.996 58.725 61.787
H 44.903 57.508 62.127
H 45.323 56.16 61.568
H 42.129 52.192 63.088
H 42.9 50.885 63.013
H 33.187 46.908 56.767
H 43.69 54.437 61.394
H 43.011 53.921 60.138
H 32.567 50.082 50.855
H 35.831 50.638 57.749
H 35.085 49.892 56.657
H 36.84 52.571 61.492
H 38.211 52.492 60.845
H 32.63 54.894 51.315
H 34.117 55.202 51.29
H 40.33 55.489 53.83
H 36.935 54.568 62.484
H 35.712 55.372 62.079
H 40.058 55.421 56.914
H 50.703 51.567 64.871
H 41.209 54.723 54.803
H 39.499 51.489 62.316
H 34.306 49.18 58.879
H 34.027 47.688 58.932
H 39.952 51.961 63.686
H 49.283 51.987 64.536
H 35.948 57.109 54.418
H 34.856 47.953 62.761
H 36.339 47.873 62.444
H 43.374 47.853 61.225
H 42.159 48.042 60.334
H 38.897 46.186 68.064
H 37.403 46.427 67.946
H 40.153 47.475 66.059
H 40.303 46.052 65.55
H 44.123 55.641 69.92
H 36.491 43.781 67.262
H 37.408 42.733 66.657
H 47.304 54.178 62.981
H 37.82 52.338 64.22
H 47.239 55.623 62.516
H 53.833 50.178 64.013
H 38.17 52.241 65.694
H 42.625 55.755 69.693
H 43.529 53.636 70.686
H 42.078 53.693 70.242
H 46.642 56.275 65.992
H 45.253 52.047 66.979
H 43.806 51.628 66.783
H 35.864 53.546 64.169
H 35.22 54.285 65.329
H 44.073 48.918 63.377
H 45.4 48.229 63.644
H 41.707 54.201 58.393
H 42.289 54.643 57.062
H 49.938 50.655 60.972
H 49.362 49.429 60.285
H 32.788 52.766 52.993
H 32.386 51.309 52.842
H 51.461 46.596 65.125
H 50.693 45.575 64.304
H 43.36 49.982 65.29
H 42.46 48.87 65.8
H 33.201 50.367 62.467
H 39.561 53.435 55.449
H 39.158 51.971 55.452
H 36.444 53.262 50.922
H 35.897 53.928 52.173
H 38.244 57.1 54.377
H 44.759 45.775 56.996
H 45.274 47.919 71.072
H 46.749 47.562 71.035
H 39.648 46.477 63.022
H 40.451 47.46 63.857
H 41.372 49.514 68.247
H 40.098 50.188 67.769
H 45.257 53.927 59.921
H 45.879 52.908 60.86
H 35.203 48.062 54.98
H 35.235 46.559 54.763
H 47.347 51.462 67.82
H 48.339 51.613 66.68
H 46.569 45.711 62.036
H 45.238 44.98 62.034
H 35.99 53.102 59.499
H 35.028 54.154 58.974
H 45.851 49.843 65.082
H 46.756 51.05 65.257
H 38.33 52.865 52.441
H 35.9 51.346 63.646
H 35.932 49.88 63.25
H 38.881 54.256 52.7
H 51.159 47.028 61.29
H 49.683 46.669 61.333
H 39.677 54.028 61.471
H 40.867 53.801 60.555
H 33.314 49.683 61.116
H 37.183 54.771 66.607
H 32.666 55.886 53.458
H 33.076 57.341 53.309
H 40.648 49.131 70.368
H 39.189 48.794 70.116
H 45.632 52.801 63.368
H 39.731 41.798 61.366
H 38.385 41.137 61.122
H 44.301 52.553 62.681
H 45.354 42.884 67.739
H 43.554 44.337 59.288
H 42.992 42.952 59.015
H 47.467 43.128 61.899
H 49.091 54.498 59.69
H 48.068 53.818 60.583
H 35.204 49.673 67.583
H 35.3 48.71 66.413
H 40.17 44.339 67.57
H 41.609 44.628 67.959
H 42.432 46.919 68.9
H 32.564 48.625 52.728
H 47.852 51.612 62.796
H 47.324 51.338 61.399
H 49.159 54.654 64.091
H 42.046 47.534 67.566
H 35.149 52.467 67.181
H 45.528 49.99 61.297
H 45.596 50.734 62.619
H 44.733 46.602 69.01
H 43.961 45.34 68.664
H 38.512 49.69 55.279
H 37.184 48.992 55.511
H 36.273 48.147 58.053
H 36.41 47.032 57.03
H 34.706 51.801 49.111
H 47.002 53.359 66.717
H 47.867 54.578 66.986
H 40.083 55.86 59.234
H 41.464 56.423 59.521
H 40.449 50.625 52.579
H 39.393 50.821 53.652
