353
xyz format
O 67.443 45.63 45.603
O 64.275 48.624 42.465
O 63.784 46.708 48.397
O 64.909 40.94 43.163
O 67.345 48.817 50.344
O 55.752 53.306 41.348
O 66.077 51.943 48.352
O 54.774 50.098 37.186
O 60.41 51.628 51.882
O 65.304 43.889 46.505
O 62.194 42.612 47.902
O 62.173 44.389 42.685
O 60.649 44.321 52.543
O 63.103 48.738 45.302
O 61.539 55.57 41.633
O 63.678 51.852 40.364
O 61.097 47.285 39.771
O 65.141 55.078 45.493
O 66.393 42.618 45.076
O 65.816 54.329 48.2
O 59.113 42.284 54.217
O 61.473 44.715 48.2
O 65.525 52.671 44.585
O 68.506 46.737 47.887
O 63.502 41.26 46.724
O 65.778 46.918 42.973
O 64.222 45.19 42.549
O 66.673 43.966 42.372
O 61.746 48.45 48.04
O 59.147 49.572 52.362
O 59.735 44.46 49.947
O 57.527 39.392 44.856
O 62.787 52.349 46.174
O 68.857 42.968 45.345
O 62.906 39.422 43.925
O 59.491 41.082 51.615
O 55.651 41.602 42.9
O 60.875 56.202 50.356
O 62.426 43.614 45.743
O 61.029 38.18 50.048
O 63.522 44.213 54.656
O 57.069 50.944 47.434
O 59.052 40.635 45.899
O 61.117 37.571 41.945
O 66.814 46.949 52.976
O 60.505 43.448 55.93
O 69.466 49.221 48.582
O 59.399 49.094 44.669
O 66.986 42.563 49.955
O 60.062 44.345 41.674
O 56.982 41.707 39.823
O 59.668 41.292 39.142
O 57.482 43.742 42.228
O 61.991 41.178 50.57
O 56.906 48.665 42.027
O 59.223 46.933 46.829
O 58.972 44.967 38.96
O 63.531 43.32 52.289
O 64.221 38.518 40.79
O 64.435 39.502 50.039
O 63.897 50.046 47.79
O 57.548 52.303 44.476
O 64.779 53.145 50.193
O 67.928 44.615 47.791
O 61.369 48.486 42.344
O 62.31 52.908 43.54
O 59.547 53.745 45.963
O 59.739 56.869 45.804
O 62.898 54.962 51.608
O 61.818 53.825 48.639
O 64.586 43.393 49.489
O 58.822 46.964 51.092
O 60.701 48.478 37.688
O 65.993 48.457 40.905
O 59.805 41.423 48.572
O 58.55 44.819 46.721
O 63.529 50.618 50.228
O 56.446 50.871 40.283
O 58.887 37.503 46.227
O 57.216 55.613 46.616
O 63.815 45.919 53.122
O 58.668 39.011 49.076
O 56.784 47.336 45.397
O 57.225 52.662 37.699
O 61.18 45.78 50.956
O 66.21 44.838 51.374
O 60.695 40.219 43.778
O 59.949 43.914 44.681
O 63.68 50.758 43.388
O 61.48 51.258 49.088
O 66.182 51.454 42.628
O 61.644 42.892 39.623
O 58.514 44.37 55.707
O 64.109 55.729 48.859
O 59.438 46.785 42.027
O 58.134 55.782 52.161
O 58.58 48.821 49.111
O 58.316 54.111 48.936
O 61.716 55.792 45.973
O 64.148 40.605 39.335
O 56.998 55.032 44.209
O 61.191 37.962 45.881
O 57.043 40.261 49.869
O 66.353 46.773 48.338
O 59.429 55.082 42.667
O 55.686 39.05 42.203
O 65.226 47.043 46.374
O 57.6 42.914 50.605
O 59.719 49.752 39.534
O 67.213 49.441 44.803
O 65.652 39.855 45.902
O 64.33 43.585 40.127
O 59.652 52.897 39.842
O 58.394 41.651 42.138
O 62.357 41.464 42.486
O 64.177 47.751 50.972
O 59.433 46.664 54.217
O 61.838 51.324 39.278
O 57.805 42.605 36.97
O 63.232 47.84 39.281
O 59.68 39.323 41.176
O 59.887 50.759 47.083
O 58.618 46.359 37.294
O 57.525 42.61 46.168
O 56.94 40.673 47.041
O 60.246 52.807 42.008
O 61.075 41.491 53.069
O 59.295 50.375 42.726
O 60.832 46.359 45.268
H 63.975 50.553 44.284
H 64.068 51.625 43.212
H 61.772 46.577 45.259
H 60.514 46.676 44.414
H 59.73 44.599 44.038
H 56.933 43.047 46.793
H 58.375 42.6 46.627
H 59.645 43.1 44.261
H 58.678 45.644 36.648
H 59.218 47.031 36.947
H 61.248 40.821 44.291
H 60.665 39.419 44.317
H 60.765 50.376 47.203
H 59.906 51.096 46.178
H 59.033 39.88 40.726
H 60.243 39.954 41.641
H 62.5 53.147 48.548
H 60.993 53.336 48.529
H 61.452 41.697 42.244
H 62.793 41.322 41.637
H 64.5 42.452 49.293
H 64.494 44.506 39.89
H 61.811 47.628 42.321
H 61.969 49.066 41.859
H 64.941 43.766 48.672
H 64.317 43.129 39.276
H 57.492 51.735 37.739
H 58.441 38.08 48.96
H 58.867 39.311 48.18
H 57.513 46.716 45.269
H 57.151 48.004 45.988
H 62.996 55.156 50.668
H 58.999 56.547 45.275
H 59.686 56.347 46.614
H 67.075 48.516 45.041
H 66.596 49.919 45.37
H 62.717 40.61 50.855
H 62.168 42.016 51.016
H 56.865 49.026 42.921
H 57.456 47.877 42.123
H 58.173 45.031 39.498
H 59.501 45.723 39.244
H 59.269 47.868 46.593
H 59.944 53.127 45.335
H 58.711 53.988 45.547
H 64.206 43.101 51.635
H 62.937 43.916 51.816
H 59.303 55.934 43.102
H 60.184 54.698 43.131
H 65.636 47.891 46.584
H 65.12 47.07 45.415
H 59.423 46.925 47.773
H 61.158 46.652 50.543
H 61.9 45.847 51.595
H 66.986 44.584 50.859
H 65.523 44.965 50.708
H 64.854 40.371 50.009
H 62.806 53.46 44.157
H 67.88 43.892 47.153
H 67.267 44.382 48.453
H 58.232 51.655 44.266
H 56.945 52.252 43.725
H 63.651 50.978 47.854
H 64.837 50.073 47.571
H 62.068 52.136 44.067
H 59.517 42.169 39.515
H 59.744 50.716 39.572
H 59.2 49.505 40.31
H 57.658 43.835 50.322
H 57.335 42.445 49.804
H 61.67 38.034 42.586
H 56.605 43.972 42.56
H 58.042 44.465 42.54
H 60.613 45.028 41.273
H 60.141 43.6 41.066
H 66.295 42.461 50.622
H 67.407 41.695 49.926
H 61.572 38.657 46.431
H 56.568 39.522 49.47
H 57.341 39.91 50.718
H 66.29 50.784 43.315
H 66.857 51.225 41.977
H 60.208 48.851 44.202
H 58.804 48.354 44.498
H 66.301 46.896 52.16
H 60.09 42.948 56.643
H 61.499 50.319 49.313
H 61.597 51.7 49.938
H 68.506 49.158 48.507
H 62.27 42.329 39.149
H 62.153 43.688 39.818
H 59.987 40.51 46.103
H 59.06 41.024 45.015
H 63.699 54.986 48.4
H 56.66 50.152 47.804
H 57.307 51.463 48.213
H 57.059 42.505 40.36
H 62.754 43.714 54.35
H 60.635 39.061 50.058
H 61.781 42.897 45.714
H 61.894 44.407 45.599
H 60.803 55.315 50.729
H 59.215 41.171 50.694
H 59.046 41.815 52.059
H 63.609 39.764 44.492
H 63.292 39.45 43.04
H 71.06 46.53 45.37
H 55.86 40.846 43.462
H 55.516 42.324 43.527
H 61.866 52.299 46.461
H 63.056 53.242 46.421
H 57.15 40.991 40.448
H 59.813 43.731 49.319
H 59.614 45.235 49.385
H 65.913 46.087 48.857
H 66.261 47.565 48.881
H 62.126 55.729 46.845
H 56.956 38.636 45.046
H 62.006 54.987 45.525
H 57.521 39.447 43.893
H 57.204 55.861 43.757
H 57.525 54.376 43.735
H 58.419 49.622 52.995
H 59.896 49.281 52.897
H 61.651 46.72 40.324
H 60.583 47.797 40.408
H 63.119 52.069 41.12
H 64.24 51.139 40.691
H 63.962 45.689 41.765
H 64.512 44.34 42.195
H 62.01 54.729 41.698
H 60.854 55.398 40.975
H 66.558 39.828 46.234
H 65.137 39.448 46.611
H 61.371 48.078 47.232
H 61.621 47.75 48.693
H 57.029 39.712 47.046
H 57.456 40.955 47.807
H 66.602 44.13 43.32
H 66.314 43.076 42.265
H 68.535 46.485 48.818
H 69.389 46.52 47.563
H 66.066 46.248 43.605
H 66.372 47.661 43.139
H 56.737 56.448 46.539
H 56.55 54.996 46.943
H 56.05 50.338 39.582
H 56.093 50.483 41.093
H 64.667 47.081 50.478
H 63.263 47.444 50.93
H 59.065 38.45 46.164
H 63.812 50.677 51.149
H 63.794 49.728 49.963
H 65.426 48.856 40.233
H 66.176 49.185 41.511
H 61.282 48.21 36.965
H 60.556 49.419 37.527
H 60.517 40.788 48.719
H 60.105 41.931 47.808
H 59.497 44.631 46.733
H 58.293 44.766 47.65
H 57.92 41.433 42.951
H 59.27 41.912 42.447
H 64.111 45.758 52.218
H 63.301 46.734 53.053
H 59.43 47.536 51.577
H 59.048 46.077 51.397
H 66.443 42.006 44.331
H 61.528 45.592 47.8
H 61.845 44.842 49.082
H 64.823 52.659 45.248
H 66.269 52.248 45.031
H 59.713 53.832 39.609
H 58.821 52.836 40.33
H 66.377 42.039 45.848
H 59.008 41.449 54.69
H 58.249 42.705 54.301
H 63.749 47.196 39.78
H 62.991 48.502 39.941
H 62.429 41.917 48.529
H 62.988 43.16 47.859
H 65.315 40.484 42.415
H 64.614 41.779 42.788
H 67.306 48.652 51.294
H 66.6 49.41 50.183
H 58.898 46.42 41.316
H 63.274 48.61 46.244
H 62.142 48.826 45.255
H 59.0 46.478 42.83
H 62.477 43.573 43.101
H 61.974 44.967 43.432
H 59.823 43.841 52.686
H 60.942 44.543 53.436
H 58.83 53.645 48.265
H 57.561 53.53 49.091
H 58.769 55.771 51.434
H 59.516 48.606 49.204
H 58.583 49.756 48.871
H 62.793 40.988 46.128
H 64.219 41.511 46.128
H 60.955 52.271 41.631
H 60.194 52.508 42.924
H 66.084 51.876 47.389
H 61.279 42.362 53.431
H 66.789 51.354 48.629
H 60.981 40.934 53.852
H 60.22 50.359 42.451
H 58.973 49.494 42.499
H 55.118 54.032 41.3
H 63.637 48.505 43.18
H 64.095 47.884 41.872
H 67.938 46.44 45.779
H 67.8 45.321 44.761
H 62.361 50.531 39.103
H 62.071 51.917 38.553
H 63.766 45.75 48.52
H 63.349 46.838 47.545
H 55.772 52.959 40.447
H 59.755 51.369 51.222
H 61.025 50.884 51.9
H 58.545 46.767 53.851
H 59.984 46.506 53.441
H 65.69 44.741 46.743
H 64.681 44.108 45.8
