281
xyz format
O 32.315 48.439 42.319
O 34.744 43.554 47.607
O 37.718 37.465 46.609
O 34.309 52.397 48.948
O 37.394 36.638 42.86
O 34.922 40.527 49.628
O 29.761 49.855 49.127
O 39.285 53.007 47.473
O 36.513 45.187 44.505
O 32.711 47.389 52.324
O 37.108 46.612 55.579
O 32.992 43.017 44.145
O 33.977 48.138 50.666
O 39.125 47.015 42.626
O 41.266 45.822 49.388
O 40.704 45.48 41.823
O 37.686 50.475 43.12
O 30.505 46.668 52.668
O 34.1 46.38 47.655
O 35.273 38.025 49.688
O 34.083 40.341 46.591
O 35.016 41.847 58.49
O 31.782 54.176 49.463
O 32.024 41.781 47.306
O 34.289 40.103 51.7
O 34.724 38.159 46.402
O 32.293 48.558 45.952
O 37.117 53.611 49.614
O 37.761 40.349 47.123
O 35.956 45.954 53.551
O 36.173 48.838 53.007
O 34.757 45.142 56.371
O 31.906 45.28 42.71
O 39.867 37.883 44.747
O 36.796 42.031 38.817
O 41.102 44.437 46.925
O 35.825 38.324 54.433
O 40.407 38.639 50.209
O 37.101 44.413 48.937
O 35.632 49.123 47.64
O 38.394 42.656 48.652
O 35.211 40.547 56.521
O 39.885 48.691 45.835
O 39.379 43.093 53.212
O 34.878 45.359 50.726
O 30.434 43.988 48.905
O 35.824 41.369 40.858
O 39.322 50.272 48.05
O 36.396 49.685 50.159
O 35.165 51.964 54.815
O 37.461 39.923 40.593
O 36.816 43.441 52.775
O 37.299 43.243 42.414
O 39.21 42.905 38.977
O 38.303 41.668 51.589
O 31.536 52.431 47.024
O 34.155 46.117 42.69
O 35.262 46.446 39.261
O 32.196 45.53 50.68
O 33.176 42.408 56.731
O 36.015 37.417 44.527
O 37.926 43.481 55.852
O 32.279 49.543 48.727
O 41.303 42.402 49.717
O 36.748 52.714 41.824
O 35.084 50.509 42.688
O 32.767 44.657 54.724
O 36.645 48.305 43.311
O 36.793 49.098 45.475
O 37.343 47.734 49.293
O 36.951 51.32 47.826
O 39.969 41.687 46.02
O 37.082 53.834 53.931
O 33.992 46.27 44.88
O 32.63 42.831 50.387
O 34.455 48.584 40.111
O 37.004 40.534 52.955
O 31.222 51.663 51.661
O 36.276 42.234 46.59
O 32.165 51.476 44.716
O 39.632 44.887 44.418
O 31.71 44.849 46.444
O 29.867 46.933 50.577
O 34.451 41.379 43.969
O 38.948 35.595 46.872
O 38.735 47.524 51.681
O 36.283 51.769 52.254
O 37.304 40.06 49.493
O 39.047 45.364 48.469
O 42.748 47.652 49.942
O 37.223 39.54 42.989
H 37.102 44.382 58.487
H 35.202 49.066 40.488
H 36.269 47.645 43.907
H 36.538 47.911 42.436
H 36.832 50.024 45.744
H 37.222 48.629 46.202
H 37.946 39.066 42.561
H 37.507 52.611 42.412
H 32.256 45.152 49.794
H 32.024 44.766 51.245
H 35.803 38.195 43.996
H 41.11 42.944 50.492
H 40.893 41.553 49.924
H 37.743 43.197 56.756
H 37.414 44.294 55.758
H 35.556 36.699 44.075
H 37.666 40.257 43.461
H 32.055 48.604 48.753
H 32.157 49.834 49.639
H 40.119 44.185 56.994
H 39.76 42.801 57.508
H 39.815 45.266 38.61
H 33.065 55.962 49.414
H 38.767 43.563 39.528
H 35.992 51.42 47.872
H 33.33 42.017 55.862
H 34.266 47.904 40.769
H 33.69 43.224 56.71
H 37.209 51.159 48.742
H 38.829 48.451 56.375
H 41.418 43.889 39.513
H 42.317 44.227 40.689
H 36.065 43.164 52.235
H 36.789 42.842 53.531
H 40.776 38.672 49.318
H 40.111 39.544 50.368
H 36.242 44.026 49.148
H 37.152 44.347 47.975
H 35.515 48.396 48.265
H 34.787 49.59 47.67
H 30.29 44.761 48.346
H 34.927 41.595 40.585
H 35.76 41.296 41.819
H 30.986 43.412 48.362
H 35.679 51.948 55.632
H 37.993 40.728 40.55
H 37.515 39.564 39.699
H 38.574 49.718 47.793
H 39.524 50.77 47.248
H 36.036 48.913 50.613
H 36.855 50.168 50.857
H 35.441 40.761 55.608
H 39.182 43.51 54.06
H 39.338 48.034 46.283
H 39.255 49.372 45.57
H 40.144 43.585 52.888
H 34.432 44.518 50.564
H 34.384 49.993 43.107
H 39.134 50.301 54.102
H 32.989 45.498 54.307
H 32.25 44.196 54.052
H 34.825 51.424 42.853
H 36.608 43.547 41.813
H 38.017 43.873 42.274
H 35.763 45.098 51.008
H 40.914 45.368 47.099
H 40.69 43.978 47.667
H 37.563 41.513 38.54
H 36.214 42.008 38.047
H 36.434 39.033 54.676
H 40.615 38.045 45.335
H 39.129 43.178 48.995
H 38.803 41.816 48.41
H 38.731 46.891 40.388
H 29.849 46.188 49.963
H 29.824 47.706 50.001
H 42.306 37.905 51.042
H 43.611 44.238 47.21
H 34.709 54.657 50.09
H 32.766 42.693 51.332
H 33.382 42.385 49.979
H 35.543 38.656 46.283
H 34.973 37.45 47.008
H 36.975 49.223 53.381
H 35.798 48.333 53.739
H 36.407 46.268 52.758
H 35.345 45.285 53.219
H 32.197 44.528 42.179
H 31.543 45.893 42.059
H 38.277 47.695 49.533
H 37.068 46.809 49.29
H 37.818 40.237 46.166
H 36.849 40.105 47.329
H 34.526 45.642 45.381
H 33.607 46.837 45.56
H 35.037 45.861 56.951
H 35.226 45.317 55.546
H 32.571 49.299 46.504
H 31.329 48.605 45.974
H 37.926 48.051 51.679
H 38.45 46.666 52.019
H 34.007 40.365 49.368
H 38.241 36.975 43.178
H 35.148 41.348 49.173
H 39.171 47.393 43.513
H 38.823 46.111 42.777
H 32.616 44.568 46.264
H 31.185 44.059 46.266
H 36.394 53.158 49.163
H 32.572 42.459 46.892
H 31.797 41.192 46.576
H 33.834 40.798 52.191
H 34.124 39.308 52.222
H 37.228 48.209 38.831
H 37.612 52.895 50.031
H 31.469 53.386 49.004
H 31.08 54.821 49.311
H 43.508 47.305 50.427
H 42.536 48.471 50.406
H 39.285 46.239 57.154
H 39.755 46.568 55.748
H 33.485 39.925 45.957
H 34.784 40.708 46.038
H 38.129 39.565 49.41
H 36.836 39.607 50.205
H 34.761 46.026 48.263
H 33.514 46.892 48.226
H 39.694 40.724 42.743
H 40.416 40.477 44.056
H 38.645 50.485 43.011
H 37.363 50.122 42.282
H 32.335 55.139 51.369
H 40.167 44.955 41.216
H 41.111 46.144 41.254
H 30.482 47.546 53.07
H 30.22 46.083 53.381
H 35.223 37.11 49.383
H 35.45 38.526 48.882
H 40.824 46.597 49.756
H 40.972 45.099 49.956
H 30.97 51.918 52.557
H 30.466 51.151 51.347
H 32.432 42.288 43.85
H 32.378 43.756 44.233
H 39.857 53.006 46.695
H 38.394 53.01 47.101
H 36.302 53.678 53.385
H 40.621 42.387 46.149
H 33.784 47.236 50.382
H 33.994 48.64 49.841
H 39.367 42.053 45.361
H 34.754 46.979 38.636
H 35.713 45.803 38.7
H 34.492 47.018 42.771
H 34.487 45.824 41.832
H 38.645 42.317 50.961
H 38.51 40.819 51.178
H 31.167 52.91 46.271
H 32.449 52.26 46.762
H 33.187 46.552 52.386
H 32.948 47.849 53.139
H 36.474 45.478 43.586
H 37.459 45.155 44.695
H 36.229 40.817 52.454
H 37.153 39.629 52.653
H 38.878 46.193 48.003
H 38.902 45.59 49.396
H 32.868 50.839 44.537
H 31.525 50.972 45.234
H 37.034 42.604 46.121
H 36.538 42.279 47.519
H 29.869 49.223 48.406
H 30.267 50.624 48.836
H 39.922 44.245 45.078
H 39.585 45.716 44.91
H 32.411 47.711 42.946
H 38.078 35.386 47.234
H 33.898 51.641 48.511
H 33.756 53.143 48.684
H 37.12 46.563 56.543
H 37.073 47.56 55.398
H 37.895 37.57 45.665
H 34.875 43.934 46.729
H 33.936 43.977 47.922
H 38.389 38.014 47.031
H 31.939 48.018 41.536
H 34.284 40.677 43.327
H 35.414 41.394 44.045
H 37.168 52.094 52.049
H 36.392 51.326 53.105
