65
xyz format
O 45.343 58.568 57.018
O 49.235 60.47 57.866
O 51.694 59.22 57.721
O 43.014 57.352 50.28
O 42.458 57.269 53.963
O 50.096 62.503 52.401
O 51.385 60.879 53.472
O 46.216 56.588 52.637
O 49.581 59.632 54.869
O 52.149 60.996 55.772
O 47.15 59.032 58.231
O 47.78 58.377 55.011
O 44.112 57.961 52.243
O 47.129 60.991 55.846
O 50.522 60.756 60.53
O 49.576 58.58 52.507
O 53.609 61.002 51.89
H 49.166 57.257 59.842
H 49.086 59.214 51.969
H 48.918 58.254 53.133
H 44.122 58.893 51.99
H 44.404 57.97 53.163
H 45.991 62.268 58.137
H 52.824 59.013 59.601
H 44.771 57.746 58.977
H 46.957 59.579 59.002
H 47.376 58.173 58.611
H 47.452 60.45 56.577
H 46.262 61.291 56.148
H 45.886 54.423 52.845
H 46.828 53.709 54.212
H 47.132 58.827 54.454
H 47.611 57.441 54.849
H 46.846 57.686 60.69
H 50.258 58.952 54.765
H 49.447 59.678 55.824
H 54.46 62.172 55.894
H 46.527 57.494 52.517
H 46.06 56.523 53.587
H 52.079 60.238 53.273
H 50.588 60.476 53.105
H 50.432 63.388 52.587
H 50.477 62.289 51.54
H 48.487 60.222 61.173
H 47.885 61.196 60.175
H 52.033 60.087 55.468
H 52.764 60.913 56.512
H 42.181 57.907 53.293
H 42.713 56.493 53.448
H 45.068 60.35 59.826
H 44.534 58.638 56.496
H 46.038 58.488 56.352
H 45.208 61.177 54.183
H 44.26 61.605 55.29
H 50.836 58.953 57.369
H 51.519 60.08 58.123
H 47.35 63.445 54.914
H 45.859 63.315 55.171
H 48.838 61.286 58.194
H 49.155 59.86 58.61
H 50.577 61.345 59.767
H 50.717 59.885 60.162
H 43.334 57.919 49.567
H 53.106 61.386 51.161
H 53.736 61.742 52.497
