76
xyz format
O 50.681 38.287 70.734
O 43.183 35.498 71.595
O 49.495 40.318 75.375
O 48.148 36.832 72.522
O 44.277 36.009 68.583
O 43.895 40.144 73.427
O 39.792 36.815 72.671
O 40.793 37.207 69.212
O 41.77 39.637 69.633
O 46.156 39.886 71.998
O 50.889 33.83 72.315
O 42.179 38.164 73.692
O 47.172 40.967 68.31
O 40.537 40.052 74.665
O 41.016 40.539 71.49
O 42.353 36.063 66.932
O 47.634 38.818 73.778
O 45.25 38.928 69.783
O 47.896 34.388 72.314
O 42.221 37.833 71.125
O 50.285 42.34 73.235
O 47.559 41.7 72.876
O 48.296 44.489 73.168
O 44.737 35.929 65.741
O 45.196 38.262 66.439
O 45.516 37.064 70.952
H 47.413 44.654 72.815
H 50.225 42.121 72.297
H 47.036 43.262 74.581
H 47.343 39.736 73.844
H 48.567 38.854 74.02
H 42.508 38.687 71.47
H 42.905 37.602 70.484
H 47.294 41.326 76.375
H 41.17 33.624 70.566
H 40.208 40.215 71.071
H 40.23 39.15 74.819
H 40.686 40.398 75.554
H 45.942 39.231 69.182
H 44.552 38.618 69.192
H 47.129 42.489 72.524
H 48.025 41.333 72.115
H 45.413 35.775 66.413
H 44.192 40.68 67.069
H 43.0 39.74 67.023
H 48.249 40.248 70.214
H 47.269 40.328 67.592
H 41.894 37.422 74.241
H 42.356 38.866 74.331
H 50.598 34.702 72.021
H 49.332 40.501 76.309
H 49.83 41.156 75.032
H 46.189 32.325 71.8
H 46.666 39.3 71.425
H 45.643 40.422 71.38
H 42.318 39.135 69.017
H 45.832 38.767 66.961
H 44.469 38.102 67.054
H 49.02 37.241 72.594
H 47.682 37.395 71.891
H 47.586 43.016 70.438
H 40.43 37.984 68.769
H 48.59 34.673 72.922
H 47.285 33.897 72.878
H 44.381 35.112 68.241
H 43.799 40.92 72.862
H 44.113 39.436 72.809
H 43.726 35.893 69.367
H 45.33 37.497 71.794
H 45.761 36.165 71.205
H 43.94 34.942 71.371
H 49.931 38.85 70.502
H 50.969 38.629 71.589
H 43.533 36.104 72.26
H 46.329 34.09 68.195
H 40.726 36.896 72.444
