61
xyz format
O 28.288 44.115 42.157
O 30.409 37.825 43.689
O 32.099 40.922 43.526
O 29.147 42.049 40.598
O 26.055 42.137 41.776
O 31.158 37.572 45.994
O 29.347 42.171 45.413
O 27.074 40.563 39.312
O 31.234 43.464 43.251
O 33.268 38.49 45.026
O 32.701 38.598 42.214
O 30.186 34.974 43.173
O 28.841 40.928 42.861
O 30.19 38.593 40.584
O 30.272 42.39 37.595
O 31.657 38.845 38.964
O 27.513 37.816 39.604
O 29.34 39.66 37.989
O 26.41 39.619 43.42
O 28.021 35.143 40.596
O 27.986 38.049 41.74
H 29.725 41.82 38.149
H 30.127 39.408 41.097
H 30.529 37.949 41.217
H 28.923 40.134 43.405
H 28.492 41.589 43.472
H 33.569 38.85 41.876
H 32.138 39.348 41.985
H 30.111 35.65 43.858
H 32.669 39.206 44.78
H 30.585 42.954 43.75
H 32.229 38.867 39.741
H 31.8 37.964 38.598
H 26.89 40.045 40.105
H 29.565 41.233 45.361
H 28.692 42.215 46.121
H 27.108 41.472 39.634
H 26.428 43.685 43.892
H 32.425 41.532 41.439
H 26.933 42.382 42.092
H 25.508 42.166 42.571
H 29.5 42.44 41.407
H 29.843 41.444 40.313
H 26.747 44.193 39.719
H 28.04 39.011 41.67
H 27.622 37.904 42.622
H 27.026 37.047 39.284
H 28.438 37.558 39.509
H 28.498 39.89 37.578
H 29.122 39.57 38.925
H 31.222 40.855 43.924
H 26.842 39.803 44.263
H 26.723 40.325 42.842
H 29.455 37.845 43.838
H 30.648 38.756 43.607
H 32.172 35.584 44.62
H 28.564 34.961 41.374
H 28.664 35.393 39.921
H 29.893 33.153 41.581
H 28.386 45.065 42.017
H 28.785 43.95 42.968
