33
xyz format
O 54.797 52.536 60.356
O 51.909 51.365 55.163
O 50.19 53.992 53.244
N 52.353 53.934 53.978
N 51.761 52.453 51.079
N 50.123 52.271 56.216
C 49.365 53.325 56.879
C 51.406 53.938 52.972
C 56.677 51.811 56.155
C 51.942 53.806 55.355
C 55.642 51.408 57.001
C 54.453 52.135 57.049
C 55.33 53.677 55.408
C 53.052 54.098 56.375
C 51.331 52.398 55.595
C 51.894 53.827 51.502
C 54.285 53.274 56.25
C 56.517 52.946 55.359
H 57.346 53.289 54.718
H 55.216 50.759 54.669
H 52.985 54.119 51.425
H 51.127 54.581 55.525
H 52.605 53.958 57.397
H 53.648 51.217 54.314
H 55.236 54.601 54.815
H 49.06 54.111 56.133
H 57.63 51.259 56.147
H 53.315 53.824 53.762
H 49.998 53.803 57.675
H 53.652 51.827 57.739
H 55.778 50.537 57.663
H 53.331 55.185 56.28
H 57.346 49.046 58.401
