160
xyz format
O 58.854 25.863 38.608
O 50.445 29.022 39.465
O 48.09 32.523 34.072
O 55.05 29.987 34.027
O 56.908 25.398 37.274
O 49.76 32.907 36.399
O 52.3 31.798 35.173
O 53.874 28.182 34.482
O 57.072 33.539 31.857
O 50.329 31.882 38.276
O 57.266 30.748 33.858
O 54.477 39.43 31.777
O 56.584 37.734 36.1
O 56.201 37.356 33.457
O 55.405 31.812 29.065
O 55.878 26.111 34.999
O 55.162 34.673 29.893
O 54.054 28.79 31.82
O 58.09 35.819 32.365
O 46.728 32.307 32.048
O 54.612 33.24 33.528
O 60.518 37.566 29.042
O 58.843 39.409 28.54
O 52.194 29.312 37.925
O 60.416 33.93 38.209
O 58.715 31.094 30.035
O 55.965 34.98 26.51
O 47.795 28.967 36.092
O 52.681 27.03 38.275
O 61.483 38.114 30.98
O 51.196 29.812 33.687
O 55.123 28.446 40.186
O 49.714 30.505 29.533
O 48.488 26.398 38.366
O 53.813 34.429 26.364
O 60.682 35.39 32.682
O 58.026 32.11 37.053
O 53.987 37.131 25.152
O 49.626 32.68 30.746
O 49.57 30.11 35.451
O 50.742 28.711 31.832
O 58.103 28.478 38.252
O 53.799 31.697 38.314
O 56.121 33.819 37.964
O 60.701 34.87 28.626
O 51.379 33.053 28.417
O 52.116 26.022 34.088
O 53.658 34.319 37.575
O 59.258 33.618 30.495
O 54.877 29.222 37.498
O 54.949 31.345 31.683
O 56.961 38.662 30.581
O 54.151 34.301 35.4
O 52.134 35.937 34.778
O 64.228 35.454 33.531
O 50.182 27.31 36.279
O 57.972 36.134 28.287
O 55.361 32.467 39.741
H 60.193 34.306 28.03
H 61.344 34.268 29.02
H 56.462 34.452 37.321
H 55.764 34.377 38.667
H 57.503 32.698 36.494
H 57.478 31.318 37.128
H 51.446 29.172 34.365
H 52.002 29.924 33.168
H 57.145 36.626 28.214
H 58.359 36.205 27.405
H 54.813 36.69 25.387
H 50.011 33.116 31.516
H 48.713 32.992 30.738
H 61.229 35.951 32.117
H 60.146 34.888 32.057
H 54.463 31.721 37.613
H 53.851 30.793 38.648
H 55.181 27.783 40.886
H 55.637 29.187 40.53
H 48.853 30.728 29.908
H 49.622 30.73 28.598
H 58.793 38.927 29.375
H 52.707 36.655 35.077
H 52.046 35.375 35.558
H 53.221 33.527 37.237
H 53.57 34.239 38.533
H 59.839 32.99 30.047
H 58.861 34.119 29.771
H 54.129 35.009 34.744
H 55.088 34.22 35.618
H 60.22 37.025 28.3
H 55.038 33.313 32.665
H 54.25 32.346 33.53
H 63.458 34.971 33.854
H 50.065 29.532 36.044
H 49.215 30.79 36.038
H 55.526 30.629 31.978
H 53.633 27.164 38.352
H 52.413 26.766 39.164
H 54.06 30.99 31.808
H 55.064 29.792 36.742
H 55.588 29.423 38.12
H 46.951 28.519 36.232
H 48.117 29.135 36.987
H 57.272 28.008 38.108
H 51.065 27.81 31.709
H 49.807 28.593 32.042
H 62.1 38.733 31.39
H 59.507 34.237 38.314
H 51.487 28.777 37.543
H 52.441 29.91 37.208
H 59.406 30.782 30.633
H 58.003 31.362 30.628
H 56.639 35.587 26.18
H 56.4 34.53 27.244
H 54.998 34.016 30.58
H 55.717 35.33 30.331
H 56.724 38.148 29.799
H 58.343 36.625 32.832
H 57.418 35.425 32.936
H 50.969 32.423 29.022
H 52.677 25.942 34.869
H 51.245 25.75 34.403
H 56.352 26.878 34.655
H 54.957 26.289 34.772
H 54.53 31.738 29.468
H 56.002 31.863 29.822
H 53.543 27.982 31.682
H 54.867 28.635 31.323
H 55.524 37.566 32.801
H 56.797 38.114 33.423
H 57.414 37.873 36.573
H 56.244 36.91 36.47
H 56.883 31.539 34.258
H 58.048 30.576 34.397
H 54.016 38.605 31.582
H 54.388 39.94 30.962
H 49.727 26.708 35.676
H 51.112 27.217 36.038
H 53.632 34.943 27.16
H 53.023 33.885 26.257
H 49.217 26.637 38.952
H 48.665 25.475 38.144
H 52.696 32.675 35.088
H 51.581 31.807 34.53
H 51.059 29.7 39.774
H 50.827 28.2 39.796
H 58.742 24.912 38.728
H 58.157 26.247 39.155
H 47.766 31.9 34.735
H 49.562 33.672 36.953
H 50.649 33.087 36.068
H 56.319 26.154 37.392
H 57.424 25.629 36.491
H 54.428 30.438 34.612
H 55.625 29.504 34.634
H 57.098 33.439 30.897
H 57.731 32.907 32.171
H 53.188 27.929 33.852
H 53.428 28.137 35.337
H 51.117 32.027 38.813
H 50.344 30.933 38.097
