65
xyz format
O 44.405 25.896 53.398
O 46.513 21.896 52.613
O 42.322 26.668 57.849
O 41.933 22.698 53.335
O 50.454 25.739 52.124
O 50.526 21.845 51.272
O 49.429 23.459 53.394
O 41.243 25.537 53.974
O 45.694 27.633 55.38
O 44.88 26.431 50.601
O 44.863 22.647 50.426
O 44.636 25.056 56.7
O 41.856 27.655 60.228
O 41.244 23.022 47.716
O 39.505 27.216 58.129
O 42.168 23.661 50.343
O 45.397 24.125 58.744
O 47.465 26.388 51.066
O 48.361 21.726 49.178
O 46.211 24.74 52.907
O 48.268 24.82 57.904
O 44.814 22.78 53.756
O 46.704 23.572 48.165
H 45.946 24.879 58.498
H 44.512 24.502 58.827
H 41.653 24.371 50.746
H 42.829 24.128 49.817
H 40.628 23.668 48.083
H 41.62 22.595 48.497
H 39.415 26.297 57.849
H 47.385 24.298 60.423
H 47.868 21.221 49.837
H 48.961 22.267 49.706
H 45.265 24.938 55.978
H 43.776 24.94 56.277
H 45.33 27.276 50.48
H 44.388 22.332 51.206
H 45.598 23.154 50.794
H 46.298 26.898 55.214
H 44.881 23.582 54.288
H 45.159 22.09 54.336
H 47.376 26.935 51.857
H 48.144 25.746 51.306
H 41.265 26.484 53.785
H 41.787 25.449 54.766
H 42.186 28.313 55.991
H 42.525 28.901 54.632
H 49.843 21.174 51.4
H 48.932 24.282 53.303
H 49.129 22.927 52.646
H 46.848 24.07 52.628
H 46.758 25.417 53.325
H 47.744 24.134 57.47
H 46.66 22.61 48.098
H 46.879 23.728 49.101
H 50.762 24.828 52.212
H 50.4 26.051 53.036
H 42.021 22.86 52.387
H 42.181 23.541 53.735
H 43.824 26.508 52.929
H 46.975 21.743 51.779
H 47.226 21.996 53.255
H 44.022 25.85 54.283
H 42.083 26.09 57.114
H 43.242 26.439 58.031
