395
xyz format
Cl 36.479 47.994 74.989
Cl 39.106 49.969 60.184
Cl 39.148 40.485 72.982
Na 47.489 37.29 62.212
O 47.762 42.709 62.717
O 40.835 39.486 66.723
O 45.322 43.488 68.492
O 37.593 51.641 71.486
O 47.424 54.104 66.271
O 33.862 45.486 72.012
O 41.066 44.348 67.211
O 35.549 49.602 66.684
O 33.544 49.568 62.046
O 37.231 39.743 71.764
O 41.814 46.814 68.166
O 39.204 41.383 60.672
O 36.147 44.891 69.357
O 35.06 50.375 70.509
O 40.079 48.43 70.027
O 34.482 52.566 66.49
O 46.198 44.885 70.629
O 39.93 54.031 60.539
O 36.086 41.205 68.209
O 41.642 47.008 74.741
O 44.69 45.659 69.211
O 40.764 50.231 68.466
O 40.484 46.959 63.032
O 40.793 37.207 69.212
O 39.373 48.924 72.787
O 39.899 36.73 64.839
O 48.289 51.398 67.62
O 46.774 49.983 71.37
O 37.115 37.55 69.466
O 43.274 49.346 66.01
O 34.737 41.613 60.558
O 37.448 52.083 65.074
O 41.77 39.637 69.633
O 36.8 43.442 66.413
O 38.212 46.403 67.42
O 42.424 48.02 61.262
O 37.778 52.699 61.682
O 42.588 50.596 60.018
O 42.179 38.164 73.692
O 35.473 47.645 62.085
O 36.313 55.225 62.82
O 34.184 48.452 59.501
O 44.582 51.93 66.294
O 35.825 45.508 61.706
O 42.721 45.412 66.232
O 41.874 43.285 74.889
O 31.898 50.66 64.627
O 42.331 51.399 63.601
O 47.172 40.967 68.31
O 35.24 43.816 64.776
O 35.956 53.697 65.118
O 44.901 48.673 62.946
O 42.532 51.14 70.219
O 38.207 46.359 70.377
O 41.643 43.515 61.298
O 39.298 50.135 64.821
O 37.603 44.812 75.428
O 38.283 51.259 74.688
O 37.791 47.788 64.487
O 41.03 51.908 71.811
O 40.537 40.052 74.665
O 34.192 44.376 67.594
O 41.016 40.539 71.49
O 49.151 47.639 66.853
O 45.084 44.18 65.307
O 39.839 44.713 60.639
O 34.367 47.331 70.925
O 36.973 43.195 62.621
O 32.96 47.145 64.291
O 43.497 40.364 66.479
O 42.353 36.063 66.932
O 35.494 46.774 64.889
O 39.999 54.215 73.409
O 33.74 53.775 62.964
O 45.25 38.928 69.783
O 31.98 42.344 64.056
O 41.008 43.753 65.09
O 43.846 53.612 67.873
O 47.252 42.258 65.355
O 37.273 44.178 72.248
O 44.837 41.826 64.612
O 46.166 50.465 65.749
O 34.119 50.603 65.335
O 36.277 45.16 58.973
O 41.55 43.194 70.5
O 45.484 55.421 68.155
O 33.286 44.712 63.978
O 43.747 45.497 75.141
O 45.91 45.331 62.631
O 41.46 54.421 67.434
O 42.221 37.833 71.125
O 42.871 48.179 72.138
O 42.267 41.582 63.243
O 47.559 41.7 72.876
O 44.71 49.266 68.374
O 38.109 40.259 65.886
O 46.216 45.517 66.637
O 36.54 48.667 71.704
O 35.862 42.396 70.807
O 41.984 50.858 74.789
O 42.649 37.545 64.368
O 48.296 44.489 73.168
O 38.245 44.847 65.382
O 42.12 39.148 62.0
O 39.178 42.533 69.52
O 46.355 43.944 74.643
O 44.277 43.052 60.919
O 46.948 48.523 73.007
O 37.94 49.073 67.089
O 37.411 49.635 61.542
O 45.674 46.127 73.378
O 39.733 52.288 62.804
O 31.752 47.638 66.94
O 43.87 51.972 72.863
O 41.594 51.597 66.938
O 43.662 53.147 64.699
O 40.748 49.866 63.123
O 45.143 55.064 64.304
O 37.19 54.806 67.572
O 35.986 40.743 63.731
O 48.31 49.359 69.064
O 40.805 46.606 71.031
O 48.719 45.149 76.367
O 42.631 53.482 71.005
O 45.196 38.262 66.439
O 41.943 42.159 66.751
O 44.827 51.62 69.107
O 33.906 41.029 66.336
O 36.398 50.531 63.789
O 38.943 39.695 68.424
O 35.371 50.464 60.959
O 44.481 39.194 63.317
O 49.111 46.466 74.649
O 39.608 45.092 73.903
O 46.766 48.107 66.076
O 33.05 46.901 62.086
O 44.961 53.241 62.831
O 45.983 47.686 70.461
O 48.494 43.335 70.36
O 48.067 45.836 64.366
O 43.75 46.683 63.049
O 40.618 48.928 58.161
O 39.914 52.873 75.823
O 40.244 46.565 66.366
O 42.06 44.904 57.285
H 44.024 42.132 60.772
H 45.103 43.143 60.428
H 43.362 45.812 62.898
H 43.822 46.739 64.01
H 46.521 49.057 73.689
H 47.452 47.871 73.509
H 48.881 44.933 72.541
H 47.413 44.654 72.815
H 47.389 46.445 64.046
H 41.532 41.635 62.619
H 43.049 41.635 62.68
H 43.33 47.334 72.046
H 42.494 48.331 71.263
H 42.595 39.779 61.443
H 41.235 39.526 62.069
H 38.362 42.561 69.005
H 38.975 41.922 70.239
H 47.036 43.262 74.581
H 45.547 43.485 74.382
H 40.08 48.255 58.596
H 41.103 49.338 58.888
H 33.249 46.317 61.343
H 32.44 47.549 61.71
H 46.925 47.624 66.897
H 46.174 47.529 65.58
H 42.508 38.687 71.47
H 42.905 37.602 70.484
H 34.253 53.092 62.515
H 41.487 54.352 66.472
H 41.95 55.232 67.619
H 41.024 43.678 69.851
H 41.814 42.393 70.03
H 34.97 51.213 61.417
H 35.802 50.867 60.195
H 39.113 40.616 68.188
H 38.008 44.174 64.731
H 38.236 45.669 64.876
H 38.768 39.731 69.372
H 36.952 44.888 59.608
H 33.985 51.341 64.728
H 34.302 49.856 64.752
H 39.358 43.904 60.851
H 40.098 44.59 59.717
H 34.254 44.527 66.643
H 34.328 43.425 67.685
H 34.518 48.284 70.928
H 35.214 46.965 70.641
H 48.914 46.892 66.289
H 45.072 41.989 65.534
H 44.086 42.412 64.459
H 43.237 47.223 77.341
H 43.31 53.857 64.148
H 40.77 41.413 71.818
H 40.208 40.215 71.071
H 40.23 39.15 74.819
H 40.686 40.398 75.554
H 32.903 42.563 64.234
H 40.173 43.823 64.61
H 41.581 43.269 64.482
H 44.552 38.618 69.192
H 38.016 44.0 71.659
H 36.561 44.435 71.649
H 42.309 42.538 67.56
H 41.1 41.785 67.034
H 44.421 44.038 65.995
H 44.869 45.054 64.958
H 43.574 53.887 66.988
H 43.073 53.145 68.215
H 48.034 42.636 65.776
H 46.901 42.986 64.827
H 42.89 52.83 65.185
H 40.525 53.866 72.678
H 46.648 45.261 67.461
H 45.376 45.896 66.926
H 38.678 40.603 65.187
H 39.563 54.988 73.028
H 38.12 39.305 65.742
H 47.431 49.422 68.671
H 36.135 43.381 62.18
H 37.597 43.09 61.892
H 42.492 38.443 64.05
H 37.01 48.214 70.993
H 36.802 49.59 71.601
H 36.796 42.5 70.588
H 35.872 42.137 71.737
H 42.204 50.373 75.594
H 41.092 50.557 74.576
H 43.818 49.004 68.115
H 45.271 48.58 67.991
H 33.299 46.694 65.074
H 41.254 49.545 62.366
H 41.226 49.514 63.884
H 32.279 47.732 64.642
H 35.39 46.009 65.469
H 36.071 46.451 64.185
H 45.295 47.009 73.475
H 46.322 46.075 74.092
H 45.41 54.664 65.141
H 38.1 49.088 61.937
H 41.188 51.759 66.077
H 44.493 52.47 72.319
H 43.178 51.714 72.242
H 41.473 45.916 70.939
H 40.554 46.559 71.962
H 41.149 52.222 67.523
H 44.192 40.68 67.069
H 43.0 39.74 67.023
H 37.568 50.51 61.918
H 38.707 48.538 67.324
H 37.394 49.054 67.884
H 42.204 36.869 66.423
H 41.386 42.999 60.524
H 42.007 44.326 60.922
H 45.613 51.075 69.241
H 45.137 52.517 69.281
H 40.488 51.49 71.131
H 40.614 51.632 72.637
H 37.644 45.571 74.833
H 37.575 44.054 74.831
H 38.415 50.12 65.21
H 39.885 50.056 65.583
H 35.176 45.493 62.42
H 36.655 45.713 62.155
H 38.415 48.306 63.963
H 37.039 48.383 64.6
H 43.285 46.192 66.309
H 42.561 45.339 65.282
H 35.138 42.941 64.381
H 41.151 43.114 74.273
H 35.851 44.267 64.18
H 42.645 43.385 74.316
H 42.124 51.624 69.49
H 43.066 50.469 69.777
H 39.01 51.069 74.081
H 42.129 52.192 63.088
H 42.9 50.885 63.013
H 37.828 46.188 71.248
H 38.62 45.52 70.138
H 47.269 40.328 67.592
H 47.312 41.819 67.879
H 34.21 41.912 66.091
H 42.356 38.866 74.331
H 37.175 40.219 70.926
H 37.022 40.415 72.424
H 36.84 52.571 61.492
H 38.211 52.492 60.845
H 39.499 51.489 62.316
H 39.952 51.961 63.686
H 34.856 47.953 62.761
H 36.339 47.873 62.444
H 43.374 47.853 61.225
H 42.159 48.042 60.334
H 38.897 46.186 68.064
H 37.403 46.427 67.946
H 40.153 47.475 66.059
H 40.303 46.052 65.55
H 42.318 39.135 69.017
H 41.298 40.259 69.065
H 36.491 43.781 67.262
H 37.408 42.733 66.657
H 37.82 52.338 64.22
H 44.671 45.276 75.315
H 43.702 46.445 75.314
H 38.17 52.241 65.694
H 45.832 38.767 66.961
H 43.529 53.636 70.686
H 44.469 38.102 67.054
H 42.078 53.693 70.242
H 45.253 52.047 66.979
H 43.806 51.628 66.783
H 35.864 53.546 64.169
H 35.22 54.285 65.329
H 44.073 48.918 63.377
H 45.4 48.229 63.644
H 34.633 42.539 60.811
H 37.208 37.863 68.557
H 36.683 38.285 69.918
H 43.36 49.982 65.29
H 42.46 48.87 65.8
H 33.201 50.367 62.467
H 40.504 37.421 65.136
H 39.86 49.008 73.616
H 39.676 49.677 72.265
H 45.712 44.983 71.457
H 47.01 45.385 70.779
H 48.43 44.059 69.726
H 45.274 47.919 71.072
H 46.749 47.562 71.035
H 47.586 43.016 70.438
H 39.648 46.477 63.022
H 40.193 36.496 68.955
H 40.43 37.984 68.769
H 40.451 47.46 63.857
H 41.372 49.514 68.247
H 40.098 50.188 67.769
H 47.347 51.462 67.82
H 45.83 50.05 71.177
H 47.189 50.49 70.662
H 46.569 45.711 62.036
H 45.238 44.98 62.034
H 45.851 49.843 65.082
H 46.756 51.05 65.257
H 44.052 39.967 63.705
H 44.709 38.651 64.082
H 32.369 44.793 64.268
H 33.219 44.674 63.015
H 36.64 40.769 68.868
H 35.479 41.739 68.738
H 35.9 51.346 63.646
H 35.932 49.88 63.25
H 39.262 44.317 73.444
H 39.677 54.028 61.471
H 40.867 53.801 60.555
H 40.534 45.126 73.631
H 33.314 49.683 61.116
H 37.183 54.771 66.607
H 34.602 50.689 69.719
H 35.123 51.16 71.066
H 40.648 49.131 70.368
H 39.189 48.794 70.116
H 35.499 44.266 69.706
H 35.615 45.505 68.835
H 39.731 41.798 61.366
H 36.408 40.913 62.88
H 38.385 41.137 61.122
H 36.634 41.052 64.375
H 46.242 43.545 68.778
H 45.354 42.884 67.739
H 40.106 38.855 66.757
H 40.878 39.737 65.792
H 47.158 41.964 62.824
H 35.204 49.673 67.583
H 35.3 48.71 66.413
H 40.17 44.339 67.57
H 41.609 44.628 67.959
H 42.432 46.919 68.9
H 42.046 47.534 67.566
H 35.149 52.467 67.181
H 44.733 46.602 69.01
H 43.961 45.34 68.664
H 40.742 47.164 74.431
H 42.189 47.502 74.117
H 38.137 51.622 70.689
H 34.029 44.55 71.845
H 37.78 52.506 71.871
H 47.002 53.359 66.717
