130
xyz format
O 43.478 37.536 32.884
O 42.524 34.909 32.465
O 42.632 28.818 37.602
O 39.314 31.651 33.129
O 34.648 36.102 33.564
O 40.376 33.695 31.332
O 36.424 39.783 33.249
O 38.961 38.536 35.998
O 37.747 40.213 34.957
O 41.526 35.03 30.015
O 40.657 31.601 38.058
O 44.369 38.201 36.674
O 35.47 37.49 31.572
O 34.058 37.958 34.719
O 43.138 32.651 34.92
O 42.857 41.054 38.169
O 41.94 30.858 40.636
O 39.744 33.042 36.293
O 45.549 38.002 39.053
O 40.3 36.05 40.7
O 38.41 35.733 29.344
O 38.483 38.741 32.313
O 39.485 34.394 34.115
O 41.111 30.817 34.847
O 41.28 38.824 37.499
O 43.201 34.415 36.909
O 37.816 35.908 32.996
O 37.781 33.021 39.052
O 40.877 36.138 36.382
O 43.35 36.09 35.489
O 34.01 39.061 36.96
O 42.659 32.133 32.256
O 35.6 37.071 36.932
O 44.661 39.923 34.84
O 40.346 41.032 38.222
O 38.868 36.834 38.438
O 40.099 40.717 33.761
O 44.234 33.826 30.943
O 40.063 36.819 33.649
O 41.964 33.859 39.435
O 42.65 40.602 34.256
O 46.121 34.438 36.228
O 40.67 37.559 30.971
O 44.328 40.414 39.675
H 40.265 34.53 34.667
H 40.624 38.31 37.986
H 42.116 38.58 37.913
H 38.77 34.277 34.753
H 40.191 40.296 38.827
H 44.658 40.253 35.747
H 45.254 39.162 34.875
H 36.187 37.673 36.456
H 35.808 37.235 37.86
H 40.498 38.324 31.534
H 40.862 36.851 31.598
H 38.213 40.449 37.7
H 45.992 34.926 35.406
H 38.043 33.896 38.739
H 42.577 35.751 35.021
H 44.083 35.898 34.891
H 43.312 31.797 32.883
H 41.847 32.18 32.775
H 33.569 38.245 37.226
H 41.517 36.814 36.638
H 40.701 35.665 37.204
H 45.621 41.857 37.343
H 46.603 39.614 36.554
H 40.661 37.531 33.908
H 41.885 31.822 40.643
H 39.586 36.613 34.463
H 45.908 37.144 38.796
H 45.783 38.58 38.316
H 42.851 40.006 33.524
H 42.51 33.367 35.077
H 43.318 32.305 35.803
H 42.029 30.606 34.639
H 42.361 41.65 37.594
H 43.325 40.478 37.552
H 37.057 36.497 32.899
H 38.16 35.827 32.098
H 42.765 34.868 37.641
H 44.017 34.078 37.3
H 39.473 33.244 37.197
H 40.704 33.139 36.314
H 38.343 38.266 33.141
H 38.145 38.135 31.641
H 40.984 35.817 40.059
H 39.633 35.362 40.583
H 38.656 36.467 29.921
H 37.993 35.101 29.942
H 38.058 37.253 38.12
H 38.754 35.906 38.2
H 34.802 38.519 34.971
H 35.165 36.814 30.954
H 35.782 38.201 30.998
H 44.529 37.28 36.916
H 43.517 38.174 36.221
H 43.853 42.287 36.108
H 43.932 43.127 38.195
H 42.414 33.146 38.966
H 41.065 33.833 39.083
H 40.581 40.135 33.16
H 37.19 32.523 33.46
H 40.892 31.151 37.237
H 40.292 30.898 38.609
H 37.912 38.41 40.776
H 43.923 41.163 40.131
H 40.912 35.712 29.717
H 36.961 37.803 28.913
H 38.388 40.667 35.518
H 37.176 39.754 35.585
H 38.465 37.708 36.006
H 39.879 38.252 35.902
H 36.036 39.422 37.781
H 35.811 39.058 33.079
H 36.715 40.05 32.368
H 40.854 33.075 30.768
H 41.873 29.309 37.941
H 39.546 33.842 30.861
H 44.538 33.631 31.838
H 43.587 37.82 33.8
H 42.632 37.071 32.887
H 35.068 35.663 34.314
H 34.99 35.625 32.798
H 39.104 32.258 32.408
H 39.691 32.224 33.809
H 43.124 34.662 33.181
H 41.649 34.701 32.818
H 45.945 36.067 32.566
H 45.742 37.399 33.267
