236
xyz format
O 36.862 74.537 51.0
O 33.994 67.104 54.839
O 40.58 71.96 51.324
O 41.834 69.645 59.551
O 33.588 72.568 49.856
O 43.198 71.925 49.376
O 44.78 72.802 57.887
O 37.82 65.132 59.359
O 44.544 69.498 54.368
O 37.013 71.187 63.435
O 39.582 63.43 60.735
O 39.239 72.091 57.694
O 41.376 64.83 58.256
O 37.736 73.589 59.468
O 39.841 71.263 61.205
O 38.371 70.189 48.289
O 32.782 67.915 58.422
O 39.659 72.374 53.94
O 46.719 72.536 55.898
O 41.645 65.357 60.377
O 35.516 72.018 57.872
O 42.7 66.81 51.56
O 42.36 74.43 51.431
O 36.158 68.14 47.875
O 44.145 66.322 55.699
O 42.549 75.651 53.252
O 36.026 71.251 53.232
O 42.154 71.945 60.486
O 40.217 74.827 57.991
O 46.985 74.753 59.777
O 39.046 75.707 55.203
O 40.433 75.629 51.747
O 47.555 76.079 57.71
O 36.625 68.739 52.341
O 29.895 70.243 51.165
O 37.42 62.98 54.343
O 38.248 67.756 61.842
O 43.485 63.394 56.677
O 40.987 73.689 47.57
O 38.714 68.244 49.258
O 37.86 65.411 53.471
O 39.761 69.231 57.438
O 34.204 69.5 60.717
O 32.718 71.191 58.814
O 32.416 70.089 49.615
O 42.977 69.149 57.488
O 43.83 66.339 58.582
O 35.955 69.295 58.382
O 36.687 71.866 49.769
O 43.634 67.596 53.742
O 37.313 73.439 56.155
O 34.639 70.179 56.839
O 46.061 73.681 54.138
O 41.672 65.82 55.48
O 43.588 75.185 57.835
O 34.127 65.404 56.244
O 44.778 74.834 55.99
O 32.798 64.958 50.387
O 39.893 67.174 52.309
O 40.951 70.726 63.494
O 40.938 68.178 49.511
O 42.982 73.392 53.7
O 38.92 76.07 49.131
O 43.308 73.884 60.755
O 39.358 65.408 61.99
O 40.191 69.018 55.291
O 38.105 64.816 56.457
O 38.824 72.795 48.166
O 34.128 64.994 52.731
O 44.864 75.995 53.24
O 32.643 70.762 53.145
O 34.86 72.365 55.699
O 31.202 67.111 60.721
O 41.049 76.021 56.058
O 37.832 70.091 54.695
O 41.966 73.232 56.525
O 30.045 68.417 54.438
O 43.944 71.675 52.405
O 39.716 67.168 59.899
O 31.771 65.823 54.513
O 38.197 65.74 51.026
O 41.787 76.941 48.916
O 42.354 69.544 51.287
O 35.559 67.152 51.233
O 44.167 77.187 57.112
O 31.841 68.853 61.903
H 38.742 65.061 57.14
H 37.724 65.66 56.185
H 32.22 70.367 58.748
H 33.015 71.206 59.733
H 39.239 75.232 49.489
H 39.003 76.682 49.872
H 34.642 70.333 60.931
H 34.933 68.873 60.632
H 34.813 67.242 50.627
H 36.262 66.79 50.68
H 36.453 73.853 56.297
H 38.295 65.428 50.117
H 38.852 65.226 51.515
H 43.064 66.817 53.729
H 39.072 67.617 59.338
H 40.221 66.626 59.28
H 44.598 71.665 51.695
H 43.106 71.532 51.947
H 34.971 65.48 56.706
H 33.478 65.672 56.907
H 43.285 75.768 58.543
H 43.135 74.352 58.015
H 45.375 75.335 55.421
H 44.189 74.387 55.368
H 35.393 70.153 56.237
H 37.26 72.62 56.663
H 45.257 73.338 53.729
H 41.484 65.54 54.575
H 41.425 66.753 55.488
H 34.24 69.305 56.745
H 35.662 72.094 55.234
H 34.194 72.408 55.001
H 33.184 69.989 52.94
H 32.208 70.524 53.973
H 37.701 68.07 61.112
H 39.072 68.248 61.74
H 36.893 63.76 54.557
H 36.89 62.52 53.68
H 31.108 67.518 59.851
H 31.932 66.489 60.605
H 32.541 69.463 62.168
H 31.679 68.331 62.698
H 38.445 70.545 54.104
H 37.445 70.805 55.217
H 31.576 69.677 49.853
H 32.612 70.661 50.367
H 43.404 69.298 56.635
H 43.713 68.945 58.079
H 37.481 66.12 54.005
H 38.426 65.586 62.168
H 39.807 66.203 62.302
H 38.796 65.421 53.708
H 44.214 65.47 58.411
H 36.125 71.78 50.549
H 44.707 75.207 52.706
H 39.384 68.564 55.019
H 40.39 69.599 54.546
H 42.713 74.57 60.428
H 43.828 73.641 59.979
H 36.239 72.534 49.235
H 35.666 70.045 58.918
H 38.851 68.923 57.532
H 40.289 68.447 57.632
H 36.445 68.744 59.005
H 38.676 67.625 49.999
H 44.565 66.948 58.436
H 43.654 64.068 56.006
H 42.522 63.356 56.726
H 30.047 70.755 51.969
H 41.434 76.781 55.604
H 41.775 75.684 56.597
H 38.644 75.024 54.652
H 39.303 76.39 54.571
H 37.934 73.095 47.945
H 38.945 73.091 49.077
H 40.659 73.98 58.129
H 39.705 74.69 57.184
H 35.828 72.175 53.035
H 42.766 71.387 60.982
H 41.695 72.447 61.171
H 35.158 70.861 53.398
H 42.841 76.003 54.102
H 42.577 76.418 52.665
H 44.669 65.966 54.97
H 44.798 66.768 56.253
H 36.207 72.143 58.535
H 34.699 72.047 58.384
H 43.039 65.92 51.397
H 43.279 67.375 51.033
H 41.689 64.541 60.89
H 37.408 69.092 52.781
H 35.931 68.824 53.007
H 39.772 74.94 51.603
H 40.153 76.046 52.572
H 36.671 67.611 48.499
H 41.609 66.049 61.049
H 42.071 73.541 51.674
H 43.081 74.275 50.809
H 40.362 72.142 54.559
H 39.028 72.864 54.482
H 46.731 72.001 56.702
H 46.711 73.444 56.227
H 39.47 71.074 60.334
H 40.444 70.525 61.362
H 37.664 70.582 63.059
H 41.918 65.467 57.774
H 40.81 64.448 57.574
H 38.722 71.277 57.657
H 39.444 72.275 56.769
H 38.579 73.954 59.171
H 37.079 74.11 58.99
H 32.447 68.451 57.692
H 37.731 70.886 48.098
H 33.544 68.413 58.741
H 31.529 65.022 54.994
H 31.281 65.75 53.685
H 39.647 64.193 60.148
H 43.237 72.641 54.25
H 42.115 73.644 54.043
H 41.832 67.821 49.434
H 40.898 68.848 48.817
H 39.806 68.132 52.396
H 40.27 67.057 51.428
H 41.185 69.8 63.634
H 39.986 70.723 63.505
H 44.888 70.363 54.624
H 43.388 77.179 56.542
H 45.34 73.587 57.941
H 44.458 72.812 56.977
H 41.193 73.543 56.038
H 42.145 72.365 56.14
H 42.484 72.273 49.924
H 34.573 67.535 55.48
H 33.65 67.836 54.312
H 37.264 74.264 50.165
H 36.086 75.041 50.726
H 40.053 72.667 50.93
H 40.613 71.287 50.633
H 33.997 72.338 50.7
H 33.162 73.416 50.032
H 37.423 65.225 60.234
H 37.65 65.984 58.938
H 33.612 65.555 53.324
H 34.242 65.539 51.942
H 40.879 69.573 59.427
H 42.129 68.727 59.59
H 44.905 77.227 56.491
H 41.079 77.291 49.472
H 42.202 69.789 50.365
H 41.648 68.914 51.476
