153
xyz format
O 68.359 43.086 54.523
O 71.236 40.427 49.196
O 69.456 35.353 54.513
O 72.346 50.641 55.342
O 70.887 45.059 49.576
O 75.05 43.422 56.897
O 73.858 46.883 49.56
O 72.978 36.736 54.334
O 73.65 44.463 53.985
O 74.299 42.512 49.231
O 74.787 41.464 51.604
O 69.345 41.933 58.581
O 69.07 44.581 57.195
O 77.402 45.196 48.195
O 72.837 46.478 52.5
O 74.228 38.59 56.528
O 66.814 46.949 52.976
O 76.699 39.838 51.279
O 75.344 40.312 46.613
O 75.243 50.565 51.292
O 74.787 49.243 53.663
O 68.392 41.272 55.898
O 73.252 44.143 46.298
O 66.915 40.92 53.767
O 73.4 37.316 49.901
O 76.421 51.178 53.86
O 69.784 35.492 51.381
O 71.021 36.693 56.206
O 76.15 42.245 55.385
O 71.943 43.874 48.046
O 72.258 39.458 51.406
O 68.608 48.549 53.638
O 68.57 43.342 51.808
O 70.629 47.112 60.062
O 74.46 36.18 52.49
O 70.023 49.895 51.219
O 69.278 44.19 61.184
O 73.282 46.667 61.207
O 75.801 45.695 54.783
O 75.517 46.397 47.702
O 68.2 38.386 55.036
O 77.2 42.696 46.561
O 69.972 37.71 59.081
O 70.24 45.853 51.53
O 72.893 43.61 51.991
O 70.68 38.392 52.51
O 72.47 48.32 50.95
O 71.313 39.745 56.801
O 69.778 41.124 54.197
O 74.956 38.05 53.538
O 75.155 50.796 56.369
O 72.686 51.383 52.983
O 69.57 38.454 49.617
O 71.166 47.902 54.0
O 72.055 41.22 54.258
O 74.722 40.866 57.304
O 71.725 44.324 58.455
H 69.06 44.009 51.312
H 68.945 42.506 51.501
H 68.939 48.313 52.763
H 72.377 48.871 50.162
H 72.949 48.885 51.568
H 72.0 43.571 52.357
H 73.363 42.907 52.456
H 68.977 42.06 61.665
H 76.742 45.818 54.607
H 75.623 46.3 55.513
H 75.093 40.57 58.145
H 73.935 41.361 57.563
H 72.002 40.262 54.152
H 71.885 41.559 53.37
H 74.964 45.681 48.038
H 73.793 36.627 51.954
H 75.022 35.743 51.838
H 72.72 40.018 52.041
H 72.652 38.587 51.539
H 70.676 47.072 54.053
H 71.105 48.146 53.068
H 76.722 42.199 47.237
H 70.285 48.967 51.162
H 69.954 43.749 60.654
H 69.896 38.627 58.79
H 70.826 37.429 58.729
H 68.049 38.49 54.088
H 69.145 38.198 55.098
H 73.335 51.695 53.625
H 74.005 48.677 53.685
H 74.884 49.535 54.578
H 67.914 40.443 55.771
H 68.136 41.55 56.786
H 75.849 50.918 50.628
H 75.259 51.229 51.992
H 69.731 47.321 60.346
H 69.377 38.704 50.529
H 70.269 37.794 49.704
H 67.722 40.549 53.388
H 76.605 41.853 56.142
H 69.81 40.183 53.986
H 69.685 41.55 53.336
H 76.659 41.935 54.626
H 72.206 43.377 48.83
H 71.387 43.254 47.557
H 70.606 38.201 53.454
H 70.428 37.562 52.087
H 69.237 34.867 50.889
H 66.299 40.936 53.024
H 76.989 50.626 53.307
H 76.95 51.971 54.011
H 72.67 36.702 50.046
H 73.045 37.948 49.262
H 70.246 37.075 56.637
H 71.07 37.164 55.364
H 74.526 40.825 46.623
H 75.466 40.057 47.536
H 75.821 51.259 56.893
H 74.492 50.535 57.02
H 72.177 39.464 57.124
H 71.219 39.28 55.96
H 72.394 49.961 54.658
H 77.212 40.653 51.211
H 76.119 39.866 50.508
H 75.165 38.59 56.759
H 73.847 37.926 57.115
H 73.572 45.885 52.301
H 72.72 46.386 53.454
H 75.57 41.95 51.891
H 74.828 40.644 52.111
H 77.185 44.418 48.724
H 75.694 37.52 53.865
H 74.587 38.447 54.337
H 69.756 45.122 57.605
H 68.649 45.181 56.567
H 74.552 44.165 53.814
H 73.506 44.242 54.913
H 74.059 41.827 48.594
H 74.59 43.247 48.677
H 74.146 43.549 57.211
H 75.506 44.225 57.18
H 70.174 44.494 49.253
H 70.63 45.943 49.285
H 72.733 35.864 54.668
H 72.363 36.884 53.605
H 69.542 46.328 51.998
H 70.928 46.519 51.406
H 69.507 36.233 54.119
H 74.512 47.335 50.108
H 73.653 46.083 50.059
H 72.075 40.901 49.254
H 71.501 39.506 49.079
H 68.338 43.926 54.048
H 67.497 43.045 54.956
H 71.825 44.999 59.138
H 71.303 43.589 58.918
