62
xyz format
Cl 61.242 67.541 41.063
O 64.212 71.388 37.674
O 62.353 69.968 37.194
O 63.709 72.529 40.911
O 58.935 67.608 35.436
O 58.557 68.338 40.644
O 60.002 66.629 37.379
O 59.556 70.163 37.566
O 62.671 68.238 35.244
O 56.78 69.591 40.979
O 66.681 69.218 37.259
O 54.911 71.083 38.685
O 57.402 73.198 40.103
O 65.235 70.63 41.03
O 61.496 69.725 39.274
O 58.818 70.08 34.572
O 60.835 74.397 40.674
O 57.965 71.691 37.41
O 60.253 71.74 39.196
O 61.195 72.648 42.534
O 54.164 73.037 36.811
H 60.173 75.099 40.662
H 61.494 74.713 41.304
H 58.591 65.48 39.489
H 61.913 70.167 40.024
H 61.795 68.811 39.351
H 61.827 72.163 41.989
H 60.396 72.672 41.993
H 59.474 71.231 43.383
H 58.284 73.087 39.728
H 56.92 73.677 39.417
H 65.031 70.162 41.849
H 65.544 69.932 40.439
H 55.526 71.807 38.859
H 54.148 71.292 39.239
H 60.052 72.41 38.531
H 60.957 72.143 39.721
H 57.398 69.917 41.645
H 56.913 70.188 40.232
H 57.035 71.458 37.297
H 58.272 71.855 36.51
H 62.099 68.79 34.695
H 66.483 69.902 37.911
H 59.072 70.06 38.395
H 59.377 69.341 37.092
H 59.136 68.324 39.872
H 59.149 68.135 41.379
H 60.785 67.186 37.284
H 59.447 67.117 37.999
H 59.844 67.753 35.145
H 54.707 72.246 36.707
H 58.211 69.972 35.314
H 59.685 70.143 34.992
H 65.219 67.557 36.855
H 63.648 72.153 37.503
H 64.306 70.975 36.806
H 63.522 71.803 40.303
H 64.069 73.219 40.34
H 57.638 71.923 33.963
H 57.256 67.33 36.899
H 61.63 69.355 37.015
H 62.022 70.814 36.868
