57
xyz format
O 34.964 69.177 43.22
O 32.516 68.551 39.64
O 32.873 59.85 43.046
O 26.463 66.289 46.959
O 26.283 62.573 46.28
O 32.05 65.561 43.145
O 31.974 67.306 45.976
O 31.973 67.659 42.066
O 34.074 64.267 46.582
O 31.681 64.007 47.357
O 31.612 63.976 40.661
O 27.453 65.675 43.042
O 31.949 61.294 48.233
O 31.187 61.561 44.972
O 28.05 64.412 46.663
O 34.507 67.204 46.762
O 29.996 63.967 43.94
H 31.399 62.502 44.946
H 30.3 61.535 45.352
H 28.679 65.066 46.992
H 28.06 64.545 45.707
H 34.318 66.534 46.093
H 34.24 66.785 47.589
H 32.07 58.101 45.48
H 29.434 62.407 41.463
H 30.651 64.063 40.675
H 31.776 63.158 41.147
H 27.09 61.954 43.831
H 31.352 60.967 47.549
H 31.553 62.133 48.501
H 27.813 66.422 43.537
H 27.881 64.907 43.442
H 32.889 67.809 42.33
H 31.485 68.352 42.528
H 31.93 64.916 47.568
H 33.384 64.533 45.961
H 28.305 59.886 44.12
H 29.344 59.592 43.052
H 30.972 64.109 46.71
H 29.961 67.804 46.711
H 34.093 65.179 40.788
H 34.105 61.673 47.955
H 30.446 64.498 44.609
H 29.439 63.372 44.457
H 32.156 66.398 45.705
H 32.633 67.825 45.498
H 31.485 66.182 43.621
H 31.607 65.454 42.294
H 26.073 65.439 46.72
H 26.753 66.655 46.114
H 26.45 62.792 47.205
H 33.397 59.588 43.813
H 32.095 60.271 43.432
H 32.633 69.025 40.472
H 34.373 68.687 43.805
H 28.941 60.445 47.547
H 30.256 64.412 48.983
