372
xyz format
Cl 62.646 58.926 60.688
O 63.168 58.198 58.623
O 61.531 64.618 56.662
O 55.968 59.682 62.992
O 55.282 69.903 61.529
O 58.119 54.41 60.805
O 48.479 61.247 49.622
O 58.796 59.374 64.961
O 57.005 69.809 55.479
O 55.71 72.65 54.97
O 53.925 62.227 47.433
O 55.515 65.421 64.893
O 51.37 72.079 54.307
O 59.139 60.722 52.596
O 51.694 59.22 57.721
O 52.85 63.112 63.59
O 57.043 72.786 59.531
O 61.128 58.983 57.055
O 61.631 61.417 54.456
O 66.394 67.533 57.174
O 48.185 65.582 49.733
O 59.878 66.912 54.031
O 54.545 65.38 49.164
O 61.224 67.401 63.609
O 61.826 62.956 59.73
O 56.736 71.876 56.756
O 58.319 68.869 61.621
O 57.782 65.822 55.598
O 57.278 73.401 62.757
O 57.659 64.519 48.088
O 59.054 65.661 65.039
O 54.899 66.253 56.186
O 65.671 61.294 58.902
O 61.228 59.219 53.159
O 49.436 65.964 51.511
O 50.096 62.503 52.401
O 59.658 68.709 55.633
O 54.567 68.535 53.18
O 51.385 60.879 53.472
O 61.419 67.367 51.856
O 47.457 65.997 56.091
O 60.537 63.447 55.094
O 55.729 60.392 59.571
O 56.02 70.466 65.296
O 54.912 63.025 55.92
O 53.481 67.473 57.748
O 53.677 64.195 67.324
O 55.779 60.703 52.103
O 49.581 59.632 54.869
O 60.777 65.268 60.86
O 57.848 68.567 65.353
O 56.971 65.614 66.749
O 58.991 62.781 56.522
O 56.551 62.57 64.886
O 60.085 65.541 47.945
O 52.149 60.996 55.772
O 64.193 63.194 52.568
O 59.135 57.985 54.928
O 54.5 64.222 51.801
O 60.014 61.846 50.729
O 59.051 56.579 63.042
O 53.335 59.822 59.477
O 52.648 62.02 61.581
O 59.661 62.547 61.16
O 62.932 65.063 51.091
O 64.807 59.715 55.941
O 52.154 68.613 63.906
O 59.342 57.664 49.762
O 61.51 56.232 56.192
O 51.532 69.267 56.597
O 52.438 69.578 54.231
O 57.823 72.214 52.872
O 62.334 70.071 60.867
O 61.59 60.384 58.908
O 57.776 62.291 50.856
O 54.662 56.543 64.089
O 57.288 67.433 57.747
O 52.492 64.562 57.905
O 63.034 70.06 51.11
O 59.691 61.441 58.761
O 54.666 67.197 63.153
O 62.089 69.299 55.23
O 49.8 68.0 55.179
O 56.04 65.471 60.968
O 55.711 66.633 47.31
O 61.23 55.035 60.138
O 54.39 58.038 61.041
O 60.355 71.783 61.643
O 55.221 57.942 52.735
O 58.02 64.553 53.514
O 50.798 67.973 52.906
O 56.798 62.435 53.25
O 62.023 66.342 54.868
O 46.19 64.401 57.621
O 55.395 58.188 65.856
O 63.676 66.559 57.751
O 58.978 69.657 53.142
O 65.904 67.722 59.316
O 59.831 58.823 61.169
O 53.778 58.748 63.227
O 53.114 71.179 59.877
O 50.216 64.356 56.489
O 50.457 68.681 61.555
O 53.651 66.875 65.295
O 58.993 65.84 58.401
O 58.034 60.286 47.16
O 56.94 69.882 51.128
O 55.129 70.258 57.088
O 58.134 55.782 52.161
O 57.663 61.028 61.846
O 50.522 60.756 60.53
O 51.672 68.261 59.316
O 55.939 60.065 56.213
O 56.236 63.753 58.922
O 52.588 64.842 52.716
O 62.963 61.964 56.456
O 59.605 66.027 50.135
O 51.743 56.608 61.237
O 58.796 56.877 59.666
O 58.791 66.438 62.945
O 49.576 58.58 52.507
O 57.798 60.473 57.314
O 52.012 63.466 48.398
O 51.17 59.369 62.253
O 56.23 60.142 49.067
O 53.609 61.002 51.89
O 57.065 70.114 59.193
O 60.825 67.465 60.918
O 62.641 65.124 62.733
O 56.036 67.297 59.66
O 56.131 58.195 58.527
O 49.277 63.91 50.661
O 64.154 70.009 56.571
O 63.848 61.673 60.101
O 51.262 71.473 57.669
H 56.986 66.541 57.532
H 52.734 66.987 65.575
H 54.149 67.425 65.912
H 57.627 67.769 56.908
H 54.834 56.055 64.904
H 59.774 65.658 58.939
H 58.367 65.156 58.667
H 56.188 59.276 55.716
H 50.53 63.626 57.038
H 49.515 64.756 57.018
H 50.777 67.808 61.295
H 49.644 68.789 61.046
H 62.854 64.196 62.576
H 62.469 65.163 63.682
H 56.147 60.79 55.611
H 60.056 59.601 61.693
H 60.56 58.213 61.339
H 46.838 65.028 57.966
H 63.36 67.103 57.019
H 64.12 65.822 57.314
H 58.844 68.798 53.562
H 59.938 69.75 53.111
H 60.627 68.235 61.466
H 57.331 70.644 59.954
H 56.149 70.377 59.04
H 60.421 67.679 60.068
H 53.406 70.897 59.002
H 53.801 71.796 60.16
H 52.996 58.483 63.727
H 53.729 59.712 63.219
H 56.07 57.841 65.259
H 54.717 58.532 65.261
H 65.383 68.502 59.085
H 65.255 67.007 59.322
H 51.996 59.137 61.81
H 50.743 58.516 62.403
H 61.715 66.944 55.558
H 62.735 65.85 55.294
H 53.866 57.27 60.781
H 55.021 57.679 61.677
H 60.824 55.595 59.465
H 55.115 67.328 47.615
H 56.197 66.382 48.105
H 57.103 61.787 53.898
H 56.321 63.084 53.782
H 57.875 61.335 50.763
H 57.255 62.544 50.084
H 57.48 61.384 57.351
H 57.259 60.015 57.971
H 52.79 63.58 48.957
H 58.654 64.099 52.945
H 57.326 64.834 52.905
H 49.086 59.214 51.969
H 48.918 58.254 53.133
H 54.384 58.423 52.746
H 55.575 58.119 51.855
H 58.401 57.716 59.4
H 58.217 56.565 60.373
H 61.213 59.53 59.155
H 61.853 60.771 59.753
H 51.934 55.783 60.774
H 56.552 65.032 61.658
H 55.399 66.0 61.459
H 50.949 56.406 61.748
H 59.754 66.913 50.49
H 59.589 65.465 50.92
H 58.469 72.125 53.583
H 57.28 71.42 52.955
H 52.824 59.013 59.601
H 53.859 59.644 58.686
H 59.201 56.028 63.82
H 50.252 67.172 55.383
H 60.83 62.184 50.338
H 60.021 60.909 50.498
H 49.229 67.773 54.435
H 53.215 64.64 58.54
H 51.841 65.201 58.22
H 62.178 69.124 56.176
H 62.761 68.735 54.828
H 63.015 69.899 52.062
H 54.647 68.0 63.688
H 53.738 66.938 63.097
H 59.275 60.602 58.994
H 59.94 61.325 57.836
H 52.619 61.279 60.963
H 52.599 62.796 61.009
H 59.517 62.579 62.113
H 59.584 61.609 60.947
H 63.215 65.577 51.858
H 58.543 58.0 49.337
H 56.792 68.977 51.429
H 62.305 56.506 56.666
H 60.831 56.208 56.878
H 57.886 70.018 51.266
H 52.193 69.939 56.391
H 51.852 68.481 56.136
H 52.552 68.636 54.056
H 51.513 69.742 54.01
H 64.888 60.489 55.369
H 64.124 59.185 55.512
H 52.665 68.858 63.124
H 51.627 67.862 63.608
H 62.05 69.887 61.771
H 61.527 70.371 60.429
H 57.539 59.499 47.421
H 58.553 60.5 47.945
H 54.723 63.373 51.399
H 54.654 64.078 52.743
H 52.488 63.967 53.113
H 52.763 65.417 53.471
H 56.645 63.529 64.834
H 57.38 62.238 64.52
H 63.57 62.473 52.415
H 59.449 57.375 54.248
H 59.835 58.648 54.982
H 63.394 61.494 57.181
H 63.614 62.626 56.193
H 60.455 64.814 47.429
H 59.909 66.224 47.285
H 54.28 64.407 66.601
H 55.739 61.186 51.269
H 56.524 60.1 51.984
H 50.258 58.952 54.765
H 49.447 59.678 55.824
H 57.431 68.095 64.621
H 52.874 66.896 57.268
H 53.805 68.079 57.07
H 57.431 65.266 67.523
H 56.568 60.642 59.977
H 55.109 61.054 59.9
H 61.659 64.884 60.784
H 60.303 64.644 61.423
H 56.054 65.69 67.042
H 58.877 63.508 57.146
H 58.307 62.937 55.86
H 55.573 62.913 56.614
H 54.46 62.172 55.894
H 59.947 63.094 54.416
H 61.356 63.625 54.615
H 64.26 62.545 60.131
H 63.907 61.36 61.012
H 52.079 60.238 53.273
H 50.588 60.476 53.105
H 46.816 66.334 55.452
H 48.31 66.182 55.679
H 61.342 66.589 52.422
H 61.244 68.105 52.453
H 60.054 68.658 56.512
H 59.906 69.587 55.32
H 50.432 63.388 52.587
H 50.477 62.289 51.54
H 50.3 65.569 51.686
H 60.443 58.946 52.669
H 61.831 58.471 53.063
H 54.836 65.455 55.646
H 65.9 61.312 57.965
H 55.532 68.494 53.166
H 59.979 65.771 65.29
H 58.617 66.427 65.431
H 54.893 65.919 57.091
H 57.31 64.471 48.987
H 61.967 67.83 63.167
H 55.369 63.333 58.861
H 56.082 64.646 58.592
H 52.033 60.087 55.468
H 52.764 60.913 56.512
H 60.988 66.68 63.012
H 64.733 69.468 57.121
H 60.983 63.291 59.402
H 62.324 62.76 58.927
H 57.176 71.188 57.271
H 56.487 72.534 57.416
H 59.207 66.633 53.396
H 59.763 66.3 54.769
H 54.804 64.451 49.113
H 58.824 69.41 61.001
H 57.799 68.291 61.049
H 54.671 65.602 50.095
H 56.912 66.12 55.304
H 57.594 65.007 56.079
H 47.767 66.44 49.586
H 50.96 71.054 58.485
H 51.676 72.291 57.972
H 54.803 65.234 64.269
H 56.266 65.635 64.325
H 55.59 72.083 54.198
H 56.029 73.481 54.597
H 57.814 70.315 55.336
H 54.764 62.503 47.821
H 56.935 69.259 54.69
H 66.54 68.26 56.557
H 65.934 66.871 56.644
H 62.583 61.272 54.402
H 61.363 61.528 53.535
H 51.194 67.527 52.147
H 58.904 67.373 63.154
H 58.471 66.443 62.035
H 50.836 58.953 57.369
H 51.519 60.08 58.123
H 52.024 71.688 54.9
H 59.181 61.305 53.363
H 58.535 60.022 52.872
H 53.454 63.496 64.238
H 52.442 63.882 63.174
H 59.295 59.347 64.135
H 50.577 61.345 59.767
H 50.717 59.885 60.162
H 62.094 64.337 57.394
H 60.849 65.152 57.089
H 58.032 60.418 62.498
H 51.13 68.268 58.517
H 52.245 69.031 59.21
H 58.88 54.477 61.395
H 57.362 54.424 61.404
H 54.654 70.267 56.248
H 55.566 69.397 57.094
H 57.47 61.822 62.359
H 55.929 58.108 59.467
H 56.484 57.329 58.287
H 56.6 73.596 59.813
H 57.911 72.841 59.95
H 55.319 66.847 59.196
H 55.983 68.206 59.338
H 61.074 59.732 56.449
H 60.219 58.865 57.356
H 48.572 63.425 51.108
H 49.2 63.63 49.741
H 63.011 57.332 59.021
H 64.079 58.402 58.868
H 53.106 61.386 51.161
H 53.736 61.742 52.497
H 55.43 70.853 61.437
H 55.388 69.745 62.475
H 56.685 59.743 49.819
H 55.971 59.639 62.028
H 56.11 58.767 63.263
H 55.298 60.112 49.32
