64
xyz format
Cl 61.242 67.541 41.063
O 64.212 71.388 37.674
O 61.382 64.936 39.073
O 63.17 64.233 36.155
O 67.057 60.849 37.867
O 60.002 66.629 37.379
O 62.79 61.89 41.071
O 64.727 61.208 39.209
O 63.74 64.362 40.428
O 65.254 67.849 39.795
O 62.671 68.238 35.244
O 66.681 69.218 37.259
O 64.38 67.73 37.299
O 65.461 65.494 37.627
O 61.051 62.737 39.649
O 66.095 62.975 38.981
O 64.667 68.385 43.334
O 63.637 61.443 37.313
O 65.072 65.336 34.765
O 68.166 63.878 37.838
O 63.598 66.9 42.117
O 69.656 64.098 39.441
O 64.951 64.335 43.018
H 64.137 69.148 43.599
H 65.576 68.695 43.425
H 68.424 62.068 36.614
H 62.082 65.622 43.184
H 65.964 63.257 39.895
H 65.275 63.232 38.542
H 67.308 64.303 37.714
H 68.783 64.476 37.398
H 67.562 70.805 40.432
H 64.338 65.815 35.168
H 64.365 66.198 44.152
H 64.37 60.876 37.043
H 60.886 63.121 40.519
H 65.031 70.162 41.849
H 65.544 69.932 40.439
H 65.816 65.74 38.49
H 64.528 65.318 37.804
H 63.332 67.905 34.624
H 65.473 64.901 42.436
H 64.478 63.754 42.41
H 66.483 69.902 37.911
H 66.988 68.474 37.792
H 66.326 62.6 42.714
H 60.785 67.186 37.284
H 63.526 61.396 41.454
H 64.562 67.26 39.469
H 63.481 63.787 39.697
H 64.027 65.173 39.991
H 65.917 67.247 40.155
H 63.758 67.144 36.849
H 65.219 67.557 36.855
H 66.648 60.812 36.993
H 64.306 70.975 36.806
H 63.485 63.321 36.176
H 64.421 66.674 41.668
H 63.334 67.733 41.708
H 63.923 60.709 39.399
H 65.206 61.198 40.047
H 61.236 65.419 39.896
H 62.208 65.305 38.734
H 65.914 62.568 35.888
