177
xyz format
O 64.909 40.94 43.163
O 66.687 42.664 35.601
O 62.081 40.221 36.613
O 62.173 44.389 42.685
O 67.561 37.754 41.403
O 66.266 39.062 38.048
O 65.857 38.14 34.556
O 62.061 43.908 37.631
O 69.679 46.657 34.673
O 65.778 46.918 42.973
O 64.222 45.19 42.549
O 66.673 43.966 42.372
O 55.723 41.84 36.029
O 67.857 40.342 36.176
O 62.508 37.306 37.731
O 62.906 39.422 43.925
O 66.572 35.879 42.058
O 56.584 37.734 36.1
O 57.742 36.64 38.365
O 63.979 46.591 31.346
O 60.727 45.296 32.895
O 61.117 37.571 41.945
O 69.825 43.099 38.317
O 62.966 35.992 41.161
O 63.267 47.106 33.72
O 60.062 44.345 41.674
O 69.296 36.144 35.877
O 56.982 41.707 39.823
O 59.668 41.292 39.142
O 57.482 43.742 42.228
O 65.785 33.664 33.61
O 60.145 38.919 37.668
O 64.221 38.518 40.79
O 65.088 45.87 34.132
O 61.483 38.114 30.98
O 65.514 48.418 35.6
O 70.372 42.151 35.518
O 63.748 37.969 35.67
O 60.14 41.978 34.969
O 58.074 36.784 40.546
O 67.213 37.377 36.114
O 67.605 37.375 33.344
O 65.53 42.804 37.469
O 69.867 37.018 41.266
O 67.39 45.465 35.564
O 60.816 46.482 35.409
O 69.764 37.35 38.359
O 60.695 40.219 43.778
O 61.644 42.892 39.623
O 59.438 46.785 42.027
O 64.148 39.647 31.782
O 64.148 40.605 39.335
O 71.557 44.209 35.465
O 65.066 40.585 34.809
O 64.228 35.454 33.531
O 64.33 43.585 40.127
O 58.394 41.651 42.138
O 62.357 41.464 42.486
O 57.805 42.605 36.97
O 59.68 39.323 41.176
O 64.879 34.391 36.554
O 66.037 35.953 32.324
O 63.671 43.581 35.382
H 66.588 36.649 36.217
H 59.73 44.599 44.038
H 61.248 40.821 44.291
H 59.033 39.88 40.726
H 60.243 39.954 41.641
H 69.988 41.552 36.17
H 70.107 41.769 34.672
H 61.452 41.697 42.244
H 62.793 41.322 41.637
H 66.705 44.851 35.855
H 67.015 46.334 35.753
H 64.494 44.506 39.89
H 64.317 43.129 39.276
H 67.212 40.133 43.472
H 67.73 40.542 42.104
H 59.99 46.227 34.981
H 61.455 45.839 35.076
H 69.582 37.944 37.62
H 67.814 36.341 38.821
H 66.195 43.02 38.135
H 65.203 43.666 37.183
H 67.501 37.562 37.017
H 63.835 38.802 35.191
H 63.282 37.395 35.049
H 59.501 45.723 39.244
H 66.675 33.397 33.872
H 65.337 32.827 33.437
H 58.506 37.463 41.08
H 67.926 36.702 33.957
H 59.608 38.269 37.197
H 59.559 39.236 38.367
H 68.401 37.658 32.877
H 60.83 42.447 35.455
H 59.477 41.782 35.643
H 63.458 34.971 33.854
H 64.63 35.809 34.334
H 64.219 38.462 39.826
H 63.285 38.577 41.019
H 62.05 37.395 30.675
H 62.1 38.733 31.39
H 64.578 45.354 33.495
H 65.616 46.459 33.579
H 59.517 42.169 39.515
H 60.501 41.013 39.542
H 60.353 39.994 30.813
H 61.67 38.034 42.586
H 58.042 44.465 42.54
H 60.613 45.028 41.273
H 60.141 43.6 41.066
H 64.431 40.987 35.414
H 65.453 41.34 34.348
H 69.368 37.064 35.592
H 70.115 35.742 35.563
H 63.142 47.289 34.659
H 62.79 36.147 42.097
H 63.85 36.359 41.03
H 63.76 39.449 32.644
H 65.056 39.897 31.991
H 62.27 42.329 39.149
H 62.153 43.688 39.818
H 61.448 45.934 32.826
H 69.179 42.382 38.316
H 57.059 42.505 40.36
H 64.597 45.939 30.991
H 58.057 35.845 37.918
H 63.905 38.147 29.738
H 57.414 37.873 36.573
H 56.244 36.91 36.47
H 64.269 34.23 35.823
H 65.874 35.601 41.452
H 66.15 36.56 42.597
H 63.292 39.45 43.04
H 63.283 36.792 37.47
H 62.884 38.108 38.113
H 57.15 40.991 40.448
H 63.261 40.438 39.677
H 64.584 41.086 40.05
H 66.915 40.527 36.071
H 68.123 40.009 35.311
H 63.242 42.805 35.763
H 63.141 43.774 34.599
H 54.954 42.365 36.287
H 61.651 46.72 40.324
H 63.962 45.689 41.765
H 64.512 44.34 42.195
H 71.789 43.006 37.293
H 66.602 44.13 43.32
H 66.314 43.076 42.265
H 66.066 46.248 43.605
H 66.372 47.661 43.139
H 62.389 44.481 36.926
H 61.213 43.592 37.294
H 69.445 46.251 35.517
H 59.27 41.912 42.447
H 66.443 42.006 44.331
H 66.397 40.013 38.147
H 66.221 38.741 38.958
H 65.34 38.066 33.744
H 66.425 38.904 34.397
H 62.966 39.946 36.885
H 62.046 39.986 35.677
H 63.749 47.196 39.78
H 67.112 42.849 34.754
H 67.395 42.789 36.245
H 65.315 40.484 42.415
H 64.614 41.779 42.788
H 58.493 42.296 37.572
H 57.11 42.923 37.56
H 58.898 46.42 41.316
H 67.134 38.421 41.956
H 66.918 37.594 40.7
H 62.477 43.573 43.101
H 61.974 44.967 43.432
H 64.095 47.884 41.872
