289
xyz format
O 61.925 48.975 33.936
O 56.077 50.987 30.501
O 58.357 42.165 32.213
O 59.394 49.104 23.261
O 54.182 49.336 31.495
O 69.039 44.121 31.613
O 65.638 56.162 29.199
O 60.857 42.33 27.258
O 66.687 42.664 35.601
O 62.081 40.221 36.613
O 56.128 49.545 27.927
O 56.718 50.371 36.194
O 60.603 53.293 37.665
O 69.707 53.004 35.096
O 68.132 44.456 39.404
O 55.942 47.335 32.968
O 57.432 47.613 30.077
O 61.097 47.285 39.771
O 62.119 48.05 24.336
O 65.861 53.496 29.931
O 60.892 54.228 28.697
O 66.045 49.349 32.194
O 68.661 54.588 29.39
O 62.061 43.908 37.631
O 69.679 46.657 34.673
O 65.234 55.066 32.016
O 57.768 51.798 33.928
O 67.857 40.342 36.176
O 65.24 50.362 26.166
O 58.688 50.203 26.442
O 70.193 47.655 29.788
O 58.569 52.523 28.233
O 70.551 50.08 31.041
O 60.787 51.273 31.003
O 63.979 46.591 31.346
O 60.727 45.296 32.895
O 69.825 43.099 38.317
O 63.267 47.106 33.72
O 58.175 43.39 27.245
O 59.668 41.292 39.142
O 62.539 54.401 30.282
O 65.031 52.972 27.961
O 62.176 42.232 29.016
O 65.331 49.893 29.792
O 58.972 44.967 38.96
O 62.057 48.702 30.499
O 72.137 46.081 33.254
O 59.065 53.587 33.812
O 58.902 49.145 28.359
O 59.951 56.297 35.449
O 65.088 45.87 34.132
O 69.305 52.469 30.53
O 65.514 48.418 35.6
O 61.668 51.737 35.816
O 70.372 42.151 35.518
O 60.942 45.956 29.562
O 58.318 47.048 25.715
O 59.849 56.469 30.648
O 60.14 41.978 34.969
O 57.365 45.403 34.892
O 58.436 47.377 32.045
O 66.913 54.088 27.641
O 62.378 50.704 28.496
O 65.53 42.804 37.469
O 60.701 48.478 37.688
O 67.723 55.17 34.685
O 67.39 45.465 35.564
O 57.225 52.662 37.699
O 60.816 46.482 35.409
O 55.716 50.3 33.078
O 60.364 48.822 31.943
O 59.194 50.643 35.513
O 64.349 47.257 27.192
O 67.743 50.348 36.169
O 63.094 53.899 32.832
O 68.599 50.251 38.54
O 56.146 47.272 36.315
O 70.683 50.986 36.535
O 62.93 50.149 25.631
O 61.243 44.699 26.709
O 61.644 42.892 39.623
O 58.176 49.376 31.163
O 64.148 40.605 39.335
O 60.991 45.408 23.713
O 71.557 44.209 35.465
O 64.485 51.869 33.805
O 65.066 40.585 34.809
O 59.719 49.752 39.534
O 64.33 43.585 40.127
O 67.061 43.58 29.222
O 71.009 45.974 37.319
O 62.582 54.613 34.904
O 58.439 45.375 30.012
O 63.8 55.418 37.834
O 60.785 47.793 26.633
O 61.838 51.324 39.278
O 57.805 42.605 36.97
O 63.232 47.84 39.281
O 58.618 46.359 37.294
O 56.58 44.706 27.996
O 65.356 57.574 30.96
O 67.305 50.844 30.686
O 62.801 52.843 25.943
O 63.671 43.581 35.382
O 66.205 46.987 28.342
H 63.285 50.493 24.802
H 62.172 50.719 25.811
H 71.626 48.281 33.056
H 56.951 45.537 28.32
H 55.869 44.987 27.407
H 67.939 50.061 39.219
H 69.428 50.296 39.032
H 56.92 47.648 36.752
H 55.849 46.585 36.924
H 62.385 53.25 32.746
H 62.646 54.745 32.709
H 58.678 45.644 36.648
H 59.218 47.031 36.947
H 67.394 50.84 35.415
H 68.439 49.801 35.783
H 60.497 48.025 32.471
H 60.185 49.506 32.601
H 56.502 49.988 33.544
H 55.17 50.68 33.778
H 60.203 47.252 27.181
H 61.341 48.254 27.274
H 69.922 51.233 37.075
H 71.44 51.267 37.063
H 66.705 44.851 35.855
H 67.015 46.334 35.753
H 64.494 44.506 39.89
H 64.317 43.129 39.276
H 62.065 55.11 35.55
H 62.317 53.697 35.054
H 71.578 46.203 38.064
H 70.13 46.249 37.608
H 59.99 46.227 34.981
H 61.455 45.839 35.076
H 67.463 53.326 27.42
H 66.577 54.383 26.786
H 60.51 46.007 30.424
H 61.04 46.88 29.299
H 61.25 51.289 35.07
H 66.195 43.02 38.135
H 61.375 51.229 36.583
H 65.203 43.666 37.183
H 58.65 46.475 32.313
H 58.093 47.781 32.852
H 67.605 43.63 30.018
H 66.315 44.16 29.417
H 62.752 50.101 27.841
H 62.175 51.498 27.987
H 65.84 48.064 36.436
H 66.272 48.343 35.007
H 57.811 46.017 34.294
H 56.917 44.788 34.298
H 62.289 48.784 29.566
H 62.798 49.116 30.957
H 58.173 45.031 39.498
H 59.501 45.723 39.244
H 65.238 48.935 29.721
H 64.686 50.138 30.467
H 62.892 42.56 28.458
H 58.379 46.281 25.132
H 57.976 47.746 25.142
H 61.424 45.494 24.571
H 60.056 45.313 23.936
H 63.578 52.58 25.436
H 60.83 42.447 35.455
H 59.477 41.782 35.643
H 59.811 49.149 28.682
H 58.443 49.745 28.959
H 58.859 51.368 36.055
H 58.991 49.856 36.034
H 63.889 46.489 27.554
H 64.784 46.912 26.402
H 59.021 56.475 35.637
H 59.941 55.413 35.061
H 64.578 45.354 33.495
H 65.616 46.459 33.579
H 59.828 53.002 33.722
H 72.504 46.213 34.137
H 72.803 46.463 32.669
H 69.021 52.048 31.351
H 69.794 53.246 30.828
H 60.349 44.877 26.389
H 61.114 44.489 27.643
H 59.744 50.716 39.572
H 59.2 49.505 40.31
H 64.205 52.552 28.229
H 65.094 52.775 27.018
H 64.431 40.987 35.414
H 65.453 41.34 34.348
H 63.4 54.642 30.645
H 62.053 55.235 30.271
H 63.616 51.584 33.496
H 63.753 47.876 33.399
H 63.142 47.289 34.659
H 60.199 42.626 26.617
H 61.512 41.87 26.717
H 58.461 50.26 31.426
H 57.243 49.353 31.41
H 62.27 42.329 39.149
H 62.153 43.688 39.818
H 60.879 44.698 32.153
H 61.448 45.934 32.826
H 69.516 43.688 37.618
H 69.179 42.382 38.316
H 65.049 51.767 33.028
H 58.001 42.606 26.709
H 58.305 44.089 26.592
H 64.126 47.37 30.794
H 64.597 45.939 30.991
H 61.607 51.156 30.506
H 60.101 51.23 30.326
H 65.525 46.798 29.001
H 67.026 46.723 28.777
H 69.807 49.487 31.202
H 65.158 49.619 25.555
H 70.627 44.329 35.695
H 57.934 50.449 25.892
H 59.243 49.681 25.849
H 71.563 44.257 34.501
H 65.348 51.125 25.585
H 59.373 51.989 28.26
H 57.96 51.994 27.704
H 69.501 47.127 30.205
H 66.915 40.527 36.071
H 68.123 40.009 35.311
H 63.242 42.805 35.763
H 63.141 43.774 34.599
H 57.057 52.109 33.354
H 58.388 51.38 33.318
H 61.651 46.72 40.324
H 60.583 47.797 40.408
H 65.172 54.644 32.882
H 64.641 55.824 32.088
H 55.832 46.495 33.431
H 55.591 47.986 33.589
H 61.625 47.515 23.702
H 61.838 48.953 24.142
H 56.54 47.509 30.429
H 57.293 47.728 29.129
H 68.659 55.374 28.83
H 69.103 53.922 28.849
H 65.163 58.348 31.503
H 66.319 57.516 30.977
H 62.389 44.481 36.926
H 61.213 43.592 37.294
H 69.269 46.078 34.019
H 69.445 46.251 35.517
H 67.026 55.137 34.018
H 61.282 48.21 36.965
H 60.556 49.419 37.527
H 65.133 53.292 30.531
H 66.572 53.777 30.519
H 59.713 53.832 39.609
H 66.397 40.013 38.147
H 57.751 44.791 30.355
H 58.846 44.86 29.305
H 62.046 39.986 35.677
H 62.991 48.502 39.941
H 56.334 50.327 27.4
H 56.476 48.815 27.399
H 67.112 42.849 34.754
H 67.395 42.789 36.245
H 65.45 56.863 28.562
H 65.415 55.353 28.72
H 69.295 53.033 35.969
H 59.695 53.099 37.401
H 60.972 53.748 36.898
H 56.473 51.032 35.534
H 56.839 49.565 35.677
H 69.78 44.555 31.172
H 68.838 44.705 32.355
H 67.639 50.595 29.815
H 66.64 51.517 30.493
H 60.96 54.281 27.736
H 61.033 53.292 28.886
H 65.728 48.731 32.865
H 66.486 50.038 32.707
H 63.779 55.5 36.872
H 59.671 48.494 23.955
H 62.361 50.531 39.103
H 56.147 51.587 29.748
H 55.732 51.547 31.208
H 62.071 51.917 38.553
H 61.654 49.027 34.861
H 62.271 49.856 33.748
