132
xyz format
O 68.971 51.431 66.409
O 67.066 54.338 55.681
O 67.744 46.953 58.777
O 63.229 49.027 63.19
O 70.947 50.65 59.738
O 64.723 51.009 61.033
O 70.082 54.827 62.669
O 61.15 51.715 61.861
O 65.515 50.061 67.201
O 63.682 51.245 66.618
O 65.019 50.15 57.858
O 71.0 53.484 60.153
O 61.932 50.662 59.556
O 67.535 49.778 57.797
O 69.161 52.654 63.008
O 67.307 52.029 56.754
O 64.268 53.989 62.977
O 67.82 55.291 60.46
O 65.57 48.977 59.756
O 67.853 48.054 64.624
O 69.19 46.171 62.472
O 68.628 50.902 61.299
O 66.957 52.591 60.533
O 67.303 47.911 62.304
O 65.078 46.072 59.477
O 66.727 55.814 66.239
O 68.523 55.167 58.358
O 67.902 52.872 64.805
O 61.065 47.323 62.157
O 65.009 47.781 61.968
O 60.328 50.152 63.318
O 70.629 47.112 60.062
O 63.746 48.714 65.983
O 65.642 54.338 58.112
O 65.126 53.966 60.897
O 72.054 48.658 62.695
O 68.165 45.241 64.78
O 63.215 53.304 68.294
O 70.004 49.552 62.361
O 65.242 50.684 64.256
O 62.204 51.375 64.503
O 65.969 52.9 66.381
O 63.46 46.096 63.813
O 66.843 50.424 62.784
H 68.941 44.92 64.304
H 67.5 45.351 64.088
H 64.856 54.715 60.35
H 64.689 53.211 60.483
H 66.885 52.744 69.219
H 60.702 48.127 62.55
H 65.97 53.7 58.758
H 66.384 54.943 57.991
H 63.074 51.066 64.223
H 61.883 50.667 65.076
H 65.247 49.905 64.826
H 65.182 51.421 64.877
H 69.895 50.061 56.601
H 61.806 47.099 62.734
H 67.648 54.064 67.195
H 67.335 55.252 63.415
H 67.096 47.097 62.78
H 67.63 47.602 61.451
H 69.19 49.035 62.324
H 69.731 47.321 60.346
H 71.158 47.242 60.859
H 64.584 48.281 66.189
H 63.113 47.986 65.953
H 60.182 51.021 63.711
H 65.453 47.239 61.304
H 64.342 48.263 61.464
H 70.39 49.436 61.484
H 71.921 48.044 63.428
H 69.213 54.591 58.007
H 65.563 46.251 58.662
H 67.063 52.51 64.493
H 67.69 53.79 65.016
H 66.277 55.411 65.487
H 64.364 46.721 59.467
H 67.088 52.116 57.69
H 66.706 51.342 56.441
H 67.706 53.109 60.213
H 66.88 51.877 59.887
H 64.743 53.811 63.799
H 69.046 51.4 60.586
H 68.095 50.243 60.836
H 61.877 47.797 60.167
H 67.538 47.394 65.254
H 65.953 48.365 59.116
H 66.27 49.093 60.41
H 67.575 48.893 65.012
H 67.216 55.298 61.214
H 69.472 54.975 61.935
H 69.505 54.782 63.441
H 68.281 49.169 57.868
H 67.4 50.082 58.703
H 68.326 52.746 62.532
H 69.812 52.525 62.307
H 66.627 51.237 62.31
H 66.166 49.801 62.491
H 62.258 51.468 59.976
H 61.969 50.004 60.261
H 70.082 45.803 62.448
H 69.276 46.943 63.044
H 71.763 52.681 63.354
H 69.786 48.632 65.909
H 70.042 53.4 60.241
H 71.306 53.576 61.063
H 63.393 52.078 66.226
H 62.902 50.931 67.092
H 65.37 49.502 57.234
H 64.734 50.88 57.294
H 66.744 44.403 62.254
H 67.756 48.606 67.722
H 65.619 52.657 67.247
H 65.255 53.413 65.981
H 73.384 52.248 59.964
H 63.808 53.811 67.725
H 67.695 54.16 56.391
H 60.844 52.588 62.139
H 64.177 51.43 61.708
H 64.112 50.412 60.583
H 70.958 49.858 59.188
H 71.469 51.287 59.235
H 62.035 51.651 62.241
H 66.43 50.328 67.356
H 65.069 50.278 68.029
H 69.389 52.296 66.32
H 68.073 51.638 66.696
H 64.326 46.492 63.972
H 62.421 49.014 63.717
H 63.048 49.687 62.509
H 67.656 46.175 59.341
