96
xyz format
O 68.971 51.431 66.409
O 65.438 44.001 70.604
O 65.515 50.061 67.201
O 65.984 48.353 72.97
O 63.682 51.245 66.618
O 67.252 43.596 62.101
O 68.357 48.068 68.253
O 70.4 48.793 66.636
O 72.411 52.339 63.983
O 69.271 43.885 67.427
O 71.635 51.422 65.96
O 63.951 44.895 67.329
O 68.805 38.811 66.129
O 67.853 48.054 64.624
O 69.19 46.171 62.472
O 67.303 47.911 62.304
O 68.284 54.102 67.92
O 67.902 52.872 64.805
O 67.189 45.932 71.068
O 65.009 47.781 61.968
O 63.746 48.714 65.983
O 70.243 50.768 70.376
O 61.827 44.232 70.126
O 70.635 47.366 69.373
O 71.486 42.916 64.245
O 65.934 43.22 65.333
O 70.712 46.232 66.163
O 68.165 45.241 64.78
O 67.26 41.036 63.534
O 71.309 40.347 64.498
O 66.34 45.882 66.399
O 69.844 42.63 69.617
O 62.226 47.078 67.782
O 69.148 41.817 65.804
H 68.941 44.92 64.304
H 67.5 45.351 64.088
H 67.528 40.222 63.98
H 67.032 41.63 64.259
H 69.868 42.483 62.819
H 70.375 48.29 69.265
H 71.286 47.229 68.673
H 66.812 46.3 70.259
H 66.416 45.702 71.598
H 71.523 46.318 66.68
H 70.014 46.454 66.792
H 66.208 43.663 66.146
H 65.896 43.935 64.685
H 71.211 43.6 64.869
H 65.247 49.905 64.826
H 70.215 50.549 69.436
H 69.518 51.395 70.487
H 69.263 40.928 65.446
H 69.381 42.393 65.064
H 69.138 54.155 67.474
H 67.096 47.097 62.78
H 67.63 47.602 61.451
H 64.584 48.281 66.189
H 63.113 47.986 65.953
H 65.453 47.239 61.304
H 65.474 46.27 66.221
H 66.451 45.995 67.351
H 67.063 52.51 64.493
H 67.69 53.79 65.016
H 70.811 40.434 63.675
H 63.039 44.759 67.614
H 64.469 44.706 68.121
H 68.458 38.555 65.265
H 68.113 39.374 66.497
H 67.538 47.394 65.254
H 67.575 48.893 65.012
H 70.969 51.131 65.325
H 71.545 50.796 66.69
H 68.607 44.393 67.91
H 69.038 44.024 66.501
H 70.082 45.803 62.448
H 69.276 46.943 63.044
H 72.973 51.768 63.445
H 71.763 52.681 63.354
H 69.153 42.353 69.002
H 69.837 43.593 69.55
H 69.786 48.632 65.909
H 71.269 48.662 66.237
H 63.393 52.078 66.226
H 66.744 44.403 62.254
H 67.903 43.597 62.815
H 67.756 48.606 67.722
H 67.792 47.369 68.603
H 65.619 52.657 67.247
H 65.664 43.696 69.717
H 65.191 42.391 67.803
H 66.295 47.865 72.198
H 66.43 50.328 67.356
H 65.069 50.278 68.029
H 69.389 52.296 66.32
H 68.073 51.638 66.696
H 64.326 46.492 63.972
