29
xyz format
O 57.743 30.466 65.999
O 59.913 34.417 65.395
O 55.782 32.223 65.02
O 60.142 29.779 62.808
O 56.097 28.534 65.701
O 60.918 28.971 65.293
O 59.258 32.547 63.306
O 57.242 30.701 62.901
O 61.865 32.074 61.152
H 57.0 31.636 62.922
H 57.371 30.477 63.831
H 55.409 28.58 65.025
H 56.918 28.551 65.193
H 54.671 30.676 63.917
H 60.017 32.267 62.779
H 60.332 28.713 66.016
H 61.251 29.835 65.565
H 58.698 33.012 62.671
H 57.322 28.484 62.899
H 56.245 27.481 63.272
H 60.216 30.254 63.645
H 60.145 28.85 63.071
H 55.505 32.014 65.921
H 56.576 32.757 65.142
H 60.398 27.173 60.932
H 62.542 31.875 61.81
H 60.005 33.488 65.149
H 58.055 31.377 66.057
H 57.744 30.165 66.916
