418
xyz format
Cl 64.214 44.247 60.337
O 68.359 43.086 54.523
O 61.102 36.683 55.334
O 63.784 46.708 48.397
O 67.345 48.817 50.344
O 61.976 45.353 59.134
O 67.744 46.953 58.777
O 60.59 39.059 52.721
O 60.41 51.628 51.882
O 65.304 43.889 46.505
O 60.252 42.998 62.523
O 63.448 36.398 59.761
O 60.196 35.981 57.618
O 64.14 35.152 56.3
O 62.194 42.612 47.902
O 60.649 44.321 52.543
O 64.323 47.801 55.339
O 63.103 48.738 45.302
O 65.019 50.15 57.858
O 67.252 43.596 62.101
O 59.113 42.284 54.217
O 54.276 40.381 53.43
O 61.473 44.715 48.2
O 64.804 52.153 55.074
O 65.989 41.157 61.39
O 63.193 49.181 57.119
O 63.124 43.232 58.701
O 63.502 41.26 46.724
O 62.014 41.787 56.626
O 61.746 48.45 48.04
O 66.14 43.802 53.398
O 66.688 44.048 59.049
O 59.147 49.572 52.362
O 59.735 44.46 49.947
O 61.932 50.662 59.556
O 69.07 44.581 57.195
O 58.929 40.688 62.381
O 59.475 44.985 61.593
O 59.491 41.082 51.615
O 64.897 49.875 54.136
O 62.426 43.614 45.743
O 63.943 37.252 50.03
O 61.029 38.18 50.048
O 63.522 44.213 54.656
O 64.067 41.072 56.855
O 67.157 36.481 56.673
O 57.069 50.944 47.434
O 67.307 52.029 56.754
O 59.052 40.635 45.899
O 64.053 41.016 60.357
O 57.282 42.24 61.23
O 66.814 46.949 52.976
O 60.505 43.448 55.93
O 59.399 49.094 44.669
O 62.882 52.385 57.515
O 66.986 42.563 49.955
O 60.977 37.685 58.77
O 65.57 48.977 59.756
O 62.008 47.645 59.223
O 54.379 42.676 54.149
O 61.991 41.178 50.57
O 59.223 46.933 46.829
O 68.392 41.272 55.898
O 56.461 40.54 54.051
O 61.308 48.56 54.575
O 63.531 43.32 52.289
O 66.915 40.92 53.767
O 56.747 40.431 57.061
O 53.981 39.841 56.11
O 65.078 46.072 59.477
O 58.309 42.437 58.624
O 63.169 46.44 57.641
O 64.435 39.502 50.039
O 65.903 43.125 57.056
O 63.897 50.046 47.79
O 61.336 54.159 55.474
O 66.581 36.905 53.668
O 63.009 38.757 59.777
O 64.779 53.145 50.193
O 57.603 48.38 59.05
O 67.153 39.17 51.721
O 67.928 44.615 47.791
O 62.748 38.229 57.524
O 68.608 48.549 53.638
O 68.57 43.342 51.808
O 58.739 38.574 54.443
O 61.065 47.323 62.157
O 65.009 47.781 61.968
O 64.586 43.393 49.489
O 68.2 38.386 55.036
O 67.75 51.667 53.748
O 56.197 39.221 61.485
O 62.853 44.146 62.449
O 65.635 38.831 58.909
O 58.822 46.964 51.092
O 59.805 41.423 48.572
O 70.24 45.853 51.53
O 58.55 44.819 46.721
O 63.529 50.618 50.228
O 63.815 45.919 53.122
O 58.668 39.011 49.076
O 56.784 47.336 45.397
O 56.327 38.29 51.963
O 59.266 36.379 51.227
O 65.206 45.478 56.278
O 61.18 45.78 50.956
O 64.654 39.384 52.712
O 66.21 44.838 51.374
O 59.036 49.134 60.538
O 62.552 38.645 54.658
O 59.949 43.914 44.681
O 56.768 37.691 59.228
O 55.738 41.345 62.921
O 61.48 51.258 49.088
O 64.165 52.322 52.887
O 58.514 44.37 55.707
O 57.213 45.272 59.184
O 58.58 48.821 49.111
O 69.778 41.124 54.197
O 55.395 46.924 60.065
O 61.832 51.639 54.799
O 65.466 38.983 56.324
O 63.389 41.099 54.481
O 57.043 40.261 49.869
O 66.353 46.773 48.338
O 66.154 41.001 58.781
O 65.226 47.043 46.374
O 69.449 41.964 49.151
O 58.669 39.086 60.436
O 57.6 42.914 50.605
O 67.077 39.77 48.91
O 62.634 36.921 52.631
O 67.718 48.593 55.697
O 54.926 38.322 54.83
O 59.013 39.325 57.048
O 61.593 43.859 64.625
O 64.177 47.751 50.972
O 59.433 46.664 54.217
O 55.178 36.925 57.186
O 59.887 50.759 47.083
O 57.525 42.61 46.168
O 56.94 40.673 47.041
O 61.613 40.045 58.66
O 61.245 42.632 60.381
O 61.075 41.491 53.069
O 60.832 46.359 45.268
O 56.712 36.168 54.569
O 55.489 44.035 61.792
O 59.899 46.772 58.819
H 61.663 38.974 54.839
H 62.73 38.946 53.759
H 57.025 37.942 58.332
H 60.73 39.916 58.291
H 61.585 40.943 59.014
H 69.06 44.009 51.312
H 68.945 42.506 51.501
H 56.529 41.663 63.375
H 55.121 42.085 62.992
H 61.772 46.577 45.259
H 60.514 46.676 44.414
H 68.939 48.313 52.763
H 69.013 49.408 53.812
H 59.73 44.599 44.038
H 56.933 43.047 46.793
H 58.375 42.6 46.627
H 59.645 43.1 44.261
H 58.99 36.77 52.064
H 60.12 35.978 51.432
H 66.045 45.89 56.522
H 65.27 45.377 55.32
H 60.765 50.376 47.203
H 59.906 51.096 46.178
H 63.153 37.592 56.922
H 62.325 38.865 56.935
H 64.5 42.452 49.293
H 64.941 43.766 48.672
H 54.701 44.182 62.33
H 55.81 39.098 52.074
H 58.441 38.08 48.96
H 58.867 39.311 48.18
H 57.513 46.716 45.269
H 57.151 48.004 45.988
H 56.194 43.929 62.443
H 59.432 39.224 54.615
H 65.356 37.907 58.872
H 59.463 38.471 57.069
H 66.427 38.853 58.359
H 58.623 39.4 57.928
H 58.09 38.741 55.137
H 62.918 44.977 61.962
H 62.733 43.484 61.756
H 68.049 38.49 54.088
H 69.145 38.198 55.098
H 67.029 51.297 54.273
H 62.717 40.61 50.855
H 62.168 42.016 51.016
H 58.173 44.906 54.98
H 58.623 45.004 56.428
H 59.269 47.868 46.593
H 66.715 38.682 51.012
H 67.491 39.96 51.281
H 67.914 40.443 55.771
H 68.136 41.55 56.786
H 66.278 40.981 57.824
H 66.063 41.941 58.98
H 65.453 47.239 61.304
H 64.206 43.101 51.635
H 62.937 43.916 51.816
H 65.636 47.891 46.584
H 65.12 47.07 45.415
H 56.976 40.622 54.864
H 56.762 41.282 53.512
H 61.655 49.386 54.216
H 61.619 47.891 53.952
H 59.423 46.925 47.773
H 67.722 40.549 53.388
H 65.176 52.287 50.388
H 58.356 49.648 60.99
H 59.861 49.456 60.924
H 69.685 41.55 53.336
H 61.158 46.652 50.543
H 61.9 45.847 51.595
H 64.42 40.158 52.185
H 64.777 38.688 52.055
H 66.986 44.584 50.859
H 65.523 44.965 50.708
H 65.563 46.251 58.662
H 64.854 40.371 50.009
H 64.485 39.191 49.126
H 63.801 38.548 60.288
H 62.36 39.0 60.448
H 57.897 47.635 58.51
H 57.346 49.046 58.401
H 65.748 42.647 56.232
H 66.58 43.772 56.822
H 66.299 40.936 53.024
H 62.868 46.052 56.809
H 63.819 47.098 57.365
H 53.903 39.054 56.662
H 67.267 44.382 48.453
H 56.359 40.384 57.943
H 56.737 39.515 56.757
H 54.594 40.404 56.598
H 63.651 50.978 47.854
H 65.786 36.671 53.174
H 64.837 50.073 47.571
H 60.432 54.382 55.729
H 61.574 53.443 56.077
H 64.364 46.721 59.467
H 58.193 41.501 58.42
H 58.195 42.874 57.771
H 55.196 42.98 54.564
H 57.658 43.835 50.322
H 57.904 39.49 60.008
H 59.422 39.526 60.023
H 57.335 42.445 49.804
H 53.998 42.077 54.804
H 60.048 37.666 59.032
H 61.431 37.246 59.5
H 66.295 42.461 50.622
H 67.407 41.695 49.926
H 63.578 41.631 53.698
H 64.218 40.633 54.647
H 56.568 39.522 49.47
H 57.341 39.91 50.718
H 61.546 48.383 58.805
H 61.877 47.797 60.167
H 69.23 42.651 48.509
H 70.21 42.326 49.622
H 65.953 48.365 59.116
H 63.566 41.816 60.591
H 63.741 40.81 59.467
H 60.208 48.851 44.202
H 58.804 48.354 44.498
H 57.052 42.978 60.651
H 57.661 41.587 60.63
H 66.563 47.803 53.349
H 66.301 46.896 52.16
H 60.811 44.255 56.363
H 60.09 42.948 56.643
H 64.202 35.994 55.833
H 61.07 35.574 57.564
H 61.499 50.319 49.313
H 61.597 51.7 49.938
H 65.026 51.987 52.605
H 63.693 51.531 53.172
H 64.235 41.736 57.535
H 63.989 40.248 57.353
H 59.987 40.51 46.103
H 59.06 41.024 45.015
H 57.784 44.494 59.201
H 57.228 45.547 58.259
H 62.037 52.042 57.831
H 63.447 52.36 58.298
H 66.904 36.302 55.758
H 66.54 37.169 56.951
H 56.66 50.152 47.804
H 57.307 51.463 48.213
H 64.721 36.984 50.534
H 63.379 37.679 50.688
H 64.092 43.539 55.047
H 62.754 43.714 54.35
H 60.586 37.739 49.312
H 60.635 39.061 50.058
H 61.781 42.897 45.714
H 61.894 44.407 45.599
H 65.63 49.662 54.727
H 64.164 50.056 54.737
H 59.215 41.171 50.694
H 59.046 41.815 52.059
H 59.517 45.909 59.025
H 59.803 47.267 59.642
H 58.649 41.508 62.806
H 59.503 40.987 61.664
H 59.813 43.731 49.319
H 59.614 45.235 49.385
H 62.258 51.468 59.976
H 61.969 50.004 60.261
H 65.913 46.087 48.857
H 59.99 45.679 61.163
H 59.221 44.403 60.865
H 66.261 47.565 48.881
H 62.294 51.415 55.616
H 60.914 51.401 54.981
H 69.756 45.122 57.605
H 68.649 45.181 56.567
H 65.847 39.687 55.784
H 64.728 38.66 55.792
H 66.155 43.108 52.727
H 65.279 44.222 53.274
H 66.712 44.1 60.013
H 67.62 44.032 58.797
H 58.419 49.622 52.995
H 59.896 49.281 52.897
H 61.722 41.195 55.921
H 62.471 42.496 56.155
H 67.686 39.449 48.234
H 66.339 40.13 48.402
H 62.986 36.758 53.515
H 61.678 36.943 52.766
H 65.37 49.502 57.234
H 64.734 50.88 57.294
H 61.371 48.078 47.232
H 61.621 47.75 48.693
H 57.456 40.955 47.807
H 63.435 43.753 57.95
H 62.75 49.369 56.283
H 62.834 49.843 57.724
H 62.213 43.013 58.466
H 66.855 48.367 56.066
H 55.62 38.51 54.185
H 64.667 47.081 50.478
H 63.263 47.444 50.93
H 66.744 44.403 62.254
H 67.903 43.597 62.815
H 63.812 50.677 51.149
H 63.794 49.728 49.963
H 60.517 40.788 48.719
H 60.105 41.931 47.808
H 69.542 46.328 51.998
H 59.497 44.631 46.733
H 58.293 44.766 47.65
H 64.111 45.758 52.218
H 63.301 46.734 53.053
H 59.43 47.536 51.577
H 59.048 46.077 51.397
H 54.711 40.957 52.79
H 61.528 45.592 47.8
H 61.845 44.842 49.082
H 65.551 52.758 54.992
H 64.289 52.521 55.802
H 53.798 39.747 52.881
H 61.446 44.633 64.068
H 65.888 41.873 62.03
H 59.008 41.449 54.69
H 58.249 42.705 54.301
H 62.429 41.917 48.529
H 62.988 43.16 47.859
H 67.306 48.652 51.294
H 66.6 49.41 50.183
H 55.34 46.422 59.242
H 56.345 47.008 60.219
H 59.754 43.491 63.187
H 63.401 36.427 58.797
H 60.771 42.372 63.044
H 63.397 47.541 55.252
H 64.67 47.718 54.442
H 63.274 48.61 46.244
H 62.142 48.826 45.255
H 59.823 43.841 52.686
H 60.942 44.543 53.436
H 59.516 48.606 49.204
H 58.583 49.756 48.871
H 61.635 44.706 59.763
H 61.547 45.113 58.303
H 62.793 40.988 46.128
H 64.219 41.511 46.128
H 61.279 42.362 53.431
H 60.365 42.471 60.02
H 60.981 40.934 53.852
H 61.384 41.892 60.986
H 57.53 36.641 54.768
H 61.31 39.333 52.138
H 59.892 38.788 52.111
H 68.338 43.926 54.048
H 67.497 43.045 54.956
H 60.784 36.135 54.606
H 62.015 36.395 55.456
H 63.766 45.75 48.52
H 63.349 46.838 47.545
H 59.755 51.369 51.222
H 61.025 50.884 51.9
H 58.545 46.767 53.851
H 59.984 46.506 53.441
H 67.656 46.175 59.341
H 68.618 46.852 58.38
H 65.69 44.741 46.743
H 64.681 44.108 45.8
