44
xyz format
O 56.584 37.734 36.1
O 56.201 37.356 33.457
O 57.742 36.64 38.365
O 56.982 41.707 39.823
O 58.09 35.819 32.365
O 59.668 41.292 39.142
O 60.145 38.919 37.668
O 54.735 36.665 40.538
O 58.074 36.784 40.546
O 58.026 32.11 37.053
O 55.609 38.781 38.286
O 56.121 33.819 37.964
O 53.658 34.319 37.575
O 56.961 38.662 30.581
O 55.686 39.05 42.203
O 59.68 39.323 41.176
H 55.533 39.743 38.265
H 54.9 38.482 37.703
H 59.033 39.88 40.726
H 56.462 34.452 37.321
H 55.764 34.377 38.667
H 57.503 32.698 36.494
H 58.506 37.463 41.08
H 57.851 36.097 41.186
H 55.088 34.22 35.618
H 59.608 38.269 37.197
H 59.559 39.236 38.367
H 55.114 37.355 39.979
H 54.859 35.859 40.022
H 59.507 34.237 38.314
H 54.96 38.828 41.606
H 56.412 39.272 41.607
H 60.501 41.013 39.542
H 58.343 36.625 32.832
H 57.418 35.425 32.936
H 55.524 37.566 32.801
H 56.797 38.114 33.423
H 56.892 36.373 38.737
H 58.057 35.845 37.918
H 57.414 37.873 36.573
H 56.244 36.91 36.47
H 57.15 40.991 40.448
H 55.563 40.982 36.44
H 53.379 40.863 36.687
