67
xyz format
O 50.329 31.882 38.276
O 50.363 40.468 38.283
O 50.25 37.275 38.303
O 49.028 39.22 42.219
O 48.456 35.872 42.962
O 51.599 39.451 40.276
O 48.445 33.465 39.636
O 52.181 38.422 42.594
O 47.559 41.166 41.228
O 45.549 38.002 39.053
O 47.999 38.989 38.43
O 50.811 39.306 35.772
O 47.291 39.979 35.984
O 48.537 35.954 39.136
O 52.624 41.258 36.235
O 49.786 37.1 44.85
O 46.553 31.436 39.232
O 45.917 34.532 40.466
O 46.292 38.488 41.071
O 50.61 37.205 41.65
O 49.269 31.904 40.95
H 48.612 38.745 37.725
H 48.572 39.346 39.119
H 51.296 39.825 35.118
H 50.709 38.443 35.35
H 50.337 36.391 44.496
H 50.347 37.882 44.781
H 48.163 36.193 39.993
H 49.338 35.466 39.363
H 47.855 40.472 36.593
H 46.603 39.614 36.554
H 45.908 37.144 38.796
H 45.783 38.58 38.316
H 50.133 33.812 44.251
H 45.676 34.913 39.613
H 47.396 41.767 38.64
H 48.634 42.625 38.447
H 46.326 31.804 40.095
H 47.397 30.994 39.385
H 53.36 40.358 42.407
H 48.407 36.911 36.473
H 48.01 35.464 36.701
H 54.96 38.828 41.606
H 47.067 40.7 40.539
H 48.351 33.855 40.513
H 47.635 33.725 39.18
H 48.764 35.235 42.304
H 47.834 36.424 42.472
H 53.085 38.213 42.859
H 51.866 39.008 43.293
H 50.739 39.196 40.631
H 52.002 38.611 40.025
H 50.389 36.242 46.791
H 50.974 36.676 38.527
H 49.97 37.626 39.157
H 48.638 39.053 41.352
H 48.345 39.718 42.686
H 49.862 40.75 37.508
H 50.812 39.666 37.987
H 51.942 41.295 36.917
H 50.166 37.357 42.493
H 49.98 36.668 41.153
H 49.562 33.672 36.953
H 45.757 38.264 41.843
H 46.887 37.733 40.978
H 49.407 31.213 40.29
H 48.355 31.774 41.229
