116
xyz format
O 41.102 44.437 46.925
O 52.694 49.535 41.485
O 51.679 51.593 41.681
O 46.52 52.79 41.85
O 46.363 47.688 49.017
O 48.554 51.544 42.45
O 49.286 50.822 51.315
O 50.686 49.697 48.558
O 49.172 45.68 46.848
O 53.301 46.819 47.257
O 48.851 49.071 45.41
N 47.582 49.311 51.473
N 51.782 48.251 46.32
N 47.255 47.449 45.656
N 47.151 45.013 48.815
N 52.84 50.036 49.228
N 47.749 49.355 48.296
N 50.479 46.045 45.037
C 46.498 42.464 46.792
C 45.26 44.81 45.927
C 52.271 46.074 43.432
C 52.893 51.882 46.466
C 50.756 46.292 43.628
C 51.898 49.739 48.263
C 52.145 50.677 45.935
C 51.714 45.782 45.77
C 49.254 46.025 45.639
C 52.523 50.115 50.631
C 46.527 44.474 45.431
C 52.312 46.996 46.517
C 52.735 45.346 44.69
C 44.622 43.983 46.852
C 45.238 42.808 47.286
C 52.571 50.405 44.506
C 47.172 45.301 44.376
C 47.138 43.291 45.869
C 52.412 49.441 46.828
C 48.205 50.485 51.84
C 47.358 48.43 49.217
C 47.085 51.016 46.603
C 47.799 48.687 45.956
C 47.076 49.542 47.028
C 46.353 51.272 45.295
C 46.467 52.748 44.96
C 48.957 45.954 50.29
C 47.511 51.339 52.935
C 48.149 44.729 49.876
C 44.896 50.866 45.352
C 48.154 46.94 51.113
C 48.16 48.371 50.547
C 47.997 46.502 44.861
H 47.62 45.375 47.967
H 53.529 49.255 46.86
H 49.811 45.563 50.91
H 50.641 53.926 47.347
H 46.634 44.163 48.564
H 47.593 44.314 50.765
H 50.906 48.382 45.863
H 48.851 43.939 49.48
H 48.577 49.893 48.452
H 46.003 49.2 47.141
H 46.609 51.625 47.418
H 48.15 51.357 46.487
H 46.863 50.678 44.484
H 51.419 49.877 50.77
H 48.594 46.979 52.149
H 52.788 47.064 43.347
H 47.86 44.657 43.762
H 44.793 49.761 45.467
H 50.418 52.866 48.792
H 44.382 51.166 44.406
H 44.378 51.365 46.206
H 52.402 54.402 49.034
H 52.65 48.571 41.51
H 52.362 49.757 40.606
H 47.539 53.054 44.901
H 49.235 48.678 50.337
H 50.089 41.256 45.351
H 46.38 51.88 41.561
H 45.828 53.285 41.394
H 46.605 50.784 53.329
H 49.412 46.442 49.385
H 53.804 50.032 48.986
H 52.442 51.33 43.891
H 51.955 49.598 44.042
H 53.645 50.102 44.466
H 52.726 52.754 45.787
H 53.991 51.68 46.508
H 46.759 49.024 51.951
H 45.964 53.365 45.744
H 48.342 47.059 43.932
H 46.477 47.113 46.174
H 44.231 50.214 41.791
H 45.981 52.96 43.978
H 44.051 51.719 41.891
H 51.038 50.892 45.952
H 52.533 52.166 47.484
H 47.091 46.597 51.226
H 46.373 45.688 43.682
H 44.74 45.706 45.551
H 53.777 45.608 44.989
H 50.467 47.345 43.355
H 50.166 45.575 42.994
H 46.49 45.733 49.144
H 52.479 45.488 42.506
H 43.611 44.238 47.21
H 44.715 42.134 47.983
H 46.97 41.517 47.098
H 48.118 42.997 45.462
H 51.541 44.983 46.545
H 52.675 44.237 44.551
H 48.113 39.685 47.777
H 53.64 48.488 39.344
H 48.333 50.673 42.801
H 48.638 52.094 43.239
H 51.01 52.108 42.149
