71
xyz format
O 44.313 31.574 52.484
O 41.417 32.357 57.638
O 42.322 26.668 57.849
O 41.967 35.9 58.181
O 45.137 32.146 55.159
O 39.486 34.653 58.813
O 45.694 27.633 55.38
O 38.103 30.039 55.727
O 44.026 34.047 50.12
O 41.565 31.817 54.306
O 39.361 30.466 53.336
O 41.733 31.719 49.0
O 46.049 33.798 50.949
O 40.933 30.223 57.005
O 44.021 30.799 56.917
O 45.207 35.375 56.94
O 38.327 32.878 54.35
O 41.801 34.548 56.395
O 41.886 32.097 51.535
O 43.622 35.211 53.103
O 42.909 28.724 55.5
H 44.03 30.982 57.865
H 43.11 30.532 56.744
H 39.199 27.719 57.364
H 38.995 28.324 52.582
H 37.747 28.522 51.74
H 38.323 35.168 55.5
H 45.995 33.882 51.909
H 46.62 33.032 50.817
H 39.956 33.892 52.039
H 39.203 32.588 52.236
H 41.579 31.266 51.153
H 41.539 32.768 50.933
H 40.089 30.554 52.708
H 38.573 30.483 52.779
H 41.082 31.16 48.557
H 39.035 33.522 54.22
H 38.648 32.328 55.075
H 45.165 35.663 56.019
H 38.588 29.448 55.137
H 38.217 29.638 56.598
H 47.61 32.601 52.975
H 43.853 33.221 49.653
H 43.437 34.007 50.884
H 41.913 33.131 60.682
H 40.907 34.263 60.791
H 42.65 34.306 56.004
H 41.201 34.581 55.639
H 42.133 31.417 54.976
H 40.855 32.223 54.819
H 41.265 26.484 53.785
H 42.186 28.313 55.991
H 42.525 28.901 54.632
H 39.723 32.686 49.694
H 46.664 30.171 52.689
H 48.027 32.516 55.42
H 41.21 36.493 58.099
H 42.723 36.461 57.965
H 45.589 32.64 54.463
H 44.217 32.129 54.868
H 39.213 35.029 57.967
H 40.309 30.369 56.284
H 40.656 29.378 57.381
H 43.075 34.891 53.832
H 42.083 26.09 57.114
H 43.242 26.439 58.031
H 44.29 32.511 52.252
H 43.462 31.424 52.914
H 41.971 31.801 58.2
H 40.868 32.842 58.267
H 44.524 35.057 53.409
