559
xyz format
Na 46.336 56.344 34.969
O 48.637 63.626 27.633
O 56.075 66.348 33.949
O 55.605 54.552 33.093
O 40.247 67.595 32.417
O 44.251 57.008 30.865
O 43.167 63.664 30.895
O 56.497 66.826 36.579
O 40.343 65.535 28.373
O 47.057 60.214 27.955
O 42.55 60.666 40.761
O 45.023 54.088 36.793
O 49.36 58.68 25.953
O 49.496 57.744 28.383
O 49.594 50.321 28.425
O 42.6 59.874 35.929
O 53.164 70.087 36.92
O 52.563 51.837 35.898
O 47.015 56.218 24.12
O 50.118 59.605 35.868
O 47.572 65.923 41.657
O 50.579 51.258 36.654
O 44.851 52.129 39.126
O 46.047 61.631 35.735
O 50.497 72.618 35.691
O 47.835 65.519 32.386
O 48.459 67.826 37.322
O 47.46 69.791 41.186
O 53.649 54.883 36.971
O 43.266 61.36 31.959
O 40.028 61.029 33.684
O 44.215 68.372 39.428
O 53.676 55.974 24.5
O 53.192 61.572 27.84
O 48.723 61.078 40.356
O 53.349 65.643 36.061
O 51.38 53.206 23.962
O 41.465 50.784 30.986
O 50.403 59.846 32.747
O 52.378 67.52 35.425
O 46.858 63.734 30.549
O 42.983 62.232 36.705
O 55.916 56.593 25.711
O 41.971 55.703 32.339
O 41.83 65.049 38.855
O 47.059 58.37 29.734
O 46.576 56.266 38.022
O 49.874 57.374 30.519
O 45.743 68.597 37.768
O 48.387 53.642 30.03
O 48.247 55.485 32.451
O 58.535 63.213 32.341
O 45.453 62.692 38.486
O 50.964 58.471 40.09
O 49.969 54.723 33.618
O 45.616 58.072 22.814
O 46.178 62.324 32.096
O 51.96 57.512 23.057
O 39.563 62.225 31.07
O 42.253 57.387 25.26
O 45.906 73.678 35.492
O 40.502 58.425 30.405
O 49.702 57.878 23.027
O 42.512 64.701 36.49
O 56.982 56.852 31.554
O 41.915 55.924 36.92
O 48.52 64.216 44.431
O 42.652 54.309 27.015
O 55.011 57.899 22.699
O 57.12 58.002 29.495
O 57.059 61.949 36.604
O 48.235 71.452 38.647
O 51.35 55.173 22.684
O 40.227 57.338 34.477
O 47.869 57.755 41.356
O 44.429 56.073 26.017
O 48.9 62.315 31.863
O 54.237 59.335 38.115
O 43.851 58.259 29.088
O 53.542 54.461 26.093
O 53.706 55.812 28.714
O 40.535 57.907 37.278
O 51.207 52.913 38.078
O 54.616 60.248 35.118
O 51.116 50.463 33.315
O 41.24 62.051 28.177
O 51.25 56.499 26.035
O 48.397 65.069 39.805
O 56.504 64.575 30.294
O 48.498 54.113 21.474
O 49.416 51.428 30.997
O 52.165 58.072 35.945
O 45.759 60.767 25.944
O 52.399 54.986 31.057
O 50.833 68.972 30.936
O 57.741 58.74 36.33
O 39.495 59.998 27.26
O 45.506 59.699 32.804
O 48.706 59.716 30.628
O 49.989 55.99 41.873
O 50.844 62.099 37.121
O 52.511 51.435 24.703
O 45.524 62.925 28.119
O 46.897 71.322 34.432
O 39.748 54.056 36.206
O 51.132 54.952 35.903
O 50.361 62.177 28.747
O 44.469 54.002 29.164
O 40.068 52.462 29.522
O 45.055 71.826 36.919
O 46.113 50.098 34.367
O 48.895 63.842 41.633
O 40.437 55.974 29.266
O 44.15 58.19 34.028
O 44.267 51.138 30.976
O 46.679 73.192 38.953
O 46.923 54.191 35.632
O 48.282 52.62 32.825
O 56.273 59.946 33.503
O 40.455 55.642 38.693
O 45.415 62.181 41.486
O 53.953 64.891 39.245
O 47.638 64.081 34.602
O 53.069 59.277 25.674
O 39.134 55.815 32.179
O 51.541 71.189 32.225
O 47.394 50.357 29.947
O 40.224 65.104 34.051
O 57.489 67.438 29.8
O 46.539 55.3 29.686
O 42.724 55.002 30.394
O 42.843 53.455 32.678
O 43.822 55.229 35.077
O 51.229 50.341 30.39
O 45.371 53.799 33.656
O 51.696 65.656 40.213
O 55.261 57.088 32.938
O 45.857 68.714 34.18
O 52.668 70.676 34.687
O 51.139 69.684 39.343
O 53.819 63.138 30.336
O 45.012 65.452 37.908
O 54.721 68.268 34.616
O 47.516 66.958 35.533
O 54.748 63.329 34.566
O 39.988 57.619 27.493
O 44.893 51.368 25.879
O 50.591 53.675 28.484
O 59.491 59.983 35.846
O 47.192 56.643 28.071
O 40.534 50.018 36.069
O 44.177 64.688 41.352
O 50.899 67.52 41.25
O 54.387 53.321 24.297
O 54.064 53.309 35.06
O 51.332 56.014 38.196
O 49.239 55.616 23.884
O 57.387 68.794 33.344
O 47.592 70.041 36.215
O 56.215 59.499 24.685
O 43.197 60.591 29.351
O 52.03 62.043 33.772
O 45.152 54.968 22.919
O 51.839 62.809 41.651
O 50.103 65.286 32.566
O 47.91 51.668 39.049
O 47.327 67.341 30.963
O 42.012 67.128 29.474
O 45.648 52.248 27.755
O 52.464 67.473 38.615
O 46.129 57.247 32.393
O 50.159 65.868 36.503
O 49.132 54.37 36.61
O 41.973 63.089 34.166
O 49.153 52.077 26.007
O 59.683 64.357 29.463
O 49.105 66.613 29.887
O 48.047 50.59 35.994
O 46.269 67.635 39.724
O 48.454 60.024 37.289
O 53.198 69.519 32.893
O 49.451 60.881 26.037
O 46.627 52.684 24.989
O 43.399 62.901 25.854
O 47.816 63.835 36.781
O 52.727 62.421 39.125
O 43.431 54.516 38.25
O 54.553 71.519 31.555
O 41.026 65.701 31.399
O 52.876 52.59 28.746
O 39.422 58.85 32.292
O 47.215 54.53 39.914
O 54.759 58.174 27.922
O 46.74 54.581 27.217
O 45.643 59.188 41.251
O 42.973 49.986 33.639
O 44.457 62.713 34.642
O 52.591 52.933 32.31
O 49.821 63.232 39.043
O 46.348 51.833 31.199
O 43.023 69.042 36.623
O 41.843 53.022 34.695
O 51.981 58.893 29.032
O 50.86 64.333 27.138
O 42.38 58.904 26.848
O 51.146 64.523 34.918
O 45.127 59.031 38.776
O 56.162 64.145 38.985
H 50.166 67.142 40.749
H 41.15 53.047 34.023
H 50.006 64.449 33.037
H 50.101 65.947 33.269
H 43.502 69.382 35.857
H 46.012 63.738 27.935
H 47.127 69.197 36.155
H 46.954 70.625 36.644
H 46.171 62.228 27.957
H 42.629 68.264 31.667
H 49.558 54.738 24.128
H 49.736 56.208 24.461
H 50.568 56.014 38.786
H 52.087 56.004 38.798
H 53.645 53.367 34.192
H 41.722 52.163 35.118
H 45.613 64.91 37.381
H 44.774 66.175 37.315
H 49.247 63.066 38.285
H 50.569 63.711 38.665
H 54.508 67.913 33.744
H 55.236 69.061 34.421
H 50.373 50.713 33.879
H 44.395 50.602 25.565
H 39.138 57.662 27.947
H 40.625 57.873 28.172
H 51.686 52.916 31.975
H 54.26 62.625 31.026
H 54.071 62.688 29.52
H 53.099 52.483 31.624
H 47.569 67.43 34.693
H 53.675 60.06 35.224
H 43.141 50.784 34.155
H 43.441 50.145 32.81
H 55.048 59.534 35.604
H 55.222 63.812 35.254
H 54.909 62.402 34.784
H 48.259 66.343 35.498
H 42.513 60.266 29.951
H 43.138 61.551 29.435
H 52.767 61.874 34.372
H 56.86 59.045 24.128
H 55.721 60.048 24.063
H 51.275 62.16 34.363
H 44.762 54.875 22.041
H 45.595 54.123 23.064
H 45.156 58.413 40.944
H 46.34 59.297 40.592
H 40.697 62.613 27.609
H 40.671 61.877 28.937
H 51.625 51.195 30.602
H 49.175 55.581 41.552
H 43.45 54.072 32.251
H 51.624 62.05 36.554
H 45.915 49.214 34.7
H 42.234 53.207 31.971
H 45.49 50.214 33.639
H 40.287 60.022 27.812
H 38.83 60.449 27.794
H 48.489 66.03 29.426
H 47.158 55.091 26.512
H 47.462 54.049 27.574
H 50.107 62.084 36.498
H 43.471 54.553 34.484
H 44.172 55.9 34.478
H 45.181 52.905 33.346
H 45.892 54.185 32.94
H 52.633 58.573 26.17
H 45.103 69.201 33.826
H 49.462 67.17 29.184
H 41.815 54.677 30.39
H 42.686 55.798 29.85
H 45.809 55.929 29.748
H 46.826 55.191 30.601
H 51.609 64.733 40.483
H 51.324 65.669 39.322
H 53.597 70.911 34.802
H 52.202 71.296 35.264
H 54.516 57.202 33.54
H 56.016 56.967 33.527
H 44.837 59.828 32.121
H 46.297 59.453 32.307
H 45.462 68.12 34.831
H 44.73 61.839 40.898
H 46.097 62.501 40.882
H 41.26 56.066 39.016
H 48.285 60.189 29.899
H 54.034 64.341 38.456
H 54.544 65.634 39.068
H 49.543 60.183 30.751
H 50.925 70.229 38.575
H 55.732 59.148 33.549
H 57.0 59.765 34.112
H 47.59 54.415 34.97
H 46.692 53.277 35.423
H 51.855 62.024 39.248
H 53.33 61.77 39.504
H 44.201 51.511 30.088
H 44.008 51.868 31.552
H 43.773 58.237 34.915
H 45.09 58.034 34.185
H 48.701 63.202 40.938
H 49.857 63.923 41.608
H 40.941 55.62 28.522
H 58.313 58.165 36.854
H 47.557 52.831 33.426
H 49.01 52.39 33.416
H 56.854 58.406 36.509
H 48.35 58.456 40.9
H 47.607 57.156 40.645
H 49.269 60.976 25.093
H 49.815 61.739 26.287
H 39.603 58.062 34.344
H 54.482 58.371 23.355
H 42.104 53.933 27.715
H 43.254 54.898 27.486
H 40.728 57.313 33.652
H 54.003 69.547 32.361
H 52.549 69.11 32.307
H 48.795 70.729 38.338
H 47.752 71.067 39.389
H 51.979 55.457 22.009
H 51.821 55.32 23.514
H 56.912 61.978 35.65
H 47.758 64.65 39.215
H 58.011 61.809 36.685
H 56.875 58.73 28.91
H 57.161 57.238 28.906
H 49.086 65.387 39.208
H 47.114 67.989 39.419
H 56.934 56.208 30.837
H 42.414 56.625 36.483
H 42.009 55.17 36.325
H 46.141 66.848 39.179
H 56.865 64.223 31.117
H 57.113 65.286 30.061
H 41.675 62.948 33.259
H 42.57 63.845 34.097
H 49.904 61.344 28.917
H 49.906 62.809 29.318
H 46.679 71.867 33.666
H 47.859 71.372 34.483
H 40.204 53.212 36.315
H 40.143 54.429 35.408
H 44.655 72.699 37.014
H 44.369 71.306 36.482
H 51.963 54.573 35.591
H 50.985 55.7 35.311
H 44.719 54.05 30.095
H 43.684 53.44 29.165
H 49.428 52.561 25.218
H 49.639 51.245 25.946
H 48.511 62.111 31.003
H 49.721 62.772 31.641
H 58.945 60.207 35.082
H 43.388 57.548 28.627
H 44.327 58.717 28.384
H 53.651 59.689 26.324
H 49.146 54.697 21.887
H 47.772 54.089 22.11
H 54.479 60.094 38.66
H 53.476 58.957 38.574
H 45.092 56.417 25.406
H 43.723 55.76 25.438
H 47.015 57.312 32.772
H 45.985 56.297 32.307
H 47.995 56.14 28.255
H 43.6 64.392 40.637
H 45.06 64.441 41.052
H 47.433 57.19 27.313
H 50.743 52.927 38.925
H 50.491 53.277 29.358
H 51.204 53.837 37.8
H 50.785 54.601 28.675
H 54.105 54.843 26.777
H 53.029 53.793 26.565
H 54.106 55.098 29.226
H 53.015 56.152 29.295
H 53.219 54.905 31.561
H 52.452 54.267 30.415
H 46.309 60.648 25.16
H 44.858 60.701 25.605
H 40.753 58.258 36.405
H 40.057 57.091 37.085
H 51.812 55.815 26.419
H 51.737 56.783 25.251
H 47.159 67.831 31.778
H 46.449 67.058 30.68
H 51.911 57.313 36.485
H 52.664 58.63 36.555
H 49.718 52.325 31.185
H 49.549 50.962 31.832
H 50.394 69.415 30.2
H 50.469 68.078 30.917
H 41.646 56.983 24.627
H 42.913 57.817 24.701
H 49.006 58.533 22.892
H 49.858 57.522 22.143
H 46.681 73.138 35.694
H 48.614 59.083 37.436
H 46.911 51.768 25.101
H 47.33 53.195 25.408
H 43.843 62.601 25.051
H 43.006 62.096 26.214
H 47.679 60.212 37.833
H 39.584 58.228 30.182
H 40.84 57.588 30.746
H 45.65 58.069 23.779
H 44.87 57.494 22.61
H 50.535 54.855 32.847
H 50.379 53.98 34.078
H 40.114 62.96 30.772
H 38.954 62.081 30.335
H 42.936 65.206 35.786
H 43.246 64.447 37.064
H 53.913 56.847 24.836
H 54.072 55.951 23.62
H 42.69 66.594 29.041
H 47.494 51.871 39.896
H 48.536 52.391 38.921
H 48.721 56.157 31.944
H 48.452 54.663 31.989
H 57.88 63.109 33.043
H 45.905 61.889 38.775
H 44.918 62.398 37.739
H 58.241 62.595 31.66
H 50.058 57.37 27.694
H 49.453 58.683 28.159
H 50.611 65.296 37.137
H 50.352 66.759 36.821
H 51.193 58.913 39.263
H 46.424 51.79 27.409
H 45.839 52.344 28.696
H 50.371 58.184 30.353
H 50.553 56.687 30.536
H 45.193 68.508 36.98
H 45.575 69.5 38.064
H 45.734 58.568 38.186
H 47.12 56.892 38.516
H 45.99 55.892 38.693
H 44.485 59.432 38.177
H 46.243 58.371 30.251
H 47.538 57.601 30.065
H 51.832 65.092 34.548
H 51.6 64.044 35.623
H 41.719 59.3 26.266
H 42.427 59.517 27.592
H 56.347 64.472 38.095
H 42.178 64.157 38.975
H 42.414 55.966 33.156
H 41.198 55.213 32.645
H 42.162 62.267 36.198
H 42.698 62.388 37.614
H 48.591 54.439 29.524
H 47.55 53.341 29.656
H 46.469 61.675 32.748
H 45.41 61.908 31.684
H 52.533 57.703 22.304
H 51.897 58.359 23.517
H 48.746 55.252 36.686
H 49.016 53.993 37.491
H 47.368 49.932 36.188
H 47.853 51.308 36.61
H 46.531 64.534 30.117
H 46.937 63.1 29.826
H 50.095 60.603 33.261
H 51.326 60.057 32.56
H 53.748 60.861 28.183
H 52.308 61.343 28.154
H 53.049 67.83 36.046
H 51.631 68.111 35.581
H 48.974 60.57 39.575
H 47.761 61.126 40.299
H 55.895 56.269 26.621
H 55.823 57.549 25.806
H 59.216 63.971 30.214
H 59.205 64.018 28.696
H 53.556 64.745 36.346
H 54.191 65.975 35.723
H 50.628 52.948 23.414
H 52.133 53.147 23.361
H 46.714 66.132 41.267
H 48.122 66.68 41.421
H 50.638 59.48 36.671
H 50.617 60.265 35.372
H 41.006 65.443 30.469
H 48.073 65.328 31.47
H 46.885 65.688 32.346
H 41.894 66.11 31.505
H 47.109 55.279 24.321
H 47.533 56.652 24.81
H 47.246 63.437 37.45
H 47.825 64.771 37.015
H 53.483 51.922 29.088
H 52.107 52.079 28.464
H 42.439 61.713 31.606
H 43.108 61.313 32.91
H 54.408 72.128 32.29
H 55.454 71.203 31.694
H 40.453 60.436 34.316
H 46.015 52.735 31.29
H 46.391 51.511 32.108
H 46.869 54.091 40.701
H 41.03 65.325 33.568
H 48.17 54.41 39.984
H 50.878 71.181 31.523
H 51.429 72.055 32.637
H 46.897 49.637 29.538
H 55.005 57.599 28.657
H 54.247 57.597 27.341
H 48.028 63.81 33.762
H 47.103 64.85 34.368
H 52.026 52.374 35.303
H 42.647 54.285 38.764
H 43.509 55.471 38.366
H 44.456 52.035 38.25
H 44.765 53.072 39.316
H 49.947 51.977 36.528
H 46.03 61.192 34.875
H 46.45 62.488 35.548
H 49.718 72.28 35.233
H 52.864 66.723 38.157
H 49.172 51.166 28.627
H 51.924 67.895 37.935
H 43.898 56.461 31.578
H 44.254 57.898 31.239
H 56.124 65.741 34.698
H 44.494 62.86 33.688
H 44.554 63.598 35.014
H 56.854 66.127 33.424
H 49.121 58.268 25.113
H 50.307 58.846 25.865
H 45.669 53.765 37.434
H 45.086 55.048 36.869
H 43.392 60.348 35.645
H 42.917 59.302 36.639
H 48.373 67.045 37.882
H 48.688 68.529 37.943
H 52.94 58.908 28.923
H 51.649 58.827 28.128
H 55.816 66.991 37.244
H 40.729 64.652 28.435
H 50.635 64.631 26.248
H 51.062 63.396 27.023
H 48.205 69.381 40.728
H 48.311 62.723 27.738
H 48.337 64.073 28.434
H 42.364 63.905 31.373
H 42.919 63.762 29.967
H 47.409 59.36 27.676
H 46.127 60.03 28.137
