35
xyz format
O 62.6 75.297 45.88
O 65.522 73.736 52.528
O 63.466 72.94 53.637
O 63.121 72.389 47.352
O 59.257 71.748 44.168
O 61.12 72.239 45.505
O 63.034 70.06 51.11
O 65.845 73.29 49.445
O 62.884 73.044 50.188
O 64.889 74.256 47.703
O 60.291 76.047 46.643
H 61.363 71.667 46.244
H 61.584 73.065 45.693
H 66.773 73.438 49.227
H 65.831 72.387 49.788
H 60.205 74.606 44.067
H 60.258 75.486 47.428
H 62.899 72.215 50.683
H 63.788 73.375 50.269
H 63.7 69.442 50.786
H 63.015 69.899 52.062
H 58.39 74.212 46.684
H 65.18 69.258 46.993
H 62.507 72.507 48.088
H 63.627 71.605 47.599
H 65.947 72.91 52.791
H 65.292 74.154 53.367
H 66.743 69.75 50.416
H 60.39 74.011 50.965
H 65.462 74.175 46.93
H 64.019 74.435 47.325
H 61.878 74.666 52.456
H 62.021 75.811 45.303
H 63.383 75.14 45.338
H 63.599 72.684 52.715
