316
xyz format
O 67.443 45.63 45.603
O 68.359 43.086 54.523
O 69.831 48.448 45.987
O 74.857 41.91 41.833
O 63.784 46.708 48.397
O 67.345 48.817 50.344
O 71.236 40.427 49.196
O 66.077 51.943 48.352
O 72.191 52.326 56.892
O 65.304 43.889 46.505
O 72.346 50.641 55.342
O 64.323 47.801 55.339
O 71.921 50.145 46.021
O 70.887 45.059 49.576
O 75.05 43.422 56.897
O 65.019 50.15 57.858
O 70.952 45.473 40.043
O 66.393 42.618 45.076
O 72.754 38.695 44.273
O 68.807 50.74 45.586
O 76.559 40.556 43.807
O 72.217 46.232 42.651
O 68.83 44.092 41.94
O 68.506 46.737 47.887
O 73.858 46.883 49.56
O 69.998 38.521 46.452
O 71.55 42.045 41.691
O 66.14 43.802 53.398
O 73.65 44.463 53.985
O 74.299 42.512 49.231
O 74.787 41.464 51.604
O 77.402 45.196 48.195
O 68.857 42.968 45.345
O 75.722 43.93 41.154
O 70.173 46.186 45.534
O 72.837 46.478 52.5
O 73.702 51.787 42.779
O 64.897 49.875 54.136
O 67.535 49.778 57.797
O 67.307 52.029 56.754
O 74.985 54.128 52.411
O 66.814 46.949 52.976
O 69.466 49.221 48.582
O 76.699 39.838 51.279
O 66.986 42.563 49.955
O 65.57 48.977 59.756
O 72.318 38.561 47.268
O 75.344 40.312 46.613
O 68.37 46.646 41.621
O 75.243 50.565 51.292
O 72.63 42.195 44.045
O 74.787 49.243 53.663
O 70.148 55.109 49.272
O 76.358 53.895 56.06
O 73.252 44.143 46.298
O 66.915 40.92 53.767
O 68.556 48.274 43.101
O 73.4 37.316 49.901
O 76.421 51.178 53.86
O 74.426 43.695 39.391
O 76.15 42.245 55.385
O 67.928 44.615 47.791
O 71.943 43.874 48.046
O 72.746 39.699 40.29
O 72.258 39.458 51.406
O 68.608 48.549 53.638
O 68.57 43.342 51.808
O 69.876 40.911 44.022
O 70.023 49.895 51.219
O 75.801 45.695 54.783
O 75.517 46.397 47.702
O 64.586 43.393 49.489
O 74.923 38.278 45.443
O 67.75 51.667 53.748
O 69.56 50.759 56.025
O 77.2 42.696 46.561
O 71.249 43.865 43.486
O 71.555 48.52 44.573
O 74.359 48.141 43.669
O 70.24 45.853 51.53
O 63.529 50.618 50.228
O 73.983 46.165 39.976
O 63.815 45.919 53.122
O 70.437 48.094 41.294
O 72.893 43.61 51.991
O 65.206 45.478 56.278
O 70.116 53.973 46.542
O 66.21 44.838 51.374
O 72.47 48.32 50.95
O 70.421 51.212 48.57
O 77.267 43.918 42.762
O 69.778 41.124 54.197
O 73.767 52.484 50.24
O 74.619 38.452 40.942
O 74.956 38.05 53.538
O 70.384 41.215 47.306
O 75.155 50.796 56.369
O 66.353 46.773 48.338
O 72.686 51.383 52.983
O 76.695 48.033 50.154
O 65.226 47.043 46.374
O 69.449 41.964 49.151
O 69.57 38.454 49.617
O 67.077 39.77 48.91
O 71.047 54.057 50.982
O 67.718 48.593 55.697
O 77.75 52.351 50.696
O 73.844 53.827 55.999
O 71.166 47.902 54.0
O 72.055 41.22 54.258
O 67.769 53.237 47.772
O 64.177 47.751 50.972
O 71.976 49.716 41.266
O 78.252 47.606 46.734
O 71.739 54.065 53.176
O 76.751 47.587 41.916
O 75.367 45.411 43.859
O 75.293 42.702 45.464
H 69.06 44.009 51.312
H 68.945 42.506 51.501
H 77.292 44.866 42.942
H 76.997 43.531 43.604
H 75.325 43.618 45.768
H 74.648 42.722 44.746
H 68.939 48.313 52.763
H 69.013 49.408 53.812
H 72.377 48.871 50.162
H 72.949 48.885 51.568
H 66.045 45.89 56.522
H 69.734 48.755 41.256
H 70.561 47.945 42.24
H 70.036 54.932 46.47
H 77.377 46.856 41.989
H 72.0 43.571 52.357
H 73.363 42.907 52.456
H 76.697 47.933 42.816
H 72.096 49.52 42.203
H 69.825 51.744 48.029
H 71.287 51.36 48.169
H 76.742 45.818 54.607
H 75.623 46.3 55.513
H 72.002 40.262 54.152
H 71.885 41.559 53.37
H 75.047 38.878 44.697
H 75.735 37.755 45.453
H 74.964 45.681 48.038
H 75.905 46.781 48.498
H 64.941 43.766 48.672
H 72.72 40.018 52.041
H 72.652 38.587 51.539
H 70.676 47.072 54.053
H 71.105 48.146 53.068
H 70.148 50.728 55.261
H 69.895 50.061 56.601
H 77.883 43.161 47.059
H 76.722 42.199 47.237
H 72.032 48.049 43.877
H 70.285 48.967 51.162
H 69.229 49.943 50.672
H 70.839 53.188 51.346
H 70.945 49.088 44.088
H 70.542 43.312 43.842
H 71.656 44.25 44.271
H 73.531 40.26 40.319
H 67.029 51.297 54.273
H 68.449 51.82 54.396
H 77.533 47.888 50.611
H 76.25 48.696 50.696
H 73.03 42.589 43.259
H 72.969 41.291 44.045
H 73.335 51.695 53.625
H 73.092 51.583 52.131
H 68.948 48.078 43.961
H 70.452 54.417 48.671
H 69.448 40.53 44.799
H 70.802 40.989 44.285
H 74.005 48.677 53.685
H 74.884 49.535 54.578
H 75.849 50.918 50.628
H 75.259 51.229 51.992
H 70.941 41.247 46.518
H 75.251 39.12 41.238
H 69.633 40.672 47.034
H 69.377 38.704 50.529
H 70.269 37.794 49.704
H 65.636 47.891 46.584
H 65.12 47.07 45.415
H 77.289 53.676 55.93
H 75.968 53.761 55.187
H 73.416 44.686 45.517
H 72.897 43.321 45.935
H 69.685 41.55 53.336
H 72.206 43.377 48.83
H 71.387 43.254 47.557
H 78.627 48.492 46.663
H 77.452 47.736 47.259
H 66.986 44.584 50.859
H 65.523 44.965 50.708
H 73.924 42.873 39.452
H 76.989 50.626 53.307
H 76.95 51.971 54.011
H 73.045 37.948 49.262
H 67.88 43.892 47.153
H 67.267 44.382 48.453
H 74.787 53.247 52.75
H 66.706 51.342 56.441
H 66.295 42.461 50.622
H 67.407 41.695 49.926
H 74.526 40.825 46.623
H 75.466 40.057 47.536
H 75.821 51.259 56.893
H 74.492 50.535 57.02
H 69.23 42.651 48.509
H 70.21 42.326 49.622
H 72.538 37.67 46.971
H 73.148 39.046 47.173
H 66.563 47.803 53.349
H 66.301 46.896 52.16
H 72.084 50.153 56.133
H 72.394 49.961 54.658
H 74.357 52.238 49.517
H 73.021 52.905 49.795
H 69.732 48.338 48.869
H 68.506 49.158 48.507
H 77.212 40.653 51.211
H 76.119 39.866 50.508
H 68.281 49.169 57.868
H 67.4 50.082 58.703
H 73.572 45.885 52.301
H 72.72 46.386 53.454
H 65.63 49.662 54.727
H 71.06 46.53 45.37
H 69.984 45.656 44.751
H 75.788 44.839 40.836
H 76.375 43.454 40.625
H 68.507 42.758 44.47
H 68.568 42.226 45.891
H 75.57 41.95 51.891
H 74.828 40.644 52.111
H 65.913 46.087 48.857
H 78.35 45.31 48.334
H 77.185 44.418 48.724
H 66.261 47.565 48.881
H 66.155 43.108 52.727
H 74.552 44.165 53.814
H 73.506 44.242 54.913
H 74.059 41.827 48.594
H 74.59 43.247 48.677
H 74.146 43.549 57.211
H 70.174 44.494 49.253
H 70.63 45.943 49.285
H 74.171 52.93 56.146
H 70.602 44.833 40.674
H 67.686 39.449 48.234
H 71.444 46.094 40.595
H 65.37 49.502 57.234
H 72.277 42.266 41.096
H 70.822 41.831 41.093
H 68.535 46.485 48.818
H 69.389 46.52 47.563
H 78.506 52.471 50.108
H 66.855 48.367 56.066
H 67.685 49.554 55.608
H 77.999 51.592 51.238
H 74.575 46.654 40.561
H 73.581 45.506 40.555
H 64.667 47.081 50.478
H 63.263 47.444 50.93
H 63.794 49.728 49.963
H 69.542 46.328 51.998
H 70.928 46.519 51.406
H 74.021 47.327 43.275
H 73.985 48.837 43.115
H 64.111 45.758 52.218
H 72.911 39.309 45.001
H 73.093 39.163 43.5
H 69.201 51.56 45.909
H 76.152 40.139 43.037
H 75.807 40.905 44.303
H 68.082 53.198 46.86
H 68.379 53.852 48.198
H 70.42 48.277 46.732
H 68.949 48.327 46.359
H 67.306 48.652 51.294
H 66.6 49.41 50.183
H 72.309 49.888 46.867
H 71.002 50.341 46.24
H 63.397 47.541 55.252
H 64.67 47.718 54.442
H 74.512 47.335 50.108
H 73.653 46.083 50.059
H 72.075 40.901 49.254
H 71.501 39.506 49.079
H 66.789 51.354 48.629
H 68.807 44.28 42.886
H 75.288 45.596 44.803
H 74.582 44.886 43.662
H 69.396 43.313 41.874
H 71.313 45.977 42.874
H 72.692 45.392 42.626
H 70.622 39.044 45.934
H 69.139 38.753 46.079
H 67.938 46.44 45.779
H 67.8 45.321 44.761
H 68.338 43.926 54.048
H 67.497 43.045 54.956
H 74.382 41.179 42.247
H 75.416 42.251 42.542
H 63.766 45.75 48.52
H 63.349 46.838 47.545
H 71.652 53.226 53.646
H 71.439 54.72 53.819
H 72.713 51.77 57.485
H 71.674 52.878 57.491
H 65.69 44.741 46.743
H 64.681 44.108 45.8
