398
xyz format
Cl 62.646 58.926 60.688
O 68.971 51.431 66.409
O 63.168 58.198 58.623
O 59.509 53.567 70.493
O 62.038 56.92 63.279
O 55.968 59.682 62.992
O 63.229 49.027 63.19
O 58.119 54.41 60.805
O 60.311 48.424 64.719
O 52.342 61.133 68.723
O 64.723 51.009 61.033
O 66.925 61.162 65.676
O 61.15 51.715 61.861
O 65.515 50.061 67.201
O 58.796 59.374 64.961
O 63.682 51.245 66.618
O 55.515 65.421 64.893
O 56.1 64.089 69.08
O 52.85 63.112 63.59
O 64.954 62.354 66.872
O 64.423 56.929 66.829
O 56.041 56.892 75.006
O 61.128 58.983 57.055
O 56.871 54.921 68.371
O 57.393 50.847 72.057
O 62.268 49.56 69.406
O 61.826 62.956 59.73
O 57.996 62.756 72.8
O 59.315 59.568 71.552
O 56.806 65.979 70.41
O 51.219 52.43 70.538
O 63.319 59.946 67.882
O 62.184 60.764 71.62
O 59.054 65.661 65.039
O 55.974 50.296 69.876
O 56.347 56.773 69.443
O 62.87 59.15 73.204
O 59.769 50.395 70.355
O 61.378 51.59 68.789
O 55.729 60.392 59.571
O 51.724 53.542 64.725
O 53.87 53.66 68.672
O 64.268 53.989 62.977
O 60.838 65.916 69.691
O 52.78 57.819 67.129
O 53.677 64.195 67.324
O 56.971 65.614 66.749
O 64.113 56.623 64.676
O 56.551 62.57 64.886
O 55.016 54.74 74.581
O 56.402 51.536 63.405
O 58.954 55.719 71.991
O 64.364 61.958 70.047
O 59.051 56.579 63.042
O 53.887 51.634 67.558
O 63.967 57.638 61.957
O 59.661 62.547 61.16
O 60.257 52.488 65.709
O 68.284 54.102 67.92
O 67.241 56.179 63.668
O 62.059 55.315 65.918
O 66.727 55.814 66.239
O 54.183 62.051 70.321
O 61.481 62.579 66.845
O 50.248 60.15 67.523
O 67.902 52.872 64.805
O 61.51 56.232 56.192
O 66.554 56.94 69.479
O 60.761 57.636 74.462
O 54.925 60.006 67.785
O 61.59 60.384 58.908
O 54.662 56.543 64.089
O 63.496 63.416 65.077
O 61.065 47.323 62.157
O 52.347 55.403 73.0
O 70.387 56.056 67.936
O 60.328 50.152 63.318
O 52.916 55.211 65.598
O 59.691 61.441 58.761
O 69.354 58.359 68.053
O 60.418 62.155 72.505
O 59.336 67.61 69.825
O 63.746 48.714 65.983
O 61.23 55.035 60.138
O 54.39 58.038 61.041
O 51.36 54.265 68.284
O 61.329 57.219 66.991
O 58.218 51.392 64.638
O 58.174 58.5 75.385
O 66.43 57.417 59.538
O 62.029 62.718 69.551
O 68.558 59.38 65.557
O 57.734 62.056 70.046
O 59.26 56.624 70.009
O 59.672 53.905 63.461
O 51.398 61.435 71.409
O 61.479 55.336 74.924
O 58.291 55.897 65.975
O 67.465 53.232 69.817
O 65.142 57.127 57.36
O 55.395 58.188 65.856
O 65.126 53.966 60.897
O 56.714 49.376 62.964
O 59.971 48.903 67.52
O 59.036 49.134 60.538
O 58.262 65.909 72.617
O 60.908 65.06 71.969
O 54.797 52.536 60.356
O 57.868 52.088 68.687
O 58.266 52.377 61.636
O 54.031 61.468 65.908
O 59.831 58.823 61.169
O 53.778 58.748 63.227
O 56.364 54.83 63.474
O 55.106 54.612 70.907
O 54.29 59.603 71.774
O 65.587 59.325 64.57
O 57.663 61.028 61.846
O 63.215 53.304 68.294
O 58.313 64.255 69.655
O 54.572 51.969 70.214
O 57.144 58.857 72.231
O 67.231 58.478 62.253
O 58.655 46.414 64.366
O 58.796 56.877 59.666
O 53.678 52.437 73.681
O 60.544 60.771 65.385
O 65.242 50.684 64.256
O 50.585 56.881 63.867
O 56.957 60.557 66.723
O 62.204 51.375 64.503
O 59.477 54.624 67.64
O 53.589 53.425 63.084
O 51.17 59.369 62.253
O 65.969 52.9 66.381
O 62.406 59.781 62.749
O 56.405 50.712 66.119
O 62.105 55.706 69.222
O 61.067 53.359 73.111
O 62.641 65.124 62.733
O 56.131 58.195 58.527
O 60.517 60.802 70.185
O 66.843 50.424 62.784
O 59.188 61.6 68.093
O 58.454 57.81 67.415
O 63.848 61.673 60.101
O 62.08 57.686 71.165
H 53.972 60.508 71.883
H 54.331 59.265 72.677
H 53.717 56.416 63.94
H 60.765 60.61 69.273
H 60.007 61.619 70.117
H 54.834 56.055 64.904
H 62.854 64.196 62.576
H 62.469 65.163 63.682
H 61.296 52.978 73.968
H 64.232 62.862 64.789
H 61.081 52.601 72.513
H 62.767 63.143 64.506
H 60.056 59.601 61.693
H 60.56 58.213 61.339
H 62.719 56.111 68.596
H 61.247 55.79 68.788
H 64.856 54.715 60.35
H 64.689 53.211 60.483
H 66.957 54.023 70.034
H 66.885 52.744 69.219
H 57.063 55.246 63.993
H 54.436 55.2 70.535
H 55.914 55.138 70.879
H 55.89 54.289 64.118
H 52.996 58.483 63.727
H 53.729 59.712 63.219
H 56.53 51.468 66.706
H 64.857 56.53 58.063
H 56.07 57.841 65.259
H 54.717 58.532 65.261
H 64.32 57.358 56.909
H 56.297 49.967 66.724
H 60.702 48.127 62.55
H 51.996 59.137 61.81
H 59.461 57.353 69.409
H 59.131 55.871 69.42
H 50.743 58.516 62.403
H 57.06 61.458 70.391
H 57.393 62.312 69.18
H 53.866 57.27 60.781
H 60.06 61.316 64.752
H 55.021 57.679 61.677
H 61.469 60.991 65.217
H 60.824 55.595 59.465
H 62.162 55.282 60.11
H 57.709 60.843 66.19
H 56.236 60.492 66.085
H 60.424 54.079 64.041
H 58.938 53.767 64.072
H 51.93 60.841 70.865
H 51.373 56.572 64.331
H 63.074 51.066 64.223
H 61.883 50.667 65.076
H 59.214 56.161 66.07
H 57.892 56.63 65.489
H 65.247 49.905 64.826
H 60.68 55.175 74.407
H 65.182 51.421 64.877
H 53.645 53.106 72.985
H 50.824 54.875 67.762
H 51.861 53.775 67.62
H 55.61 59.365 68.012
H 55.16 60.785 68.304
H 58.401 57.716 59.4
H 58.217 56.565 60.373
H 61.213 59.53 59.155
H 61.466 58.1 67.362
H 61.037 57.394 66.088
H 58.016 52.131 65.226
H 58.423 50.668 65.243
H 61.853 60.771 59.753
H 57.531 57.983 72.369
H 56.279 58.667 71.848
H 64.888 62.586 69.535
H 65.023 61.354 70.412
H 61.118 61.948 73.137
H 59.787 61.434 72.618
H 69.138 54.155 67.474
H 67.648 54.064 67.195
H 67.335 55.252 63.415
H 68.152 56.489 63.742
H 54.004 51.955 66.655
H 54.752 51.773 67.964
H 59.201 56.028 63.82
H 58.645 57.378 63.401
H 59.622 55.961 72.644
H 58.123 55.784 72.478
H 64.537 56.985 62.382
H 64.323 58.483 62.257
H 54.238 52.482 70.96
H 53.808 51.454 69.928
H 58.653 60.802 68.194
H 59.541 61.528 67.198
H 69.489 56.176 68.268
H 53.56 54.808 66.194
H 52.279 55.623 66.194
H 64.584 48.281 66.189
H 63.113 47.986 65.953
H 60.182 51.021 63.711
H 59.444 49.871 63.05
H 59.275 60.602 58.994
H 60.029 51.764 66.305
H 61.095 52.816 66.057
H 59.517 62.579 62.113
H 59.584 61.609 60.947
H 58.743 66.85 69.774
H 68.394 58.46 68.065
H 52.259 55.969 72.223
H 59.861 49.456 60.924
H 50.401 59.529 68.246
H 50.229 61.011 67.959
H 62.402 62.354 66.66
H 61.187 63.022 66.039
H 55.074 62.366 70.123
H 53.617 62.596 69.76
H 53.116 61.725 65.74
H 57.204 52.096 69.388
H 58.384 51.293 68.87
H 58.366 51.542 62.11
H 57.503 52.228 61.064
H 54.534 62.268 65.71
H 55.425 53.208 60.649
H 60.141 49.668 66.957
H 57.311 48.677 62.668
H 59.196 49.164 68.033
H 61.089 57.27 73.631
H 60.001 58.167 74.194
H 58.196 65.205 71.959
H 66.901 56.671 68.619
H 66.881 56.259 70.08
H 67.063 52.51 64.493
H 67.69 53.79 65.016
H 67.237 56.532 65.843
H 66.277 55.411 65.487
H 62.814 55.358 66.518
H 61.335 55.016 66.482
H 55.49 51.645 63.106
H 56.771 52.426 63.342
H 54.093 54.561 68.406
H 53.216 53.783 69.372
H 54.49 54.982 73.809
H 64.117 54.942 63.002
H 64.743 53.811 63.799
H 56.645 63.529 64.834
H 57.38 62.238 64.52
H 66.497 57.947 62.587
H 67.664 58.799 63.054
H 52.881 63.885 66.875
H 54.28 64.407 66.601
H 52.619 57.117 67.772
H 52.026 58.411 67.243
H 67.643 61.229 66.318
H 67.381 61.124 64.826
H 57.431 65.266 67.523
H 56.568 60.642 59.977
H 61.784 65.986 69.867
H 60.71 64.981 69.492
H 63.613 57.432 64.843
H 65.017 56.934 64.543
H 59.201 49.747 70.789
H 60.287 50.768 71.079
H 60.548 51.215 68.469
H 61.099 52.35 69.315
H 64.26 62.545 60.131
H 63.907 61.36 61.012
H 62.022 59.262 73.651
H 63.419 59.851 73.576
H 63.815 60.55 68.449
H 62.593 59.649 68.444
H 56.608 57.143 70.296
H 55.385 56.856 69.442
H 57.545 57.758 67.735
H 66.043 58.754 65.201
H 65.026 59.88 65.126
H 58.774 58.649 67.769
H 55.874 49.9 70.751
H 56.701 49.799 69.481
H 62.74 57.302 71.756
H 61.258 57.255 71.429
H 62.219 59.88 71.233
H 63.111 61.026 71.68
H 56.409 66.776 70.037
H 56.227 65.76 71.15
H 50.464 52.513 71.135
H 58.911 63.894 70.322
H 58.793 64.133 68.827
H 57.141 63.05 72.464
H 59.174 58.723 71.107
H 62.141 49.246 68.502
H 63.193 49.358 69.592
H 58.297 63.497 73.341
H 58.654 60.149 71.156
H 54.803 65.234 64.269
H 56.266 65.635 64.325
H 55.381 64.665 69.368
H 55.838 63.822 68.19
H 57.481 55.567 67.994
H 57.453 54.248 68.745
H 57.484 51.647 71.524
H 63.393 52.078 66.226
H 62.902 50.931 67.092
H 63.928 57.532 67.396
H 53.735 53.905 63.909
H 64.937 56.399 67.451
H 65.997 56.791 60.132
H 62.339 62.131 68.849
H 62.394 63.578 69.308
H 68.912 59.551 64.675
H 68.209 58.483 65.494
H 57.799 58.226 74.539
H 65.092 61.399 66.876
H 65.707 62.697 67.369
H 65.619 52.657 67.247
H 65.255 53.413 65.981
H 53.454 63.496 64.238
H 52.442 63.882 63.174
H 59.286 54.093 66.857
H 59.66 53.968 68.323
H 58.999 58.527 65.378
H 59.295 59.347 64.135
H 63.808 53.811 67.725
H 62.391 53.27 67.792
H 58.032 60.418 62.498
H 60.844 52.588 62.139
H 52.395 61.348 67.784
H 53.046 60.486 68.851
H 64.177 51.43 61.708
H 61.044 48.466 65.346
H 59.531 48.346 65.283
H 58.88 54.477 61.395
H 57.362 54.424 61.404
H 62.035 51.651 62.241
H 57.47 61.822 62.359
H 66.43 50.328 67.356
H 65.069 50.278 68.029
H 55.929 58.108 59.467
H 56.484 57.329 58.287
H 56.61 56.379 74.418
H 63.011 57.332 59.021
H 68.073 51.638 66.696
H 64.079 58.402 58.868
H 62.421 49.014 63.717
H 63.048 49.687 62.509
H 62.101 56.541 62.394
H 61.184 57.37 63.276
H 59.305 52.73 70.928
H 60.101 54.01 71.115
H 61.728 59.697 63.43
H 62.875 60.589 62.99
H 55.971 59.639 62.028
H 56.11 58.767 63.263
