61
xyz format
O 38.204 28.946 37.059
O 35.998 33.114 43.272
O 34.09 32.312 35.869
O 36.8 31.274 41.013
O 38.696 30.883 43.229
O 40.657 31.601 38.058
O 33.023 29.487 44.649
O 41.94 30.858 40.636
O 40.082 27.223 36.893
O 35.399 33.823 37.601
O 35.259 30.555 38.107
O 40.349 33.304 41.177
O 39.064 29.864 40.771
O 37.781 33.021 39.052
O 35.6 37.071 36.932
O 36.862 29.017 39.224
O 34.032 28.321 40.078
O 34.415 30.797 42.537
O 37.9 29.847 35.075
H 38.315 29.075 34.672
H 38.528 30.56 34.904
H 34.976 30.389 41.866
H 33.55 30.85 42.111
H 38.043 33.896 38.739
H 36.831 33.105 39.198
H 39.438 33.066 40.963
H 41.836 30.616 41.564
H 41.885 31.822 40.643
H 40.605 30.257 34.244
H 36.076 34.215 37.036
H 35.504 32.874 37.459
H 40.161 28.083 36.461
H 39.468 30.725 40.939
H 38.761 29.929 39.857
H 39.473 33.244 37.197
H 36.131 28.451 38.947
H 36.763 29.066 40.183
H 39.633 35.362 40.583
H 36.066 30.631 37.581
H 34.68 30.009 37.561
H 38.754 35.906 38.2
H 36.02 34.276 41.353
H 32.967 33.562 38.652
H 36.647 27.326 42.348
H 36.566 31.402 34.273
H 40.892 31.151 37.237
H 40.292 30.898 38.609
H 38.727 31.722 42.753
H 38.17 31.083 44.013
H 37.492 31.944 40.948
H 37.149 30.647 41.659
H 33.486 32.669 35.206
H 34.683 31.747 35.358
H 36.423 32.251 43.351
H 40.048 28.067 41.572
H 40.003 28.873 42.858
H 33.278 28.406 40.674
H 34.787 28.234 40.674
H 38.163 28.188 37.656
H 38.248 29.704 37.655
H 41.873 29.309 37.941
