112
xyz format
Cl 62.646 58.926 60.688
O 63.168 58.198 58.623
O 61.531 64.618 56.662
O 65.032 58.193 53.772
O 59.139 60.722 52.596
O 61.128 58.983 57.055
O 61.631 61.417 54.456
O 61.826 62.956 59.73
O 57.782 65.822 55.598
O 65.671 61.294 58.902
O 61.228 59.219 53.159
O 67.277 61.685 54.283
O 60.537 63.447 55.094
O 60.777 65.268 60.86
O 58.991 62.781 56.522
O 59.135 57.985 54.928
O 59.661 62.547 61.16
O 64.807 59.715 55.941
O 61.51 56.232 56.192
O 67.749 62.38 60.54
O 61.59 60.384 58.908
O 59.691 61.441 58.761
O 58.02 64.553 53.514
O 62.023 66.342 54.868
O 65.142 57.127 57.36
O 63.676 66.559 57.751
O 59.831 58.823 61.169
O 67.389 62.821 57.353
O 58.993 65.84 58.401
O 57.663 61.028 61.846
O 62.963 61.964 56.456
O 57.798 60.473 57.314
O 62.406 59.781 62.749
O 69.593 60.828 55.83
O 63.848 61.673 60.101
H 59.774 65.658 58.939
H 58.367 65.156 58.667
H 69.338 63.25 54.149
H 67.838 62.736 56.502
H 67.122 63.748 57.38
H 60.056 59.601 61.693
H 60.56 58.213 61.339
H 64.12 65.822 57.314
H 68.182 63.056 60.003
H 66.93 62.804 60.823
H 64.32 57.358 56.909
H 61.715 66.944 55.558
H 62.735 65.85 55.294
H 57.103 61.787 53.898
H 56.321 63.084 53.782
H 63.142 55.79 52.04
H 57.48 61.384 57.351
H 57.259 60.015 57.971
H 58.654 64.099 52.945
H 58.401 57.716 59.4
H 61.213 59.53 59.155
H 61.853 60.771 59.753
H 62.761 68.735 54.828
H 59.275 60.602 58.994
H 59.94 61.325 57.836
H 59.517 62.579 62.113
H 59.584 61.609 60.947
H 62.305 56.506 56.666
H 60.831 56.208 56.878
H 64.888 60.489 55.369
H 64.124 59.185 55.512
H 63.57 62.473 52.415
H 59.835 58.648 54.982
H 63.394 61.494 57.181
H 63.614 62.626 56.193
H 66.915 60.56 61.448
H 56.568 60.642 59.977
H 66.85 56.557 52.137
H 61.659 64.884 60.784
H 60.303 64.644 61.423
H 58.877 63.508 57.146
H 58.307 62.937 55.86
H 55.573 62.913 56.614
H 59.947 63.094 54.416
H 61.356 63.625 54.615
H 64.26 62.545 60.131
H 63.907 61.36 61.012
H 60.443 58.946 52.669
H 61.831 58.471 53.063
H 66.955 62.571 54.494
H 66.958 61.145 55.017
H 66.06 60.469 59.218
H 65.9 61.312 57.965
H 65.39 55.715 53.511
H 60.983 63.291 59.402
H 62.324 62.76 58.927
H 59.763 66.3 54.769
H 57.594 65.007 56.079
H 66.73 61.463 52.055
H 62.583 61.272 54.402
H 61.363 61.528 53.535
H 66.895 58.016 60.135
H 68.608 60.579 52.922
H 59.181 61.305 53.363
H 66.382 65.453 55.022
H 62.094 64.337 57.394
H 60.849 65.152 57.089
H 58.032 60.418 62.498
H 57.47 61.822 62.359
H 65.502 58.1 52.934
H 64.102 58.194 53.514
H 68.955 60.123 56.0
H 61.074 59.732 56.449
H 60.219 58.865 57.356
H 63.011 57.332 59.021
H 64.079 58.402 58.868
H 62.875 60.589 62.99
