83
xyz format
O 71.41 61.627 54.881
O 66.038 60.789 52.061
O 70.928 59.159 53.705
O 67.277 61.685 54.283
O 71.719 61.327 50.7
O 67.36 55.888 52.61
O 71.85 55.05 56.796
O 72.804 63.531 50.301
O 72.953 61.649 53.31
O 70.507 57.39 55.906
O 64.402 61.363 50.707
O 75.061 62.007 52.346
O 72.137 58.897 57.441
O 68.991 57.036 50.856
O 71.422 63.771 56.513
O 69.005 60.911 52.108
O 74.251 59.744 57.75
O 68.886 65.327 52.273
O 70.268 63.435 54.333
O 68.875 57.428 53.018
O 73.18 56.033 53.525
O 69.717 60.399 49.481
O 69.139 63.701 50.781
O 72.488 59.353 48.668
O 69.593 60.828 55.83
H 70.459 65.447 55.463
H 69.256 62.997 50.131
H 70.684 63.405 53.463
H 69.338 63.25 54.149
H 67.838 62.736 56.502
H 74.4 58.791 57.712
H 73.758 59.867 58.571
H 64.824 60.698 50.149
H 72.156 63.24 56.181
H 71.217 63.37 57.367
H 69.655 57.57 50.402
H 72.579 62.128 52.56
H 73.174 60.784 52.943
H 74.999 62.662 53.052
H 75.33 61.201 52.804
H 71.336 58.417 57.684
H 72.117 58.902 56.476
H 72.596 64.339 50.788
H 73.502 63.121 50.827
H 69.591 65.238 52.926
H 68.109 64.976 52.725
H 70.542 61.183 58.734
H 70.252 56.608 56.411
H 71.012 57.031 55.165
H 64.888 60.489 55.369
H 65.02 62.866 52.192
H 71.657 63.553 48.326
H 73.42 56.781 54.086
H 69.222 57.308 53.91
H 71.213 54.634 56.201
H 68.832 58.387 52.916
H 72.351 55.639 56.219
H 66.85 56.557 52.137
H 71.761 60.374 50.845
H 70.826 61.563 50.983
H 66.955 62.571 54.494
H 66.958 61.145 55.017
H 71.718 58.864 54.175
H 70.251 59.192 54.392
H 70.159 60.835 48.742
H 69.162 59.734 49.055
H 66.73 61.463 52.055
H 66.475 60.009 51.696
H 74.09 62.371 48.715
H 69.178 60.112 51.594
H 68.608 60.579 52.922
H 70.896 61.318 54.125
H 71.913 60.848 55.151
H 66.831 63.862 51.26
H 70.601 56.477 58.644
H 67.81 61.494 49.43
H 66.478 62.218 49.525
H 70.531 66.252 49.757
H 68.955 60.123 56.0
H 70.176 60.799 56.598
H 72.327 60.021 47.99
H 71.608 59.162 49.015
H 71.439 54.72 53.819
