168
xyz format
O 43.167 63.664 30.895
O 33.676 67.464 34.202
O 40.343 65.535 28.373
O 38.108 54.297 27.379
O 31.745 65.226 35.258
O 37.534 56.033 29.941
O 34.669 53.535 32.647
O 36.051 66.287 35.211
O 43.266 61.36 31.959
O 32.012 59.02 39.058
O 33.823 57.49 36.037
O 40.028 61.029 33.684
O 33.571 60.472 32.065
O 32.508 60.595 30.112
O 38.091 53.985 32.814
O 35.318 54.462 35.57
O 36.922 62.85 34.472
O 33.615 62.512 33.947
O 31.211 56.956 35.773
O 39.563 62.225 31.07
O 29.415 64.564 38.189
O 35.879 57.619 36.81
O 38.278 56.39 34.887
O 32.022 63.804 38.5
O 36.772 61.67 37.716
O 31.13 55.868 33.737
O 34.096 66.866 37.684
O 35.277 59.994 30.358
O 33.687 53.546 30.518
O 34.412 62.958 30.545
O 29.457 54.438 36.791
O 32.349 54.56 38.524
O 35.041 64.222 34.011
O 41.24 62.051 28.177
O 35.254 60.288 36.134
O 31.361 60.244 34.288
O 31.285 52.849 34.228
O 33.747 62.702 36.677
O 35.44 54.642 28.067
O 29.41 58.085 34.515
O 29.615 57.402 37.347
O 39.134 55.815 32.179
O 40.224 65.104 34.051
O 38.547 65.3 29.963
O 31.295 58.776 31.78
O 34.707 55.884 33.208
O 27.34 60.318 36.531
O 31.129 63.323 33.11
O 35.423 61.272 34.117
O 33.038 56.375 30.754
O 38.37 58.492 36.904
O 35.059 57.15 28.243
O 29.251 62.415 35.392
O 35.275 54.96 31.084
O 39.258 63.299 36.579
O 30.718 55.772 29.42
O 38.266 65.462 32.948
O 35.321 64.73 36.865
O 41.026 65.701 31.399
O 31.325 60.57 36.467
O 39.422 58.85 32.292
O 33.79 61.374 38.43
O 32.599 53.517 36.145
O 30.686 61.382 39.184
O 36.132 57.776 33.006
O 26.595 57.174 35.885
H 34.764 60.575 34.009
H 35.759 61.41 33.223
H 35.456 55.846 33.815
H 33.939 55.891 33.793
H 30.393 60.477 39.352
H 31.457 61.483 39.757
H 30.842 62.633 32.5
H 31.678 63.899 32.563
H 40.671 61.877 28.937
H 30.821 59.229 31.071
H 31.987 58.287 31.317
H 32.994 60.84 38.32
H 33.472 62.172 38.87
H 38.32 64.363 29.929
H 28.932 57.254 34.635
H 29.321 58.526 35.369
H 34.966 54.698 27.228
H 35.317 53.725 28.34
H 36.211 60.16 30.536
H 35.26 59.762 29.421
H 31.256 63.303 38.192
H 32.212 64.404 37.769
H 36.556 57.518 36.129
H 36.072 56.906 37.432
H 29.015 64.553 37.311
H 36.206 60.265 35.973
H 35.141 59.728 36.912
H 30.871 61.025 34.002
H 30.929 59.518 33.821
H 33.055 63.03 36.09
H 39.278 63.573 35.654
H 38.316 63.217 36.773
H 34.397 62.319 36.074
H 36.942 61.558 38.66
H 35.814 61.778 37.667
H 30.595 56.373 33.112
H 31.852 55.524 33.196
H 31.86 53.37 33.654
H 30.585 53.467 34.474
H 33.616 52.858 29.845
H 33.117 54.251 30.186
H 33.497 63.048 30.838
H 34.923 63.048 31.359
H 35.579 64.437 33.239
H 27.613 61.172 36.173
H 34.19 64.637 33.82
H 29.767 55.065 36.127
H 37.982 59.375 36.918
H 37.695 66.167 32.617
H 35.601 64.16 36.137
H 34.38 64.865 36.701
H 40.114 62.96 30.772
H 38.954 62.081 30.335
H 29.046 62.154 34.486
H 30.196 62.615 35.364
H 31.405 64.426 35.679
H 32.254 65.654 35.958
H 37.333 55.72 29.05
H 37.838 56.939 29.803
H 31.481 57.862 35.968
H 31.623 56.437 36.475
H 26.764 57.047 34.943
H 36.921 57.769 32.449
H 35.414 57.95 32.385
H 33.479 62.718 33.014
H 32.852 61.967 34.175
H 36.872 62.404 35.326
H 37.3 63.713 34.686
H 35.409 53.807 36.273
H 35.834 55.214 35.889
H 37.431 54.322 32.197
H 31.045 54.893 29.65
H 31.481 56.202 29.015
H 35.772 54.471 30.416
H 35.877 55.667 31.346
H 33.332 61.058 29.913
H 32.657 59.705 29.771
H 32.672 60.473 32.417
H 33.889 59.58 32.252
H 31.262 61.334 37.055
H 31.403 59.822 37.072
H 33.926 56.534 36.12
H 33.57 57.614 35.114
H 31.829 58.86 39.992
H 32.58 58.282 38.806
H 36.349 66.518 34.322
H 36.837 65.907 35.623
H 42.439 61.713 31.606
H 39.887 61.839 34.19
H 40.296 59.232 32.442
H 38.817 59.525 32.626
H 38.835 56.732 32.131
H 28.839 57.029 36.91
H 29.278 58.202 37.768
H 32.292 54.302 35.674
H 35.851 56.79 27.825
H 35.227 57.038 29.187
H 34.001 53.745 33.311
H 35.502 53.746 33.085
H 33.955 66.659 34.656
H 33.504 56.707 31.532
H 32.178 56.106 31.099
