233
xyz format
O 67.443 45.63 45.603
O 69.831 48.448 45.987
O 74.857 41.91 41.833
O 64.275 48.624 42.465
O 69.971 57.602 40.999
O 69.707 53.004 35.096
O 71.921 50.145 46.021
O 72.564 43.314 37.78
O 68.132 44.456 39.404
O 63.678 51.852 40.364
O 72.199 57.22 40.709
O 67.809 53.637 41.01
O 70.952 45.473 40.043
O 68.807 50.74 45.586
O 72.217 46.232 42.651
O 68.83 44.092 41.94
O 66.045 49.349 32.194
O 69.679 46.657 34.673
O 65.778 46.918 42.973
O 66.673 43.966 42.372
O 71.55 42.045 41.691
O 70.193 47.655 29.788
O 70.551 50.08 31.041
O 75.722 43.93 41.154
O 70.173 46.186 45.534
O 73.702 51.787 42.779
O 71.678 50.996 32.939
O 70.973 55.472 36.151
O 71.488 52.678 41.931
O 70.108 53.36 39.458
O 67.53 55.478 44.629
O 69.825 43.099 38.317
O 63.267 47.106 33.72
O 75.769 51.269 43.95
O 68.37 46.646 41.621
O 72.63 42.195 44.045
O 73.252 44.143 46.298
O 68.556 48.274 43.101
O 73.251 53.982 43.039
O 72.137 46.081 33.254
O 76.358 46.786 39.045
O 65.088 45.87 34.132
O 74.426 43.695 39.391
O 76.504 56.359 40.716
O 74.328 51.162 38.153
O 61.369 48.486 42.344
O 65.514 48.418 35.6
O 69.945 53.596 43.675
O 74.753 53.486 46.525
O 68.911 55.426 42.911
O 76.744 54.034 43.285
O 71.249 43.865 43.486
O 71.555 48.52 44.573
O 74.359 48.141 43.669
O 65.993 48.457 40.905
O 67.723 55.17 34.685
O 73.983 46.165 39.976
O 67.39 45.465 35.564
O 70.437 48.094 41.294
O 72.648 50.152 35.389
O 74.704 55.139 41.297
O 71.048 48.164 38.908
O 70.116 53.973 46.542
O 71.728 55.394 33.185
O 67.743 50.348 36.169
O 68.599 50.251 38.54
O 72.325 48.476 33.692
O 73.904 48.505 39.58
O 70.683 50.986 36.535
O 63.68 50.758 43.388
O 77.267 43.918 42.762
O 66.182 51.454 42.628
O 72.557 53.274 33.777
O 71.345 58.403 44.585
O 73.779 48.14 35.829
O 71.557 44.209 35.465
O 71.952 52.018 39.092
O 67.213 49.441 44.803
O 71.009 45.974 37.319
O 67.769 53.237 47.772
O 71.976 49.716 41.266
O 63.232 47.84 39.281
O 76.871 52.568 39.797
O 76.751 47.587 41.916
O 75.367 45.411 43.859
O 75.293 42.702 45.464
O 66.557 54.01 37.138
H 77.292 44.866 42.942
H 76.997 43.531 43.604
H 75.325 43.618 45.768
H 74.648 42.722 44.746
H 73.104 48.619 33.14
H 71.626 48.281 33.056
H 67.939 50.061 39.219
H 69.428 50.296 39.032
H 67.394 50.84 35.415
H 68.439 49.801 35.783
H 69.734 48.755 41.256
H 70.561 47.945 42.24
H 73.196 50.234 36.179
H 72.001 49.477 35.627
H 71.036 53.802 46.303
H 70.036 54.932 46.47
H 77.377 46.856 41.989
H 74.553 55.919 41.845
H 74.166 55.302 40.512
H 76.697 47.933 42.816
H 73.282 48.068 38.985
H 73.765 49.444 39.407
H 69.922 51.233 37.075
H 71.44 51.267 37.063
H 71.198 49.022 39.324
H 70.341 48.338 38.273
H 71.542 50.578 41.266
H 72.096 49.52 42.203
H 69.766 52.788 44.173
H 70.089 54.26 44.36
H 67.015 46.334 35.753
H 71.578 46.203 38.064
H 70.13 46.249 37.608
H 68.25 55.805 42.318
H 69.426 56.19 43.198
H 75.8 54.094 43.094
H 76.777 53.912 44.242
H 72.032 48.049 43.877
H 65.84 48.064 36.436
H 66.272 48.343 35.007
H 70.945 49.088 44.088
H 70.542 43.312 43.842
H 71.656 44.25 44.271
H 67.075 48.516 45.041
H 66.596 49.919 45.37
H 68.948 48.078 43.961
H 68.549 49.239 43.066
H 73.58 54.732 43.551
H 72.865 54.392 42.255
H 73.797 51.776 37.63
H 74.889 50.728 37.497
H 74.118 48.08 36.73
H 73.031 47.53 35.823
H 73.416 44.686 45.517
H 72.746 52.346 39.532
H 72.024 51.059 39.174
H 73.924 42.873 39.452
H 76.568 55.545 40.2
H 74.639 43.765 38.452
H 64.578 45.354 33.495
H 76.031 47.681 39.202
H 76.789 46.551 39.875
H 65.616 46.459 33.579
H 72.504 46.213 34.137
H 72.803 46.463 32.669
H 66.941 57.538 46.289
H 67.686 55.121 45.512
H 67.005 54.794 44.195
H 66.613 58.346 45.046
H 76.311 51.716 43.288
H 75.245 51.981 44.336
H 67.849 46.221 42.313
H 69.244 46.246 41.713
H 66.29 50.784 43.315
H 66.857 51.225 41.977
H 63.753 47.876 33.399
H 63.142 47.289 34.659
H 71.432 56.273 35.869
H 71.667 54.801 36.155
H 70.226 53.454 38.504
H 70.874 53.813 39.83
H 69.516 43.688 37.618
H 70.546 52.757 41.733
H 71.504 52.297 42.818
H 72.56 50.857 33.306
H 71.122 50.388 33.441
H 67.32 54.294 37.655
H 73.659 51.524 41.852
H 73.275 51.058 43.245
H 71.06 46.53 45.37
H 69.984 45.656 44.751
H 75.788 44.839 40.836
H 76.375 43.454 40.625
H 69.807 49.487 31.202
H 71.322 49.551 31.283
H 70.627 44.329 35.695
H 71.563 44.257 34.501
H 72.626 56.932 41.526
H 68.548 53.672 41.63
H 67.944 54.413 40.45
H 70.602 44.833 40.674
H 72.548 44.271 37.654
H 71.789 43.006 37.293
H 71.444 46.094 40.595
H 67.972 45.094 40.11
H 68.236 43.618 39.872
H 66.602 44.13 43.32
H 66.314 43.076 42.265
H 66.066 46.248 43.605
H 66.372 47.661 43.139
H 69.445 46.251 35.517
H 74.575 46.654 40.561
H 73.581 45.506 40.555
H 67.026 55.137 34.018
H 67.313 55.642 35.421
H 65.426 48.856 40.233
H 66.176 49.185 41.511
H 74.021 47.327 43.275
H 73.985 48.837 43.115
H 69.201 51.56 45.909
H 69.015 50.741 44.643
H 63.749 47.196 39.78
H 70.42 48.277 46.732
H 68.949 48.327 46.359
H 72.867 52.895 34.609
H 71.621 53.04 33.753
H 72.309 49.888 46.867
H 71.002 50.341 46.24
H 69.295 53.033 35.969
H 69.993 53.913 34.947
H 68.807 44.28 42.886
H 75.288 45.596 44.803
H 74.582 44.886 43.662
H 69.396 43.313 41.874
H 71.313 45.977 42.874
H 72.692 45.392 42.626
H 65.728 48.731 32.865
H 66.486 50.038 32.707
H 63.637 48.505 43.18
H 64.095 47.884 41.872
H 67.938 46.44 45.779
H 67.8 45.321 44.761
H 76.627 53.345 40.316
H 76.042 52.081 39.711
H 70.383 57.661 41.87
H 69.028 57.54 41.195
