31
xyz format
O 38.522 57.998 74.117
O 36.526 54.043 73.94
O 34.328 58.476 71.525
O 36.78 56.49 71.425
O 38.283 51.259 74.688
O 39.999 54.215 73.409
O 37.723 55.759 74.62
O 33.278 54.532 71.354
O 39.021 60.055 74.726
H 32.976 55.365 71.736
H 33.482 54.76 70.439
H 37.307 62.338 72.202
H 38.358 61.244 72.142
H 41.927 59.282 74.126
H 37.721 55.995 73.684
H 37.137 56.412 75.023
H 39.563 54.988 73.028
H 37.535 51.431 74.103
H 39.298 53.485 75.402
H 34.458 56.156 68.2
H 35.921 54.499 74.538
H 37.133 53.584 74.534
H 34.284 57.518 71.636
H 35.183 58.618 71.1
H 36.466 55.708 71.897
H 36.766 57.184 72.096
H 39.834 60.312 74.273
H 38.325 60.474 74.204
H 39.482 57.96 74.022
H 38.231 58.461 73.321
H 37.78 52.506 71.871
