682
xyz format
Cl 39.106 49.969 60.184
Cl 31.247 50.946 48.398
Na 35.918 45.033 51.34
Na 36.045 52.744 54.029
O 34.03 51.908 48.431
O 30.247 50.397 57.83
O 40.501 62.894 63.585
O 42.041 62.691 62.027
O 40.864 56.219 58.793
O 34.624 42.468 47.144
O 39.645 51.124 52.771
O 38.806 41.967 52.515
O 31.718 50.328 50.467
O 42.228 51.872 52.946
O 30.798 55.98 50.701
O 36.137 54.707 47.034
O 32.848 56.56 52.79
O 41.751 65.527 63.853
O 32.229 48.197 51.93
O 37.82 65.132 59.359
O 31.491 59.184 57.652
O 45.343 58.568 57.018
O 39.083 52.778 54.927
O 30.128 53.045 49.088
O 35.998 54.064 51.222
O 38.11 53.8 52.342
O 29.555 46.662 46.322
O 38.685 57.888 54.719
O 36.685 59.221 51.626
O 49.235 60.47 57.866
O 29.172 50.2 48.425
O 39.582 63.43 60.735
O 33.462 42.924 54.583
O 39.93 54.031 60.539
O 29.263 57.353 47.75
O 27.97 51.193 54.054
O 35.527 64.484 62.437
O 44.439 61.737 54.351
O 39.375 60.307 55.966
O 41.376 64.83 58.256
O 43.014 57.352 50.28
O 42.303 51.756 47.762
O 40.166 45.084 54.475
O 43.637 63.062 63.495
O 36.115 47.947 57.122
O 37.603 39.466 51.337
O 29.977 50.025 55.681
O 38.696 57.437 57.182
O 33.794 56.833 46.106
O 43.983 64.926 61.101
O 45.731 53.856 60.759
O 37.775 60.29 59.145
O 34.983 47.227 55.413
O 39.834 55.328 46.991
O 42.458 57.269 53.963
O 31.879 55.375 48.019
O 41.645 65.357 60.377
O 42.547 54.312 57.931
O 43.801 59.878 48.48
O 35.795 40.644 50.88
O 33.429 56.825 48.595
O 32.823 52.029 52.37
O 44.804 60.501 60.742
O 44.145 66.322 55.699
O 39.724 51.06 46.718
O 30.114 49.385 53.351
O 36.647 56.414 65.243
O 47.926 61.005 61.121
O 32.252 49.193 47.517
O 37.448 52.083 65.074
O 33.878 56.475 59.72
O 31.547 56.696 55.17
O 42.424 48.02 61.262
O 46.216 56.588 52.637
O 28.487 47.652 53.572
O 33.453 54.701 51.781
O 37.778 52.699 61.682
O 31.427 60.912 59.062
O 42.588 50.596 60.018
O 33.645 39.909 52.16
O 36.04 57.475 57.67
O 33.386 46.348 50.318
O 43.288 60.914 51.7
O 35.803 57.681 53.654
O 38.784 44.157 50.705
O 46.392 62.363 52.051
O 29.647 42.765 50.736
O 32.256 46.71 56.603
O 49.581 59.632 54.869
O 43.351 53.627 60.992
O 35.473 47.645 62.085
O 36.313 55.225 62.82
O 34.184 48.452 59.501
O 32.081 47.191 54.461
O 42.331 51.399 63.601
O 36.399 47.621 52.922
O 39.372 47.593 53.489
O 38.772 59.287 62.177
O 32.843 62.11 56.765
O 28.001 55.325 50.766
O 45.306 56.67 62.387
O 47.052 57.775 61.629
O 44.16 58.405 59.33
O 38.35 61.942 61.796
O 37.42 62.98 54.343
O 42.291 57.22 66.609
O 34.353 42.37 49.495
O 47.15 59.032 58.231
O 26.647 49.718 47.157
O 40.293 57.193 52.427
O 39.605 58.243 60.413
O 34.687 59.579 60.557
O 41.462 60.503 49.131
O 43.485 63.394 56.677
O 40.328 58.319 65.298
O 42.88 56.545 56.125
O 41.098 59.129 57.18
O 39.651 55.792 66.746
O 36.032 56.502 49.186
O 47.78 58.377 55.011
O 38.01 56.638 51.62
O 36.959 55.005 57.413
O 35.314 65.152 59.461
O 37.86 65.411 53.471
O 33.56 58.405 51.13
O 38.568 53.967 50.198
O 44.112 57.961 52.243
O 37.459 63.726 63.168
O 35.002 50.37 53.825
O 33.74 53.775 62.964
O 34.865 50.637 46.801
O 39.239 49.041 51.133
O 32.846 50.038 56.493
O 42.262 60.957 56.794
O 40.983 49.07 48.041
O 38.094 50.989 49.754
O 31.257 44.358 51.092
O 41.194 61.252 59.64
O 40.461 51.484 50.229
O 43.83 66.339 58.582
O 26.397 50.49 49.722
O 43.627 58.729 63.446
O 34.066 53.885 49.408
O 36.277 45.16 58.973
O 41.672 65.82 55.48
O 40.68 60.52 63.249
O 40.225 56.434 62.301
O 29.309 49.506 45.239
O 30.982 59.397 51.281
O 45.512 56.47 48.907
O 34.394 52.84 46.177
O 34.127 65.404 56.244
O 45.654 62.323 59.04
O 37.019 62.904 56.579
O 37.205 51.46 46.884
O 30.955 54.379 56.495
O 34.107 60.949 58.473
O 44.951 63.541 49.997
O 37.689 60.247 64.995
O 28.495 54.48 53.532
O 40.517 45.963 51.754
O 30.996 43.925 48.06
O 38.789 62.81 65.645
O 35.656 53.484 58.677
O 41.46 54.421 67.434
O 36.171 58.634 61.883
O 34.377 62.425 61.472
O 44.499 64.204 53.591
O 37.91 49.795 57.98
O 39.422 54.221 45.107
O 42.855 56.962 61.352
O 46.19 64.401 57.621
O 36.382 62.745 59.865
O 36.446 54.914 54.061
O 36.941 52.18 56.464
O 35.709 42.973 52.475
O 33.973 58.652 63.702
O 29.399 52.358 46.08
O 31.515 45.151 53.129
O 49.094 57.43 60.789
O 47.129 60.991 55.846
O 39.358 65.408 61.99
O 35.522 60.678 62.854
O 30.695 53.439 53.104
O 44.197 62.054 47.458
O 34.831 63.241 53.989
O 37.175 44.512 56.397
O 35.203 50.261 44.664
O 38.105 64.816 56.457
O 34.279 58.0 56.305
O 35.492 58.963 47.841
O 41.558 54.762 51.557
O 35.19 41.251 55.002
O 43.674 60.899 63.094
O 30.592 46.561 48.669
O 37.411 49.635 61.542
O 39.733 52.288 62.804
O 41.164 55.004 53.881
O 35.976 50.126 56.944
O 43.662 53.147 64.699
O 40.52 56.216 56.62
O 40.748 49.866 63.123
O 45.143 55.064 64.304
O 38.213 45.197 46.694
O 38.171 43.125 54.991
O 31.733 59.795 54.694
O 26.254 53.848 50.583
O 36.632 47.66 50.624
O 37.526 45.597 52.84
O 40.443 52.733 48.418
O 33.772 47.17 47.384
O 33.372 60.588 52.768
O 38.043 57.227 62.013
O 36.908 47.584 47.915
O 38.712 52.742 57.567
O 29.809 57.686 52.617
O 37.263 50.647 53.136
O 41.481 52.655 56.237
O 45.915 63.195 61.624
O 41.748 55.727 63.732
O 28.119 58.058 51.151
O 33.494 44.757 56.3
O 46.554 63.974 55.049
O 38.747 46.415 48.462
O 36.398 50.531 63.789
O 49.576 58.58 52.507
O 40.689 60.948 52.072
O 34.262 46.965 52.847
O 35.371 50.464 60.959
O 39.716 67.168 59.899
O 37.87 56.507 47.514
O 32.8 48.774 45.137
O 37.492 54.612 60.328
O 44.961 53.241 62.831
O 36.74 60.665 55.989
O 35.062 50.156 51.212
O 37.765 49.304 54.806
O 33.943 44.592 49.112
O 40.618 48.928 58.161
O 28.73 51.543 51.349
O 32.35 53.405 61.08
O 27.274 56.449 55.15
O 46.676 54.87 62.737
O 49.286 50.822 51.315
O 31.732 42.196 51.333
N 47.582 49.311 51.473
N 48.411 51.553 54.037
C 48.588 50.626 55.037
C 49.365 53.325 56.879
C 48.16 48.371 50.547
C 48.124 52.651 57.501
C 47.032 52.668 52.302
C 47.511 51.339 52.935
C 48.205 50.485 51.84
C 46.197 52.397 51.069
C 46.223 53.463 53.307
H 37.544 45.37 56.153
H 40.055 48.731 51.544
H 39.253 48.632 50.259
H 44.285 59.029 64.086
H 43.225 60.715 62.26
H 44.557 61.179 62.823
H 35.706 41.815 54.412
H 34.861 40.552 54.423
H 31.498 46.231 48.628
H 38.742 65.061 57.14
H 37.724 65.66 56.185
H 43.01 58.21 63.978
H 34.804 62.462 54.558
H 34.685 63.975 54.599
H 32.291 44.825 53.602
H 30.898 45.384 53.834
H 36.12 52.629 56.226
H 37.133 51.629 55.694
H 45.738 64.896 56.927
H 34.915 58.446 63.734
H 33.853 59.043 62.828
H 38.003 54.412 59.534
H 49.166 57.257 59.842
H 36.734 55.108 59.993
H 30.335 52.209 46.263
H 28.948 51.757 46.686
H 37.253 55.153 54.533
H 35.792 54.81 54.764
H 37.165 63.032 59.378
H 35.791 62.417 59.176
H 43.34 56.484 60.668
H 42.975 57.89 61.111
H 34.85 43.391 52.336
H 42.386 54.555 52.01
H 41.371 53.965 51.047
H 35.941 59.571 48.441
H 40.08 48.255 58.596
H 41.103 49.338 58.888
H 35.045 58.346 48.433
H 34.222 58.802 56.839
H 33.928 57.313 56.884
H 36.027 42.8 51.581
H 41.431 62.378 46.784
H 34.721 49.736 50.412
H 33.975 61.552 61.382
H 34.188 62.854 60.628
H 44.432 63.459 52.981
H 44.58 64.97 53.01
H 35.332 52.755 46.392
H 34.124 53.641 46.644
H 30.041 49.453 45.866
H 31.593 59.294 52.022
H 45.417 57.425 49.012
H 44.606 56.163 48.773
H 38.266 49.035 57.503
H 38.099 50.541 57.398
H 35.825 57.749 61.713
H 36.752 58.801 61.131
H 41.487 54.352 66.472
H 33.967 50.691 46.451
H 34.847 49.85 47.359
H 33.829 54.491 48.694
H 34.362 47.513 52.059
H 33.562 46.345 52.608
H 33.219 53.519 49.69
H 34.97 51.213 61.417
H 35.802 50.867 60.195
H 31.496 53.928 55.834
H 30.228 54.75 55.98
H 36.339 63.389 57.065
H 37.611 62.584 57.271
H 37.678 51.003 47.592
H 37.512 52.372 46.955
H 34.971 65.48 56.706
H 35.606 50.88 50.877
H 49.086 59.214 51.969
H 48.918 58.254 53.133
H 40.094 60.579 64.014
H 41.552 60.379 63.638
H 36.952 44.888 59.608
H 36.85 63.194 63.695
H 40.823 57.189 62.371
H 40.362 56.116 61.4
H 44.122 58.893 51.99
H 44.404 57.97 53.163
H 37.963 64.218 63.828
H 32.783 41.632 48.116
H 34.623 51.159 53.418
H 35.356 50.691 54.664
H 41.425 66.753 55.488
H 45.091 63.107 59.027
H 45.991 62.268 58.137
H 42.013 55.195 62.971
H 41.492 55.071 64.392
H 33.113 53.67 60.55
H 26.965 50.52 47.59
H 40.145 58.063 52.036
H 40.361 56.607 51.663
H 31.635 53.961 60.745
H 40.071 58.592 59.643
H 38.684 58.209 60.128
H 43.31 53.857 64.148
H 30.68 57.406 52.927
H 29.313 57.834 53.432
H 32.973 49.305 57.108
H 43.74 58.773 58.543
H 44.771 57.746 58.977
H 32.698 50.798 57.069
H 41.845 56.68 65.945
H 41.165 51.824 55.86
H 42.43 52.639 56.063
H 37.394 62.019 61.679
H 38.447 61.684 62.721
H 36.893 63.76 54.557
H 36.89 62.52 53.68
H 42.193 61.076 55.838
H 43.158 60.619 56.919
H 40.875 53.387 48.981
H 40.031 53.264 47.725
H 30.621 45.073 50.97
H 31.79 44.386 50.287
H 38.366 50.997 50.681
H 37.723 51.87 49.617
H 40.394 50.799 49.551
H 41.413 51.595 50.349
H 35.195 42.772 49.247
H 34.193 42.704 50.387
H 40.917 61.518 58.754
H 46.957 59.579 59.002
H 47.376 58.173 58.611
H 41.545 60.362 59.513
H 41.139 48.517 47.266
H 40.024 49.176 48.059
H 39.259 53.371 50.512
H 30.619 52.512 53.364
H 30.101 53.514 52.347
H 43.398 62.237 47.968
H 37.481 66.12 54.005
H 38.426 65.586 62.168
H 39.807 66.203 62.302
H 36.376 60.877 63.258
H 34.899 61.215 63.359
H 38.796 65.421 53.708
H 44.214 65.47 58.411
H 39.486 58.643 64.953
H 40.875 58.217 64.51
H 35.32 66.01 59.018
H 31.921 59.004 54.174
H 33.817 58.675 50.24
H 36.375 55.472 56.802
H 37.454 55.713 57.843
H 47.452 60.45 56.577
H 46.262 61.291 56.148
H 34.861 64.574 58.835
H 37.329 43.305 54.555
H 38.829 43.35 54.322
H 32.827 57.794 50.982
H 41.254 49.545 62.366
H 41.226 49.514 63.884
H 46.605 50.784 53.329
H 38.015 57.433 52.167
H 38.375 56.936 50.778
H 48.927 52.406 54.021
H 38.878 54.239 49.325
H 40.479 59.616 57.739
H 41.561 58.553 57.801
H 38.1 49.088 61.937
H 45.886 54.423 52.845
H 42.125 60.65 49.817
H 40.728 60.093 49.605
H 47.941 53.268 52.003
H 45.816 53.364 50.657
H 34.231 59.196 59.797
H 35.314 60.197 60.16
H 46.803 51.894 50.278
H 46.828 53.709 54.212
H 45.319 52.89 53.627
H 43.654 64.068 56.006
H 47.132 58.827 54.454
H 47.611 57.441 54.849
H 37.568 50.51 61.918
H 36.566 57.216 49.556
H 36.083 55.808 49.856
H 45.319 51.753 51.316
H 42.522 63.356 56.726
H 33.385 45.005 46.26
H 42.498 57.431 56.156
H 43.628 56.596 56.734
H 39.379 58.815 62.761
H 38.038 59.528 62.755
H 36.328 48.213 48.361
H 36.547 46.724 48.165
H 39.944 48.344 53.693
H 39.282 47.136 54.334
H 33.281 61.758 55.981
H 45.253 62.649 61.181
H 42.444 51.441 60.462
H 43.089 50.834 59.228
H 46.162 62.674 62.398
H 37.662 50.033 52.507
H 36.804 51.284 52.575
H 42.991 61.813 51.512
H 43.313 60.878 52.665
H 37.711 56.548 61.413
H 37.732 56.938 62.88
H 38.828 53.699 57.606
H 38.133 52.55 58.315
H 31.465 47.934 54.47
H 32.929 47.593 54.684
H 34.526 46.575 47.292
H 36.098 48.538 52.913
H 37.237 47.66 53.401
H 33.969 47.886 46.767
H 27.664 55.654 51.609
H 46.846 57.686 60.69
H 46.996 58.725 61.787
H 28.608 56.018 50.476
H 44.903 57.508 62.127
H 45.323 56.16 61.568
H 42.129 52.192 63.088
H 27.677 58.605 51.812
H 33.187 46.908 56.767
H 31.836 47.579 56.588
H 50.258 58.952 54.765
H 49.447 59.678 55.824
H 43.69 54.437 61.394
H 43.011 53.921 60.138
H 45.593 61.822 52.078
H 46.695 62.278 51.138
H 39.557 44.299 50.144
H 38.215 44.911 50.507
H 30.601 56.925 50.707
H 30.488 55.676 51.563
H 41.656 52.63 52.774
H 42.731 52.136 53.726
H 35.472 55.266 47.455
H 36.415 54.11 47.739
H 32.687 40.521 50.282
H 31.072 49.863 51.014
H 32.567 50.082 50.855
H 38.193 44.325 47.108
H 35.831 50.638 57.749
H 35.085 49.892 56.657
H 36.84 52.571 61.492
H 38.211 52.492 60.845
H 33.274 40.39 52.91
H 36.382 58.188 58.224
H 35.6 56.889 58.297
H 33.536 47.094 49.723
H 32.467 46.457 50.593
H 32.63 54.894 51.315
H 34.117 55.202 51.29
H 40.33 55.489 53.83
H 36.935 54.568 62.484
H 35.712 55.372 62.079
H 40.058 55.421 56.914
H 40.095 56.43 55.779
H 41.209 54.723 54.803
H 39.499 51.489 62.316
H 34.306 49.18 58.879
H 34.027 47.688 58.932
H 39.952 51.961 63.686
H 35.786 58.569 54.032
H 35.948 57.109 54.418
H 31.902 61.078 59.885
H 36.339 47.873 62.444
H 46.527 57.494 52.517
H 46.06 56.523 53.587
H 42.159 48.042 60.334
H 31.911 56.412 56.018
H 30.613 56.848 55.361
H 29.676 51.4 51.477
H 28.36 50.652 51.365
H 33.149 55.999 60.135
H 34.18 57.08 60.409
H 37.82 52.338 64.22
H 31.497 48.593 47.463
H 32.735 48.884 48.294
H 36.98 57.28 64.976
H 35.864 56.289 64.692
H 32.119 42.614 52.112
H 48.487 60.222 61.173
H 40.367 50.501 46.264
H 30.347 50.32 53.297
H 29.616 49.225 52.54
H 39.347 51.597 46.009
H 47.885 61.196 60.175
H 32.618 57.281 48.853
H 33.839 56.592 49.437
H 44.669 65.966 54.97
H 44.798 66.768 56.253
H 41.689 64.541 60.89
H 41.707 54.201 58.393
H 42.289 54.643 57.062
H 31.129 55.958 47.847
H 31.733 55.074 48.924
H 41.609 66.049 61.049
H 43.184 60.036 47.754
H 44.416 59.227 48.119
H 36.083 40.909 49.998
H 35.449 39.752 50.751
H 42.181 57.907 53.293
H 42.713 56.493 53.448
H 45.068 60.35 59.826
H 32.788 52.766 52.993
H 32.386 51.309 52.842
H 45.119 59.714 61.205
H 40.419 55.745 46.347
H 40.021 55.801 47.811
H 38.937 58.316 56.863
H 39.014 57.43 58.093
H 34.508 57.097 46.7
H 39.561 53.435 55.449
H 39.158 51.971 55.452
H 44.534 58.638 56.496
H 46.038 58.488 56.352
H 30.875 53.096 48.479
H 36.444 53.262 50.922
H 35.897 53.928 52.173
H 38.956 58.362 53.923
H 38.244 57.1 54.377
H 29.367 52.925 48.506
H 37.928 40.373 51.272
H 41.918 65.467 57.774
H 40.81 64.448 57.574
H 38.888 61.13 56.094
H 39.854 60.451 55.14
H 45.208 61.177 54.183
H 44.26 61.605 55.29
H 40.797 61.56 51.333
H 40.119 60.256 51.714
H 29.099 50.414 55.776
H 29.797 49.094 55.5
H 45.257 53.927 59.921
H 45.879 52.908 60.86
H 37.657 60.541 60.07
H 38.196 61.064 58.75
H 35.203 48.062 54.98
H 35.235 46.559 54.763
H 43.779 65.785 60.71
H 43.833 64.304 60.378
H 37.796 56.088 46.647
H 35.99 53.102 59.499
H 35.028 54.154 58.974
H 37.837 55.765 48.13
H 39.647 64.193 60.148
H 39.591 62.676 60.132
H 34.194 43.554 54.589
H 33.568 42.457 53.745
H 32.606 49.713 45.027
H 33.673 48.672 44.737
H 29.052 55.22 53.26
H 28.95 54.123 54.305
H 39.613 46.269 51.606
H 41.014 46.779 51.895
H 38.614 62.358 64.81
H 37.063 60.892 65.348
H 33.723 61.786 58.762
H 34.669 61.199 57.728
H 44.458 63.29 50.787
H 37.144 59.468 64.825
H 28.536 51.852 53.635
H 35.637 65.007 61.633
H 38.511 46.777 49.325
H 39.547 45.904 48.638
H 38.33 52.865 52.441
H 47.35 63.445 54.914
H 45.859 63.315 55.171
H 35.764 59.128 51.899
H 36.653 59.111 50.668
H 35.9 51.346 63.646
H 35.932 49.88 63.25
H 38.881 54.256 52.7
H 48.838 61.286 58.194
H 49.155 59.86 58.61
H 28.597 50.209 49.2
H 29.206 49.268 48.175
H 39.677 54.028 61.471
H 40.867 53.801 60.555
H 29.339 56.964 48.63
H 32.666 55.886 53.458
H 33.076 57.341 53.309
H 45.632 52.801 63.368
H 44.301 52.553 62.681
H 29.616 51.118 57.944
H 30.986 50.647 58.398
H 38.569 41.421 53.276
H 38.049 42.557 52.412
H 38.264 45.43 53.439
H 35.773 47.343 50.316
H 36.749 45.525 53.409
H 37.057 46.867 50.973
H 30.901 58.516 57.281
H 31.708 59.743 56.896
H 32.564 48.625 52.728
H 31.552 47.593 52.261
H 37.423 65.225 60.234
H 37.65 65.984 58.938
H 41.655 65.02 63.037
H 36.591 59.928 56.595
H 33.226 44.868 48.527
H 34.741 44.842 48.631
H 41.295 62.258 61.594
H 42.739 62.665 61.361
H 42.504 50.942 47.283
H 42.767 52.437 47.26
H 38.512 49.69 55.279
H 37.184 48.992 55.511
H 43.897 62.704 64.353
H 44.218 63.824 63.379
H 43.334 57.919 49.567
H 42.094 57.181 50.043
H 36.273 48.147 58.053
H 36.41 47.032 57.03
H 41.017 45.015 54.024
H 40.383 44.911 55.4
H 41.269 62.762 64.155
H 40.104 63.708 63.919
H 35.864 61.058 55.887
H 34.706 51.801 49.111
H 33.457 51.141 48.554
H 34.616 43.202 46.516
H 40.083 55.86 59.234
H 41.464 56.423 59.521
H 40.449 50.625 52.579
H 39.393 50.821 53.652
