111
xyz format
O 43.409 31.841 44.157
O 38.584 33.255 44.327
O 44.611 31.972 38.288
O 45.521 29.325 37.697
O 38.696 30.883 43.229
O 40.657 31.601 38.058
O 48.445 33.465 39.636
O 41.199 31.681 43.378
O 43.704 34.017 44.311
O 43.206 30.56 46.823
O 41.94 30.858 40.636
O 40.3 36.05 40.7
O 44.366 32.637 42.188
O 47.945 32.418 44.203
O 40.349 33.304 41.177
O 43.201 34.415 36.909
O 39.064 29.864 40.771
O 38.78 36.562 42.502
O 37.781 33.021 39.052
O 47.631 28.186 41.32
O 49.399 30.812 46.976
O 46.553 31.436 39.232
O 43.006 29.024 43.006
O 46.485 33.445 45.564
O 49.204 29.958 42.136
O 45.493 29.707 41.248
O 38.868 36.834 38.438
O 45.917 34.532 40.466
O 45.559 27.575 42.147
O 41.964 33.859 39.435
O 44.495 36.267 46.086
O 47.533 29.619 44.772
O 40.981 29.046 45.828
O 49.269 31.904 40.95
O 42.477 34.855 41.362
H 44.962 30.145 40.572
H 45.849 30.437 41.769
H 49.836 30.31 46.277
H 49.249 31.678 46.577
H 48.783 32.128 43.821
H 47.797 31.798 44.928
H 49.625 29.38 41.488
H 38.043 33.896 38.739
H 43.625 28.352 39.98
H 39.438 33.066 40.963
H 40.27 33.791 42.007
H 40.701 35.665 37.204
H 47.681 27.239 41.141
H 47.224 28.549 40.523
H 48.163 36.193 39.993
H 41.836 30.616 41.564
H 41.885 31.822 40.643
H 45.908 37.144 38.796
H 43.318 32.305 35.803
H 50.133 33.812 44.251
H 42.243 30.599 46.762
H 39.239 36.318 43.315
H 42.765 34.868 37.641
H 44.017 34.078 37.3
H 48.044 29.348 43.999
H 48.046 29.282 45.516
H 39.468 30.725 40.939
H 39.473 33.244 37.197
H 40.704 33.139 36.314
H 45.676 34.913 39.613
H 45.081 34.5 40.948
H 42.375 28.644 42.383
H 43.567 29.583 42.454
H 45.219 32.518 42.623
H 44.512 32.294 41.298
H 46.326 31.804 40.095
H 47.397 30.994 39.385
H 47.079 34.097 45.955
H 46.25 32.874 46.306
H 40.984 35.817 40.059
H 39.633 35.362 40.583
H 38.754 35.906 38.2
H 37.277 35.126 41.409
H 48.351 33.855 40.513
H 47.635 33.725 39.18
H 44.507 36.99 46.725
H 45.287 35.758 46.3
H 42.414 33.146 38.966
H 43.373 34.339 45.159
H 44.657 33.948 44.448
H 41.065 33.833 39.083
H 40.855 31.383 44.23
H 41.444 32.601 43.54
H 40.292 30.898 38.609
H 44.27 35.962 48.673
H 38.727 31.722 42.753
H 38.17 31.083 44.013
H 37.492 31.944 40.948
H 46.319 29.406 38.233
H 44.813 29.249 38.349
H 42.82 34.407 48.103
H 44.739 32.725 38.878
H 44.187 31.311 38.848
H 42.989 35.331 42.027
H 42.727 33.932 41.497
H 40.003 28.873 42.858
H 39.546 33.326 44.373
H 44.304 31.563 44.388
H 42.913 31.718 44.976
H 42.424 36.3 46.853
H 41.426 28.37 39.883
H 45.427 26.801 41.586
H 44.704 27.692 42.582
H 49.407 31.213 40.29
H 48.355 31.774 41.229
H 41.496 34.086 46.381
