90
xyz format
O 41.412 59.904 45.339
O 42.55 60.666 40.761
O 43.898 59.337 44.775
O 41.36 64.47 42.569
O 39.974 61.558 41.697
O 43.014 57.352 50.28
O 39.834 55.328 46.991
O 47.823 59.757 44.75
O 43.801 59.878 48.48
O 45.669 62.484 44.645
O 46.791 61.459 46.866
O 42.018 63.872 45.28
O 48.52 64.216 44.431
O 50.168 59.763 45.276
O 44.112 57.961 52.243
O 45.271 60.546 42.993
O 45.512 56.47 48.907
O 45.415 62.181 41.486
O 45.801 64.68 44.688
O 47.703 59.154 48.739
O 42.049 57.107 45.768
O 44.197 62.054 47.458
O 46.846 56.204 46.256
O 40.528 62.488 46.463
O 43.051 65.884 44.539
O 45.625 57.874 45.407
O 47.96 60.817 42.826
O 42.028 61.824 43.179
O 38.49 63.281 46.223
O 45.643 59.188 41.251
H 44.348 60.781 43.151
H 45.619 60.375 43.877
H 46.924 59.319 49.285
H 47.347 59.094 47.843
H 42.573 56.542 46.35
H 41.572 57.683 46.378
H 41.431 62.378 46.784
H 40.582 62.226 45.535
H 38.693 64.204 46.029
H 45.417 57.425 49.012
H 44.606 56.163 48.773
H 38.409 62.876 45.351
H 44.73 61.839 40.898
H 46.097 62.501 40.882
H 44.122 58.893 51.99
H 42.603 61.857 43.954
H 50.988 60.171 45.582
H 50.376 58.82 45.253
H 41.232 61.384 43.503
H 48.326 63.327 44.11
H 38.457 60.378 43.328
H 46.335 65.206 44.08
H 46.427 64.417 45.374
H 44.485 62.926 47.161
H 43.398 62.237 47.968
H 45.461 57.822 44.457
H 46.027 58.744 45.522
H 46.034 56.171 46.776
H 47.543 56.256 46.922
H 42.496 66.034 43.763
H 43.921 65.695 44.165
H 42.125 60.65 49.817
H 45.964 53.365 45.744
H 42.962 63.672 45.304
H 41.921 64.593 45.916
H 46.187 61.091 47.524
H 46.813 62.401 47.075
H 39.732 63.871 47.978
H 43.184 60.036 47.754
H 44.416 59.227 48.119
H 48.217 58.876 44.774
H 48.025 60.122 45.621
H 46.56 62.143 44.787
H 45.618 62.604 43.689
H 40.419 55.745 46.347
H 40.021 55.801 47.811
H 40.945 64.153 41.756
H 42.299 64.294 42.43
H 39.8 60.892 41.021
H 39.726 62.388 41.27
H 47.668 61.693 42.543
H 49.093 60.849 48.992
H 47.443 60.215 42.276
H 43.312 60.15 40.469
H 43.953 59.514 45.723
H 43.284 58.593 44.717
H 43.334 57.919 49.567
H 42.094 57.181 50.043
H 42.022 60.569 45.68
H 40.637 59.988 45.909
