292
xyz format
O 43.478 37.536 32.884
O 58.357 42.165 32.213
O 46.433 36.815 32.932
O 54.182 49.336 31.495
O 54.774 50.098 37.186
O 45.733 48.509 31.953
O 49.76 32.907 36.399
O 48.66 49.362 33.595
O 43.128 47.633 32.968
O 50.528 47.952 30.327
O 46.529 42.063 30.219
O 52.563 51.837 35.898
O 55.942 47.335 32.968
O 52.3 31.798 35.173
O 50.579 51.258 36.654
O 48.833 45.132 36.582
O 52.045 39.375 30.216
O 50.118 37.717 31.113
O 55.723 41.84 36.029
O 50.363 40.468 38.283
O 51.575 36.828 28.335
O 42.509 44.712 31.816
O 50.25 37.275 38.303
O 49.028 39.22 42.219
O 54.64 43.574 28.561
O 54.477 39.43 31.777
O 56.584 37.734 36.1
O 46.756 45.28 28.776
O 57.742 36.64 38.365
O 49.397 39.75 27.915
O 51.599 39.451 40.276
O 52.181 38.422 42.594
O 44.636 45.743 30.719
O 44.369 38.201 36.674
O 43.966 42.991 35.457
O 56.982 41.707 39.823
O 54.967 41.777 33.958
O 47.96 41.069 32.132
O 59.668 41.292 39.142
O 47.559 41.166 41.228
O 44.16 44.06 38.098
O 42.857 41.054 38.169
O 53.237 47.776 37.279
O 58.972 44.967 38.96
O 44.294 43.052 29.815
O 51.131 41.219 32.423
O 45.549 38.002 39.053
O 50.827 43.883 30.833
O 53.405 46.384 31.076
O 45.985 42.402 42.479
O 41.846 41.941 31.692
O 53.501 41.307 42.52
O 54.735 36.665 40.538
O 51.116 50.463 33.315
O 54.767 42.662 30.575
O 49.416 51.428 30.997
O 49.677 47.318 35.392
O 49.978 42.608 26.311
O 48.183 38.292 34.342
O 48.646 40.269 30.2
O 60.14 41.978 34.969
O 42.205 43.697 34.264
O 46.137 41.844 36.528
O 46.113 50.098 34.367
O 47.999 38.989 38.43
O 50.811 39.306 35.772
O 51.232 43.383 37.162
O 49.447 41.421 34.204
O 46.963 45.185 32.225
O 47.291 39.979 35.984
O 45.346 46.34 35.392
O 49.004 35.151 31.673
O 48.537 35.954 39.136
O 52.624 41.258 36.235
O 47.394 50.357 29.947
O 47.657 43.455 34.18
O 51.229 50.341 30.39
O 45.069 46.488 38.492
O 53.759 44.779 36.904
O 49.847 44.732 33.838
O 47.9 42.23 37.959
O 44.661 39.923 34.84
O 51.156 42.059 28.588
O 56.146 47.272 36.315
O 55.609 38.781 38.286
O 53.658 34.319 37.575
O 46.743 41.184 28.097
O 47.799 36.232 36.156
O 46.292 38.488 41.071
O 50.148 46.313 31.866
O 53.613 47.024 33.713
O 49.833 37.065 33.547
O 48.047 50.59 35.994
O 54.151 34.301 35.4
O 44.806 43.652 32.61
O 52.134 35.937 34.778
O 46.084 44.182 40.467
O 48.298 43.553 28.503
O 42.65 40.602 34.256
O 46.994 38.6 31.771
O 52.253 49.144 35.857
O 46.208 40.407 33.329
O 48.858 46.918 28.19
O 50.61 37.205 41.65
O 52.559 49.22 28.088
O 57.805 42.605 36.97
O 44.328 40.414 39.675
O 51.804 48.349 33.324
H 55.533 39.743 38.265
H 54.9 38.482 37.703
H 55.849 46.585 36.924
H 51.593 42.395 29.38
H 50.918 41.154 28.824
H 44.658 40.253 35.747
H 45.254 39.162 34.875
H 58.678 45.644 36.648
H 51.777 51.145 33.489
H 50.373 50.713 33.879
H 54.39 44.496 37.578
H 54.286 44.81 36.096
H 51.33 49.833 31.204
H 46.345 42.774 36.374
H 45.915 49.214 34.7
H 45.49 50.214 33.639
H 48.612 38.745 37.725
H 48.572 39.346 39.119
H 51.296 39.825 35.118
H 50.709 38.443 35.35
H 44.206 46.609 38.076
H 45.694 46.632 37.771
H 47.284 44.243 34.593
H 47.0 43.21 33.517
H 50.649 43.047 36.469
H 48.163 36.193 39.993
H 49.338 35.466 39.363
H 51.524 44.238 36.821
H 50.14 41.675 34.826
H 48.653 41.374 34.751
H 47.736 45.464 31.719
H 46.405 44.749 31.569
H 45.621 41.857 37.343
H 50.528 47.547 34.998
H 49.212 46.859 34.682
H 49.847 35.341 32.104
H 47.855 40.472 36.593
H 46.603 39.614 36.554
H 48.735 36.003 31.309
H 49.01 52.39 33.416
H 45.204 47.131 34.858
H 44.993 45.627 34.845
H 50.287 43.511 31.541
H 51.717 43.896 31.206
H 52.707 36.655 35.077
H 52.046 35.375 35.558
H 52.555 45.927 31.089
H 53.538 46.594 30.143
H 45.908 37.144 38.796
H 45.783 38.58 38.316
H 42.851 40.006 33.524
H 43.073 41.431 34.0
H 53.916 47.26 37.731
H 52.753 48.198 38.0
H 45.014 43.04 31.893
H 44.538 43.074 33.335
H 43.325 40.478 37.552
H 47.322 38.686 34.153
H 48.728 39.047 34.6
H 54.129 35.009 34.744
H 55.088 34.22 35.618
H 47.943 40.065 29.57
H 51.567 40.729 33.131
H 51.717 41.972 32.272
H 59.477 41.782 35.643
H 44.521 43.712 29.147
H 44.499 42.212 29.385
H 50.448 43.264 26.84
H 50.682 42.154 25.831
H 48.814 41.209 30.06
H 41.967 43.302 33.416
H 46.625 43.114 42.361
H 42.759 41.648 31.801
H 47.396 41.767 38.64
H 48.634 42.625 38.447
H 55.114 37.355 39.979
H 49.201 44.623 33.129
H 50.345 43.905 33.824
H 42.733 44.467 34.018
H 53.36 40.358 42.407
H 54.938 42.835 31.509
H 53.029 41.699 41.775
H 48.407 36.911 36.473
H 53.664 46.791 34.649
H 53.004 46.37 33.347
H 48.01 35.464 36.701
H 49.549 50.962 31.832
H 47.067 40.7 40.539
H 48.015 41.868 40.748
H 59.517 42.169 39.515
H 60.501 41.013 39.542
H 48.844 44.269 28.154
H 48.764 42.754 28.226
H 44.529 37.28 36.916
H 43.517 38.174 36.221
H 48.493 40.315 32.415
H 48.556 41.821 32.232
H 54.16 41.795 33.428
H 55.673 41.745 33.3
H 43.853 42.287 36.108
H 47.777 38.067 31.583
H 46.67 38.849 30.896
H 45.04 44.041 37.703
H 43.932 43.127 38.195
H 51.576 49.466 35.249
H 52.97 48.864 35.275
H 43.706 43.789 35.935
H 49.386 46.896 31.974
H 50.014 45.92 30.994
H 43.838 46.062 30.279
H 53.085 38.213 42.859
H 51.866 39.008 43.293
H 46.605 42.136 28.021
H 47.455 41.005 27.47
H 44.533 46.048 31.63
H 50.739 39.196 40.631
H 52.002 38.611 40.025
H 57.059 42.505 40.36
H 49.061 38.865 28.104
H 50.121 39.593 27.296
H 56.892 36.373 38.737
H 57.414 37.873 36.573
H 56.244 36.91 36.47
H 46.669 46.07 29.324
H 46.541 44.558 29.38
H 54.016 38.605 31.582
H 54.388 39.94 30.962
H 50.981 48.114 32.878
H 52.423 48.501 32.599
H 53.998 42.854 28.516
H 50.974 36.676 38.527
H 49.97 37.626 39.157
H 48.638 39.053 41.352
H 48.345 39.718 42.686
H 57.15 40.991 40.448
H 41.867 45.079 31.196
H 43.002 44.074 31.285
H 50.79 37.047 33.426
H 49.658 36.298 34.107
H 47.368 49.932 36.188
H 47.853 51.308 36.61
H 52.427 37.28 28.391
H 49.862 40.75 37.508
H 50.812 39.666 37.987
H 54.954 42.365 36.287
H 55.563 40.982 36.44
H 45.83 41.287 33.447
H 45.565 39.953 32.77
H 50.037 38.419 31.77
H 49.607 38.044 30.362
H 48.822 46.358 28.975
H 46.184 41.467 30.895
H 47.172 42.603 30.695
H 55.832 46.495 33.431
H 55.591 47.986 33.589
H 51.501 38.866 29.602
H 52.596 39.918 29.639
H 53.379 40.863 36.687
H 51.942 41.295 36.917
H 50.166 37.357 42.493
H 49.98 36.668 41.153
H 47.823 49.939 30.703
H 53.13 51.332 35.302
H 52.026 52.374 35.303
H 50.252 50.801 37.439
H 49.947 51.977 36.528
H 43.587 37.82 33.8
H 58.493 42.296 37.572
H 57.11 42.923 37.56
H 57.491 41.793 32.003
H 46.887 37.733 40.978
H 51.45 47.744 30.522
H 50.468 47.849 29.369
H 48.41 48.755 32.888
H 48.244 48.985 34.38
H 53.486 49.532 30.855
H 54.326 48.387 31.395
H 49.054 44.705 37.419
H 49.595 44.943 36.021
H 45.945 36.067 32.566
H 45.742 37.399 33.267
H 55.042 49.189 37.006
H 53.813 50.075 37.102
H 46.085 47.803 31.397
