104
xyz format
O 63.784 46.708 48.397
O 60.59 39.059 52.721
O 62.194 42.612 47.902
O 60.649 44.321 52.543
O 61.473 44.715 48.2
O 63.502 41.26 46.724
O 59.735 44.46 49.947
O 57.527 39.392 44.856
O 59.491 41.082 51.615
O 62.426 43.614 45.743
O 61.029 38.18 50.048
O 59.052 40.635 45.899
O 60.473 36.334 47.206
O 61.991 41.178 50.57
O 55.129 36.91 43.964
O 59.223 46.933 46.829
O 56.685 35.957 49.083
O 64.586 43.393 49.489
O 58.822 46.964 51.092
O 59.805 41.423 48.572
O 58.55 44.819 46.721
O 58.887 37.503 46.227
O 58.668 39.011 49.076
O 56.327 38.29 51.963
O 59.266 36.379 51.227
O 61.18 45.78 50.956
O 60.695 40.219 43.778
O 59.949 43.914 44.681
O 54.483 37.411 49.577
O 61.191 37.962 45.881
O 57.043 40.261 49.869
O 57.6 42.914 50.605
O 57.525 42.61 46.168
O 56.94 40.673 47.041
O 61.075 41.491 53.069
O 60.832 46.359 45.268
H 54.087 39.864 48.662
H 59.73 44.599 44.038
H 56.933 43.047 46.793
H 58.375 42.6 46.627
H 59.645 43.1 44.261
H 61.248 40.821 44.291
H 60.665 39.419 44.317
H 60.12 35.978 51.432
H 64.5 42.452 49.293
H 56.155 38.031 51.049
H 55.81 39.098 52.074
H 58.441 38.08 48.96
H 58.867 39.311 48.18
H 57.513 46.716 45.269
H 62.717 40.61 50.855
H 62.168 42.016 51.016
H 55.095 37.858 44.139
H 54.008 38.129 50.014
H 59.423 46.925 47.773
H 61.158 46.652 50.543
H 61.9 45.847 51.595
H 57.412 36.192 48.493
H 57.658 43.835 50.322
H 57.335 42.445 49.804
H 61.572 38.657 46.431
H 60.032 35.849 47.915
H 56.568 39.522 49.47
H 57.341 39.91 50.718
H 61.322 36.583 47.591
H 59.987 40.51 46.103
H 59.06 41.024 45.015
H 57.267 36.254 44.34
H 56.33 35.582 45.329
H 63.379 37.679 50.688
H 60.586 37.739 49.312
H 60.635 39.061 50.058
H 61.781 42.897 45.714
H 61.894 44.407 45.599
H 59.215 41.171 50.694
H 59.046 41.815 52.059
H 55.86 40.846 43.462
H 59.813 43.731 49.319
H 59.614 45.235 49.385
H 56.956 38.636 45.046
H 57.521 39.447 43.893
H 61.621 47.75 48.693
H 57.029 39.712 47.046
H 57.456 40.955 47.807
H 57.998 37.461 46.6
H 59.065 38.45 46.164
H 60.517 40.788 48.719
H 60.105 41.931 47.808
H 59.497 44.631 46.733
H 58.293 44.766 47.65
H 57.92 41.433 42.951
H 59.27 41.912 42.447
H 59.048 46.077 51.397
H 61.528 45.592 47.8
H 61.845 44.842 49.082
H 62.429 41.917 48.529
H 62.988 43.16 47.859
H 59.823 43.841 52.686
H 62.793 40.988 46.128
H 64.219 41.511 46.128
H 61.31 39.333 52.138
H 59.892 38.788 52.111
H 63.766 45.75 48.52
H 63.349 46.838 47.545
