43
xyz format
O 42.322 26.668 57.849
O 36.863 27.526 57.835
O 37.25 27.481 60.692
O 39.114 25.438 59.867
O 38.103 30.039 55.727
O 41.856 27.655 60.228
O 40.933 30.223 57.005
O 39.505 27.216 58.129
O 36.324 31.597 57.694
O 39.719 29.182 61.997
O 35.27 29.077 56.845
O 41.656 30.611 61.007
O 36.833 30.582 59.644
H 35.571 31.726 57.103
H 37.068 31.469 57.093
H 43.11 30.532 56.744
H 39.199 27.719 57.364
H 39.415 26.297 57.849
H 42.247 29.88 61.225
H 41.204 28.15 59.717
H 41.472 27.616 61.113
H 39.562 28.341 62.445
H 39.632 28.961 61.061
H 43.776 24.94 56.277
H 35.544 29.726 56.185
H 35.191 28.257 56.341
H 38.588 29.448 55.137
H 38.217 29.638 56.598
H 37.103 29.969 58.949
H 37.628 31.106 59.808
H 40.009 25.325 60.212
H 38.604 25.714 60.638
H 37.779 28.089 60.16
H 37.59 27.604 61.587
H 36.299 27.977 58.476
H 37.327 26.865 58.364
H 42.186 28.313 55.991
H 34.609 31.035 58.962
H 40.309 30.369 56.284
H 40.656 29.378 57.381
H 42.083 26.09 57.114
H 43.242 26.439 58.031
H 41.971 31.801 58.2
