144
xyz format
Na 35.533 36.977 44.303
O 38.146 26.099 47.255
O 43.409 31.841 44.157
O 44.202 27.859 45.228
O 35.157 26.844 52.851
O 33.466 28.099 53.863
O 42.071 34.804 48.565
O 34.547 28.544 47.565
O 37.205 34.002 50.022
O 39.501 27.725 48.116
O 39.855 33.055 48.811
O 36.863 27.526 57.835
O 36.524 26.872 49.286
O 38.696 30.883 43.229
O 38.22 29.507 49.033
O 37.56 35.072 53.085
O 44.88 26.431 50.601
O 41.199 31.681 43.378
O 38.103 30.039 55.727
O 35.931 26.726 42.591
O 44.026 34.047 50.12
O 41.565 31.817 54.306
O 34.491 30.77 46.735
O 32.659 27.394 46.023
O 43.206 30.56 46.823
O 33.023 29.487 44.649
O 39.361 30.466 53.336
O 34.368 33.378 45.237
O 36.116 32.709 54.784
O 33.464 31.615 55.099
O 37.159 30.547 46.724
O 41.733 31.719 49.0
O 39.147 33.436 51.778
O 31.661 28.49 49.029
O 41.244 23.022 47.716
O 38.576 28.029 51.764
O 37.425 24.538 49.781
O 40.933 30.223 57.005
O 32.216 30.69 52.555
O 39.505 27.216 58.129
O 36.704 32.63 52.673
O 42.168 23.661 50.343
O 37.609 25.714 51.631
O 45.389 24.214 46.521
O 36.324 31.597 57.694
O 31.743 32.566 46.89
O 45.719 26.103 47.764
O 38.327 32.878 54.35
O 35.27 29.077 56.845
O 41.886 32.097 51.535
O 36.563 28.234 45.843
O 34.172 30.657 49.549
O 32.852 29.488 55.893
O 40.981 29.046 45.828
O 34.308 33.121 47.957
O 42.5 24.114 45.083
O 36.144 34.572 47.31
O 42.278 26.575 47.445
O 36.833 30.582 59.644
H 37.068 31.469 57.093
H 44.671 24.144 47.164
H 30.986 28.628 48.352
H 42.829 24.128 49.817
H 40.628 23.668 48.083
H 40.409 29.397 46.522
H 41.415 28.293 46.248
H 39.199 27.719 57.364
H 37.012 32.678 51.759
H 38.995 28.324 52.582
H 37.747 28.522 51.74
H 31.164 28.513 49.856
H 35.909 28.941 45.776
H 36.057 27.435 45.652
H 37.709 24.184 48.929
H 36.461 24.514 49.73
H 39.203 32.588 52.236
H 36.225 31.774 54.999
H 32.356 29.825 45.26
H 33.796 29.344 45.209
H 41.579 31.266 51.153
H 40.089 30.554 52.708
H 38.573 30.483 52.779
H 43.372 29.737 47.298
H 42.243 30.599 46.762
H 38.105 30.629 46.896
H 36.783 30.366 47.594
H 33.541 33.329 45.733
H 34.088 33.638 44.35
H 42.124 32.229 48.28
H 41.082 31.16 48.557
H 39.035 33.522 54.22
H 38.648 32.328 55.075
H 37.946 25.026 52.217
H 37.219 26.359 52.234
H 33.298 26.752 46.358
H 32.358 27.853 46.817
H 35.544 29.726 56.185
H 35.191 28.257 56.341
H 35.069 30.964 45.986
H 33.64 31.142 46.47
H 35.741 26.956 43.509
H 38.588 29.448 55.137
H 38.217 29.638 56.598
H 31.553 31.779 47.416
H 40.855 31.383 44.23
H 37.896 29.777 49.901
H 37.677 28.74 48.813
H 38.17 31.083 44.013
H 36.039 27.362 49.962
H 37.394 26.737 49.681
H 42.133 31.417 54.976
H 40.855 32.223 54.819
H 45.171 26.838 47.462
H 40.126 27.17 47.635
H 39.978 27.966 48.92
H 39.723 32.686 49.694
H 39.757 34.006 48.943
H 37.575 33.174 49.691
H 37.97 34.587 50.083
H 34.881 30.396 48.949
H 33.48 30.982 48.959
H 35.134 25.913 53.103
H 34.429 26.929 52.222
H 36.543 33.934 47.913
H 33.899 28.545 48.281
H 35.204 27.897 47.852
H 42.074 26.448 48.38
H 42.27 25.679 47.085
H 40.309 30.369 56.284
H 40.656 29.378 57.381
H 31.359 30.875 52.151
H 32.794 30.526 51.8
H 32.861 28.632 56.338
H 32.815 30.124 56.618
H 34.957 32.422 48.103
H 33.87 33.209 48.813
H 44.304 31.563 44.388
H 42.913 31.718 44.976
H 43.576 28.009 45.947
H 41.89 23.833 45.776
H 32.693 27.753 54.328
H 33.122 28.865 53.387
H 37.181 26.119 47.277
H 38.347 25.488 46.535
