571
xyz format
Cl 47.816 30.708 60.247
Na 37.083 30.36 63.863
Na 47.489 37.29 62.212
O 54.575 43.013 67.823
O 47.762 42.709 62.717
O 35.394 36.402 63.467
O 50.681 38.287 70.734
O 43.183 35.498 71.595
O 40.835 39.486 66.723
O 45.322 43.488 68.492
O 47.72 27.35 63.94
O 41.417 32.357 57.638
O 43.578 31.445 62.935
O 50.845 32.383 67.979
O 55.378 40.424 69.073
O 52.341 36.905 65.243
O 50.543 34.192 69.4
O 48.262 32.311 52.325
O 45.9 31.848 71.012
O 49.495 40.318 75.375
O 47.782 37.364 66.119
O 55.757 39.152 67.204
O 57.743 30.466 65.999
O 58.247 35.569 61.606
O 47.946 32.282 56.353
O 41.967 35.9 58.181
O 46.198 44.885 70.629
O 53.19 36.105 58.391
O 50.558 26.197 60.281
O 48.148 36.832 72.522
O 45.137 32.146 55.159
O 50.085 42.824 68.915
O 44.277 36.009 68.583
O 43.895 40.144 73.427
O 59.913 34.417 65.395
O 52.727 30.364 56.437
O 47.845 28.102 61.283
O 51.802 36.488 56.136
O 49.908 34.975 58.2
O 40.793 37.207 69.212
O 35.382 34.223 58.415
O 53.036 35.388 62.771
O 34.495 31.565 59.76
O 39.899 36.73 64.839
O 39.486 34.653 58.813
O 52.099 25.274 58.968
O 51.643 43.428 71.237
O 51.408 38.624 57.022
O 50.286 29.566 63.09
O 50.58 46.217 65.016
O 45.694 27.633 55.38
O 47.316 35.252 55.793
O 55.002 31.796 55.372
O 53.795 28.205 57.145
O 36.863 27.526 57.835
O 37.25 27.481 60.692
O 49.815 36.065 55.292
O 41.77 39.637 69.633
O 39.114 25.438 59.867
O 50.233 42.399 59.323
O 46.156 39.886 71.998
O 51.061 31.956 54.321
O 51.588 39.224 68.646
O 50.47 40.888 56.059
O 31.457 32.241 62.707
O 49.581 27.309 55.104
O 52.012 41.385 68.688
O 50.889 33.83 72.315
O 50.982 37.216 62.935
O 55.782 32.223 65.02
O 40.034 33.806 65.611
O 53.977 28.683 59.902
O 40.527 28.843 66.644
O 55.442 37.586 73.44
O 35.905 36.968 66.666
O 38.841 33.212 60.586
O 47.172 40.967 68.31
O 53.641 33.982 72.375
O 48.891 40.778 69.726
O 57.171 27.537 63.006
O 53.238 39.604 64.257
O 50.461 40.554 64.247
O 56.097 28.534 65.701
O 50.409 44.516 61.86
O 51.524 32.665 64.318
O 55.207 36.551 65.795
O 49.349 33.687 65.75
O 53.39 32.551 66.205
O 60.895 35.423 60.618
O 53.981 39.841 56.11
O 44.171 35.509 60.377
O 56.806 42.436 65.682
O 41.856 27.655 60.228
O 43.991 33.441 61.356
O 47.968 41.509 59.92
O 59.092 34.199 59.255
O 52.827 32.964 57.245
O 43.497 40.364 66.479
O 42.353 36.063 66.932
O 48.415 31.171 65.467
O 53.432 41.067 61.428
O 53.484 27.803 66.732
O 52.072 42.394 57.726
O 47.634 38.818 73.778
O 48.257 27.486 58.081
O 45.496 40.102 58.895
O 51.853 26.252 55.552
O 47.945 31.018 63.198
O 35.294 34.979 60.513
O 51.472 40.468 59.169
O 45.25 38.928 69.783
O 56.145 35.469 68.343
O 47.252 42.258 65.355
O 50.44 45.634 58.702
O 40.033 31.071 63.284
O 44.837 41.826 64.612
O 50.076 27.539 66.014
O 50.431 32.206 56.932
O 36.433 33.152 65.915
O 36.3 32.58 61.624
O 62.04 34.867 65.062
O 49.676 24.437 62.499
O 46.351 41.228 76.558
O 41.849 31.027 69.365
O 56.197 39.221 61.485
O 54.205 25.838 61.621
O 40.476 33.058 70.207
O 48.118 33.442 58.998
O 54.289 33.527 70.004
O 49.193 35.31 61.363
O 47.896 34.388 72.314
O 49.629 40.119 67.086
O 45.91 45.331 62.631
O 39.505 27.216 58.129
O 48.973 30.032 54.848
O 51.214 45.017 66.751
O 42.221 37.833 71.125
O 50.285 42.34 73.235
O 57.834 39.373 65.035
O 42.267 41.582 63.243
O 47.559 41.7 72.876
O 54.771 36.225 71.526
O 37.642 35.601 63.734
O 42.649 37.545 64.368
O 47.311 44.784 59.723
O 48.289 35.566 64.494
O 37.958 37.179 61.732
O 33.747 32.487 63.103
O 56.768 37.691 59.228
O 42.12 39.148 62.0
O 59.362 40.431 69.088
O 44.969 37.1 62.414
O 53.773 38.205 67.29
O 44.277 43.052 60.919
O 36.324 31.597 57.694
O 45.397 24.125 58.744
O 58.55 37.607 67.065
O 55.738 41.345 62.921
O 53.99 33.576 63.828
O 47.199 28.08 66.238
O 47.963 30.795 69.007
O 55.198 29.287 61.777
O 52.397 26.998 63.252
O 52.185 42.86 61.964
O 39.719 29.182 61.997
O 45.207 35.375 56.94
O 53.958 38.329 59.97
O 33.02 35.139 64.608
O 44.737 35.929 65.741
O 55.714 36.678 61.742
O 45.865 40.33 61.551
O 48.643 38.698 57.426
O 45.988 33.491 68.871
O 50.973 27.435 57.634
O 35.27 29.077 56.845
O 49.64 29.997 58.461
O 50.762 35.421 65.634
O 45.519 31.339 64.045
O 59.258 32.547 63.306
O 45.196 38.262 66.439
O 46.244 37.977 55.297
O 55.297 24.187 60.209
O 40.623 27.388 64.392
O 53.953 30.128 64.256
O 57.452 37.525 70.293
O 58.669 39.086 60.436
O 45.516 37.064 70.952
O 41.656 30.611 61.007
O 55.251 26.093 64.669
O 47.722 42.596 57.509
O 57.039 30.149 60.749
O 47.545 24.985 61.083
O 52.395 35.805 68.419
O 48.66 36.122 67.8
O 44.481 39.194 63.317
O 48.268 24.82 57.904
O 56.777 34.943 65.455
O 37.524 35.336 60.016
O 52.912 30.404 61.352
O 56.672 34.39 62.816
O 47.348 39.235 63.286
O 49.787 33.289 62.008
O 55.178 36.925 57.186
O 52.486 41.32 73.415
O 52.092 33.938 60.397
O 48.494 43.335 70.36
O 55.535 32.102 58.886
O 48.067 45.836 64.366
O 57.242 30.701 62.901
O 53.953 44.795 70.772
O 44.227 31.157 68.262
O 36.833 30.582 59.644
O 47.192 36.49 59.657
O 53.394 41.588 65.588
O 55.253 32.071 61.658
O 50.201 38.684 61.455
O 42.502 38.243 59.304
O 41.42 33.649 61.33
H 44.024 42.132 60.772
H 52.229 26.425 54.68
H 35.571 31.726 57.103
H 37.068 31.469 57.093
H 52.438 26.731 56.153
H 45.103 43.143 60.428
H 45.946 24.879 58.498
H 56.1 38.345 59.467
H 57.025 37.942 58.332
H 53.591 39.031 67.757
H 53.964 37.579 67.999
H 57.957 37.187 67.701
H 59.057 38.229 67.601
H 51.47 34.373 60.993
H 57.0 31.636 62.922
H 57.371 30.477 63.831
H 35.122 34.493 61.329
H 52.714 33.502 60.993
H 33.743 31.688 63.645
H 47.891 44.3 59.121
H 46.43 44.647 59.353
H 47.776 44.976 64.038
H 33.469 33.18 63.714
H 54.633 31.97 58.569
H 47.872 35.259 65.308
H 48.046 34.895 63.844
H 41.532 41.635 62.619
H 43.049 41.635 62.68
H 58.095 39.04 64.167
H 58.331 40.196 65.124
H 58.559 40.156 68.629
H 42.595 39.779 61.443
H 41.235 39.526 62.069
H 45.245 36.179 62.327
H 44.616 37.317 61.542
H 47.833 31.934 63.482
H 48.406 31.094 62.353
H 51.384 43.011 57.447
H 52.887 42.798 57.405
H 49.904 32.808 62.836
H 48.849 33.178 61.809
H 49.718 29.823 54.27
H 48.284 30.321 54.237
H 35.379 32.294 61.64
H 36.662 32.235 62.45
H 36.407 33.866 65.267
H 37.083 32.537 65.554
H 47.343 39.736 73.844
H 48.567 38.854 74.02
H 49.932 25.198 63.035
H 48.813 24.187 62.852
H 51.369 45.407 67.62
H 51.777 44.233 66.747
H 42.905 37.602 70.484
H 47.342 27.605 58.366
H 48.611 26.842 58.708
H 41.142 30.513 68.956
H 41.808 31.877 68.909
H 45.359 39.357 58.297
H 41.17 33.624 70.566
H 40.576 32.233 70.698
H 47.844 32.516 58.998
H 48.968 33.429 59.455
H 45.637 40.85 58.301
H 47.385 24.298 60.423
H 48.208 25.551 60.669
H 56.597 35.234 63.278
H 52.904 30.585 60.403
H 52.039 30.027 61.52
H 56.227 34.55 61.974
H 55.492 39.304 62.139
H 57.003 39.215 62.015
H 50.305 32.227 57.889
H 50.508 31.265 56.732
H 54.07 26.722 61.257
H 54.855 25.974 62.321
H 53.575 33.178 69.457
H 54.912 33.891 69.363
H 41.732 31.202 61.766
H 42.247 29.88 61.225
H 50.827 27.477 65.411
H 49.82 32.925 66.111
H 49.622 33.708 64.825
H 49.316 27.633 65.426
H 49.672 44.386 61.25
H 40.431 30.327 63.752
H 52.53 32.303 66.566
H 53.42 33.509 66.321
H 57.442 36.584 70.506
H 45.072 41.989 65.534
H 44.086 42.412 64.459
H 56.963 37.931 71.019
H 50.592 27.822 58.433
H 50.419 26.663 57.467
H 50.968 31.906 64.534
H 52.2 32.296 63.737
H 51.593 42.329 61.416
H 52.986 26.258 63.446
H 52.154 26.86 62.328
H 39.46 31.478 63.946
H 55.409 28.58 65.025
H 56.918 28.551 65.193
H 43.561 38.249 56.929
H 42.431 37.896 55.978
H 41.213 27.508 63.638
H 40.255 28.268 64.538
H 53.264 30.211 63.584
H 54.671 30.676 63.917
H 45.942 39.231 69.182
H 44.552 38.618 69.192
H 53.913 41.632 64.775
H 53.498 42.467 65.974
H 51.05 39.992 59.895
H 56.033 36.416 68.494
H 56.957 35.255 68.819
H 52.007 41.137 59.615
H 55.885 37.096 66.214
H 54.988 35.897 66.47
H 48.721 29.702 58.431
H 49.782 30.212 59.391
H 48.034 42.636 65.776
H 46.901 42.986 64.827
H 37.736 35.523 64.691
H 38.526 35.402 63.4
H 45.05 35.113 60.411
H 44.592 32.997 60.745
H 44.571 33.751 62.063
H 56.039 41.872 65.516
H 57.223 42.033 66.453
H 44.181 36.018 59.556
H 48.426 38.737 58.366
H 41.204 28.15 59.717
H 41.472 27.616 61.113
H 48.289 39.524 57.074
H 53.953 36.739 71.522
H 55.259 36.565 70.766
H 42.492 38.443 64.05
H 42.161 36.992 63.745
H 53.646 40.315 60.862
H 54.85 36.491 62.13
H 56.153 37.221 62.409
H 47.129 42.489 72.524
H 48.025 41.333 72.115
H 53.142 38.071 60.416
H 53.652 38.812 59.192
H 45.413 35.775 66.413
H 45.173 36.512 65.107
H 39.562 28.341 62.445
H 39.632 28.961 61.061
H 52.626 33.425 56.421
H 52.2 33.338 57.876
H 48.691 41.07 60.387
H 47.557 40.797 59.414
H 45.662 36.1 57.386
H 45.165 35.663 56.019
H 47.89 31.934 65.741
H 48.703 30.78 66.301
H 58.698 33.012 62.671
H 44.192 40.68 67.069
H 43.0 39.74 67.023
H 53.513 28.761 66.618
H 54.415 27.548 66.763
H 42.204 36.869 66.423
H 41.973 35.369 66.38
H 53.533 40.716 62.322
H 49.419 41.194 70.419
H 48.249 40.248 70.214
H 50.837 40.251 63.411
H 49.553 40.791 64.018
H 48.958 26.974 54.447
H 50.311 27.654 54.574
H 55.429 36.834 74.045
H 39.908 29.566 66.807
H 41.209 28.969 67.316
H 51.148 34.834 66.296
H 49.974 35.771 66.07
H 54.573 33.828 72.175
H 52.521 39.243 64.793
H 53.39 38.923 63.589
H 38.748 33.656 61.438
H 39.191 32.343 60.818
H 47.269 40.328 67.592
H 47.312 41.819 67.879
H 53.649 34.799 72.888
H 54.013 33.419 62.875
H 54.784 34.099 63.993
H 52.765 41.037 68.195
H 52.245 42.309 68.841
H 51.929 37.373 63.031
H 50.749 36.722 63.731
H 51.212 33.412 71.506
H 50.598 34.702 72.021
H 49.332 40.501 76.309
H 49.83 41.156 75.032
H 47.61 32.601 52.975
H 46.189 32.325 71.8
H 46.678 31.859 70.44
H 50.767 28.777 62.81
H 49.409 29.231 63.317
H 47.324 27.213 66.643
H 46.755 28.592 66.925
H 51.019 34.888 69.87
H 49.821 34.662 68.965
H 30.786 32.135 62.021
H 47.241 30.174 68.85
H 47.913 31.399 68.255
H 54.409 28.934 62.207
H 55.636 28.504 61.421
H 55.505 32.014 65.921
H 56.576 32.757 65.142
H 39.739 34.537 65.054
H 54.331 29.329 59.278
H 53.492 28.065 59.341
H 39.367 33.124 65.468
H 46.666 39.3 71.425
H 45.643 40.422 71.38
H 37.103 29.969 58.949
H 37.628 31.106 59.808
H 41.913 33.131 60.682
H 40.907 34.263 60.791
H 49.742 41.39 56.446
H 51.532 31.255 54.789
H 51.633 32.726 54.426
H 49.814 43.268 59.361
H 49.786 41.961 58.588
H 52.129 39.32 69.44
H 51.363 38.285 68.634
H 38.604 25.714 60.638
H 42.318 39.135 69.017
H 42.618 39.181 59.111
H 37.779 28.089 60.16
H 37.59 27.604 61.587
H 43.044 38.102 60.091
H 45.832 38.767 66.961
H 54.505 28.742 56.771
H 54.212 27.348 57.296
H 44.469 38.102 67.054
H 45.48 32.297 63.935
H 36.299 27.977 58.476
H 45.759 31.017 63.167
H 49.526 38.172 60.992
H 49.77 39.531 61.624
H 48.035 35.373 56.426
H 47.766 34.968 54.987
H 55.695 32.639 61.015
H 54.878 31.363 61.12
H 47.035 37.138 58.959
H 47.471 35.7 59.177
H 53.013 36.68 65.899
H 49.02 37.241 72.594
H 47.682 37.395 71.891
H 52.112 35.179 62.96
H 39.128 37.218 64.526
H 40.504 37.421 65.136
H 53.352 35.79 63.59
H 34.044 30.967 60.37
H 48.384 33.01 56.811
H 48.027 32.516 55.42
H 41.21 36.493 58.099
H 42.723 36.461 57.965
H 55.998 26.252 65.26
H 54.513 25.933 65.27
H 49.34 42.5 68.394
H 50.423 43.564 68.395
H 49.973 26.864 60.66
H 50.792 25.642 61.036
H 45.589 32.64 54.463
H 44.217 32.129 54.868
H 51.456 43.786 70.36
H 52.561 43.136 71.174
H 52.303 25.259 58.024
H 52.515 26.087 59.28
H 48.43 44.059 69.726
H 52.0 35.658 56.588
H 47.586 43.016 70.438
H 40.193 36.496 68.955
H 40.43 37.984 68.769
H 51.997 38.881 57.743
H 50.821 37.973 57.427
H 53.073 35.545 67.782
H 46.569 45.711 62.036
H 45.238 44.98 62.034
H 51.732 36.252 67.878
H 53.424 30.676 57.028
H 52.2 29.777 56.994
H 47.972 28.522 60.423
H 47.772 28.846 61.893
H 50.399 40.626 67.374
H 47.797 35.702 67.91
H 48.57 36.957 68.276
H 49.345 39.66 67.886
H 57.332 35.717 65.296
H 56.898 34.764 66.396
H 47.744 24.134 57.47
H 44.052 39.967 63.705
H 48.713 25.265 57.172
H 44.709 38.651 64.082
H 48.59 34.673 72.922
H 47.285 33.897 72.878
H 48.236 35.426 61.313
H 49.452 35.86 62.113
H 47.586 41.817 56.957
H 48.223 43.195 56.941
H 53.329 35.15 58.404
H 52.653 36.269 59.176
H 59.073 34.445 65.871
H 60.005 33.488 65.149
H 44.381 35.112 68.241
H 44.113 39.436 72.809
H 43.726 35.893 69.367
H 45.33 37.497 71.794
H 45.761 36.165 71.205
H 47.207 37.603 65.381
H 48.108 38.213 66.44
H 55.803 39.296 66.25
H 56.669 38.954 67.45
H 58.055 31.377 66.057
H 57.744 30.165 66.916
H 43.94 34.942 71.371
H 46.242 43.545 68.778
H 45.354 42.884 67.739
H 40.878 39.737 65.792
H 47.158 41.964 62.824
H 47.467 43.128 61.899
H 54.405 36.738 56.639
H 54.83 37.484 57.891
H 49.931 38.85 70.502
H 50.969 38.629 71.589
H 43.533 36.104 72.26
H 55.046 40.983 69.787
H 55.417 41.02 68.315
H 45.897 32.649 68.407
H 46.329 34.09 68.195
H 51.704 37.434 65.739
H 51.326 32.17 68.789
H 49.923 32.415 68.262
H 45.911 41.003 60.86
H 45.156 39.746 61.255
H 57.665 36.007 60.973
H 58.309 34.666 61.273
H 47.465 26.934 63.107
H 47.084 28.068 64.042
H 43.63 30.419 68.086
H 44.152 31.289 69.216
H 50.497 35.722 58.368
H 50.188 34.652 57.334
H 54.362 42.899 68.757
H 54.12 43.83 67.582
H 47.713 39.466 62.423
H 48.074 38.776 63.727
H 43.912 31.371 62.032
H 43.618 30.541 63.269
H 41.971 31.801 58.2
