292
xyz format
Cl 62.646 58.926 60.688
O 48.289 54.675 60.198
O 61.531 64.618 56.662
O 62.038 56.92 63.279
O 47.424 54.104 66.271
O 55.968 59.682 62.992
O 58.119 54.41 60.805
O 52.342 61.133 68.723
O 49.199 54.548 65.05
O 48.067 51.742 61.864
O 58.796 59.374 64.961
O 55.515 65.421 64.893
O 49.235 60.47 57.866
O 59.139 60.722 52.596
O 51.694 59.22 57.721
O 52.85 63.112 63.59
O 61.128 58.983 57.055
O 56.871 54.921 68.371
O 45.731 53.856 60.759
O 61.826 62.956 59.73
O 57.782 65.822 55.598
O 44.804 60.501 60.742
O 47.298 56.666 66.583
O 54.899 66.253 56.186
O 47.926 61.005 61.121
O 56.347 56.773 69.443
O 51.385 60.879 53.472
O 60.537 63.447 55.094
O 55.729 60.392 59.571
O 51.724 53.542 64.725
O 53.87 53.66 68.672
O 54.912 63.025 55.92
O 52.78 57.819 67.129
O 53.677 64.195 67.324
O 55.779 60.703 52.103
O 49.581 59.632 54.869
O 49.944 52.038 65.237
O 58.991 62.781 56.522
O 56.551 62.57 64.886
O 52.149 60.996 55.772
O 54.5 64.222 51.801
O 56.402 51.536 63.405
O 45.306 56.67 62.387
O 47.052 57.775 61.629
O 59.051 56.579 63.042
O 53.335 59.822 59.477
O 53.887 51.634 67.558
O 52.648 62.02 61.581
O 59.661 62.547 61.16
O 47.15 59.032 58.231
O 62.059 55.315 65.918
O 54.183 62.051 70.321
O 61.481 62.579 66.845
O 50.248 60.15 67.523
O 52.245 51.887 61.515
O 54.925 60.006 67.785
O 61.59 60.384 58.908
O 57.776 62.291 50.856
O 54.662 56.543 64.089
O 57.288 67.433 57.747
O 52.492 64.562 57.905
O 52.916 55.211 65.598
O 59.691 61.441 58.761
O 50.022 54.357 61.744
O 56.04 65.471 60.968
O 61.23 55.035 60.138
O 54.39 58.038 61.041
O 51.36 54.265 68.284
O 61.329 57.219 66.991
O 45.654 62.323 59.04
O 58.02 64.553 53.514
O 56.798 62.435 53.25
O 57.734 62.056 70.046
O 59.26 56.624 70.009
O 59.672 53.905 63.461
O 58.291 55.897 65.975
O 55.395 58.188 65.856
O 49.094 57.43 60.789
O 54.797 52.536 60.356
O 54.031 61.468 65.908
O 59.831 58.823 61.169
O 53.778 58.748 63.227
O 56.364 54.83 63.474
O 58.993 65.84 58.401
O 57.663 61.028 61.846
O 50.522 60.756 60.53
O 55.939 60.065 56.213
O 56.236 63.753 58.922
O 45.915 63.195 61.624
O 51.743 56.608 61.237
O 58.796 56.877 59.666
O 57.798 60.473 57.314
O 60.544 60.771 65.385
O 50.585 56.881 63.867
O 56.957 60.557 66.723
O 59.477 54.624 67.64
O 53.589 53.425 63.084
O 53.187 49.53 64.323
O 51.17 59.369 62.253
O 62.406 59.781 62.749
O 53.609 61.002 51.89
O 56.036 67.297 59.66
O 56.131 58.195 58.527
O 59.188 61.6 68.093
O 47.472 63.353 60.031
O 46.676 54.87 62.737
O 58.454 57.81 67.415
C 49.365 53.325 56.879
C 48.124 52.651 57.501
H 53.717 56.416 63.94
H 54.834 56.055 64.904
H 58.367 65.156 58.667
H 56.188 59.276 55.716
H 56.147 60.79 55.611
H 60.056 59.601 61.693
H 60.56 58.213 61.339
H 49.166 57.257 59.842
H 48.836 56.576 61.159
H 47.936 53.024 58.534
H 57.063 55.246 63.993
H 55.89 54.289 64.118
H 52.996 58.483 63.727
H 53.729 59.712 63.219
H 56.07 57.841 65.259
H 54.717 58.532 65.261
H 64.32 57.358 56.909
H 51.996 59.137 61.81
H 59.461 57.353 69.409
H 59.131 55.871 69.42
H 50.743 58.516 62.403
H 57.06 61.458 70.391
H 57.393 62.312 69.18
H 53.866 57.27 60.781
H 60.06 61.316 64.752
H 55.021 57.679 61.677
H 61.469 60.991 65.217
H 60.824 55.595 59.465
H 57.709 60.843 66.19
H 56.236 60.492 66.085
H 57.103 61.787 53.898
H 56.321 63.084 53.782
H 60.424 54.079 64.041
H 58.938 53.767 64.072
H 51.373 56.572 64.331
H 57.875 61.335 50.763
H 57.255 62.544 50.084
H 50.306 57.651 64.378
H 59.214 56.161 66.07
H 57.892 56.63 65.489
H 57.48 61.384 57.351
H 57.259 60.015 57.971
H 58.654 64.099 52.945
H 57.326 64.834 52.905
H 50.824 54.875 67.762
H 51.861 53.775 67.62
H 55.61 59.365 68.012
H 55.16 60.785 68.304
H 58.401 57.716 59.4
H 58.217 56.565 60.373
H 61.213 59.53 59.155
H 61.466 58.1 67.362
H 61.037 57.394 66.088
H 61.853 60.771 59.753
H 51.934 55.783 60.774
H 56.552 65.032 61.658
H 55.399 66.0 61.459
H 50.949 56.406 61.748
H 45.091 63.107 59.027
H 52.824 59.013 59.601
H 53.859 59.644 58.686
H 59.201 56.028 63.82
H 58.645 57.378 63.401
H 53.215 64.64 58.54
H 58.653 60.802 68.194
H 59.541 61.528 67.198
H 53.56 54.808 66.194
H 52.279 55.623 66.194
H 59.275 60.602 58.994
H 59.94 61.325 57.836
H 52.619 61.279 60.963
H 52.599 62.796 61.009
H 59.517 62.579 62.113
H 59.584 61.609 60.947
H 46.957 59.579 59.002
H 47.376 58.173 58.611
H 50.956 54.17 61.906
H 49.563 53.632 62.186
H 50.401 59.529 68.246
H 50.229 61.011 67.959
H 55.074 62.366 70.123
H 53.617 62.596 69.76
H 53.116 61.725 65.74
H 54.534 62.268 65.71
H 55.425 53.208 60.649
H 54.943 51.804 60.97
H 52.32 52.7 60.999
H 51.466 52.035 62.065
H 54.723 63.373 51.399
H 54.654 64.078 52.743
H 55.49 51.645 63.106
H 56.771 52.426 63.342
H 54.093 54.561 68.406
H 46.162 62.674 62.398
H 56.645 63.529 64.834
H 57.38 62.238 64.52
H 46.846 57.686 60.69
H 46.996 58.725 61.787
H 52.881 63.885 66.875
H 54.28 64.407 66.601
H 55.739 61.186 51.269
H 56.524 60.1 51.984
H 50.258 58.952 54.765
H 49.447 59.678 55.824
H 52.619 57.117 67.772
H 52.026 58.411 67.243
H 56.568 60.642 59.977
H 55.109 61.054 59.9
H 51.067 53.562 64.018
H 51.225 53.806 65.508
H 50.703 51.567 64.871
H 58.877 63.508 57.146
H 58.307 62.937 55.86
H 49.283 51.987 64.536
H 55.573 62.913 56.614
H 54.46 62.172 55.894
H 47.204 64.28 60.002
H 48.163 63.334 60.704
H 59.947 63.094 54.416
H 61.356 63.625 54.615
H 52.079 60.238 53.273
H 50.588 60.476 53.105
H 56.608 57.143 70.296
H 55.385 56.856 69.442
H 47.304 54.178 62.981
H 47.239 55.623 62.516
H 57.545 57.758 67.735
H 58.774 58.649 67.769
H 54.836 65.455 55.646
H 48.487 60.222 61.173
H 54.893 65.919 57.091
H 47.885 61.196 60.175
H 55.369 63.333 58.861
H 56.082 64.646 58.592
H 52.033 60.087 55.468
H 52.764 60.913 56.512
H 60.983 63.291 59.402
H 62.324 62.76 58.927
H 56.912 66.12 55.304
H 57.594 65.007 56.079
H 45.119 59.714 61.205
H 54.803 65.234 64.269
H 57.481 55.567 67.994
H 53.197 52.59 63.37
H 45.257 53.927 59.921
H 53.735 53.905 63.909
H 50.836 58.953 57.369
H 51.519 60.08 58.123
H 48.838 61.286 58.194
H 49.155 59.86 58.61
H 59.181 61.305 53.363
H 58.535 60.022 52.872
H 53.454 63.496 64.238
H 52.442 63.882 63.174
H 59.286 54.093 66.857
H 59.66 53.968 68.323
H 58.999 58.527 65.378
H 59.295 59.347 64.135
H 50.577 61.345 59.767
H 50.717 59.885 60.162
H 62.094 64.337 57.394
H 60.849 65.152 57.089
H 49.091 54.498 59.69
H 48.068 53.818 60.583
H 58.032 60.418 62.498
H 52.395 61.348 67.784
H 53.046 60.486 68.851
H 58.88 54.477 61.395
H 57.362 54.424 61.404
H 57.47 61.822 62.359
H 47.852 51.612 62.796
H 47.324 51.338 61.399
H 49.159 54.654 64.091
H 49.361 55.443 65.373
H 55.929 58.108 59.467
H 56.484 57.329 58.287
H 61.074 59.732 56.449
H 60.219 58.865 57.356
H 53.736 61.742 52.497
H 62.101 56.541 62.394
H 61.184 57.37 63.276
H 55.971 59.639 62.028
H 56.11 58.767 63.263
