147
xyz format
O 56.075 66.348 33.949
O 56.497 66.826 36.579
O 58.138 71.795 33.147
O 62.353 69.968 37.194
O 48.972 71.83 41.053
O 53.164 70.087 36.92
O 58.935 67.608 35.436
O 51.394 76.14 42.596
O 60.002 66.629 37.379
O 50.497 72.618 35.691
O 48.459 67.826 37.322
O 53.904 72.692 41.641
O 59.556 70.163 37.566
O 53.349 65.643 36.061
O 52.378 67.52 35.425
O 52.739 68.798 43.274
O 55.8 70.436 43.067
O 62.671 68.238 35.244
O 52.247 72.371 38.984
O 49.414 73.68 39.114
O 56.78 69.591 40.979
O 54.911 71.083 38.685
O 48.235 71.452 38.647
O 57.402 73.198 40.103
O 50.833 68.972 30.936
O 49.054 74.551 35.064
O 46.897 71.322 34.432
O 54.31 68.004 40.168
O 51.483 70.953 41.956
O 53.953 64.891 39.245
O 51.541 71.189 32.225
O 58.818 70.08 34.572
O 57.489 67.438 29.8
O 51.696 65.656 40.213
O 52.668 70.676 34.687
O 51.139 69.684 39.343
O 54.721 68.268 34.616
O 54.748 63.329 34.566
O 50.899 67.52 41.25
O 57.387 68.794 33.344
O 56.157 66.826 39.98
O 57.965 71.691 37.41
O 52.464 67.473 38.615
O 50.159 65.868 36.503
O 59.493 68.987 31.658
O 49.105 66.613 29.887
O 60.253 71.74 39.196
O 53.198 69.519 32.893
O 54.553 71.519 31.555
O 54.164 73.037 36.811
O 55.571 73.157 34.789
O 51.511 74.089 41.788
O 51.146 64.523 34.918
O 52.147 74.567 39.455
O 56.162 64.145 38.985
H 51.513 67.819 40.568
H 50.166 67.142 40.749
H 57.665 69.513 32.762
H 56.854 68.228 32.772
H 51.523 73.16 42.049
H 50.733 74.158 41.222
H 54.508 67.913 33.744
H 55.236 69.061 34.421
H 55.222 63.812 35.254
H 54.909 62.402 34.784
H 56.71 66.603 39.22
H 56.395 66.163 40.64
H 50.919 71.133 42.719
H 50.982 70.301 41.45
H 48.489 66.03 29.426
H 49.462 67.17 29.184
H 51.609 64.733 40.483
H 51.324 65.669 39.322
H 53.597 70.911 34.802
H 52.202 71.296 35.264
H 54.034 64.341 38.456
H 54.544 65.634 39.068
H 50.925 70.229 38.575
H 52.101 69.607 39.307
H 61.913 70.167 40.024
H 54.003 69.547 32.361
H 52.549 69.11 32.307
H 48.795 70.729 38.338
H 49.958 74.725 35.354
H 48.65 74.111 35.822
H 53.739 67.569 40.814
H 54.796 68.653 40.692
H 52.648 74.52 38.632
H 47.859 71.372 34.483
H 52.275 75.478 39.749
H 58.284 73.087 39.728
H 56.92 73.677 39.417
H 50.394 69.415 30.2
H 50.469 68.078 30.917
H 55.526 71.807 38.859
H 54.148 71.292 39.239
H 48.779 74.405 39.075
H 50.175 74.014 38.623
H 50.611 65.296 37.137
H 50.352 66.759 36.821
H 60.052 72.41 38.531
H 57.398 69.917 41.645
H 56.913 70.188 40.232
H 57.035 71.458 37.297
H 58.272 71.855 36.51
H 51.549 72.323 38.319
H 51.793 72.154 39.808
H 51.832 65.092 34.548
H 51.6 64.044 35.623
H 62.099 68.79 34.695
H 56.347 64.472 38.095
H 60.141 69.18 30.969
H 59.821 68.172 32.059
H 55.181 70.146 42.385
H 59.072 70.06 38.395
H 53.049 67.83 36.046
H 51.631 68.111 35.581
H 59.377 69.341 37.092
H 53.556 64.745 36.346
H 54.191 65.975 35.723
H 59.844 67.753 35.145
H 58.475 67.344 34.629
H 53.385 72.853 36.272
H 54.707 72.246 36.707
H 54.408 72.128 32.29
H 55.454 71.203 31.694
H 58.211 69.972 35.314
H 59.685 70.143 34.992
H 58.044 67.758 30.522
H 50.878 71.181 31.523
H 51.429 72.055 32.637
H 50.192 72.747 36.598
H 49.718 72.28 35.233
H 52.864 66.723 38.157
H 51.924 67.895 37.935
H 56.124 65.741 34.698
H 56.854 66.127 33.424
H 53.561 69.491 37.567
H 52.246 69.793 36.87
H 48.688 68.529 37.943
H 55.251 72.316 34.438
H 54.8 73.735 34.737
H 57.638 71.923 33.963
H 57.454 71.684 32.475
H 55.816 66.991 37.244
H 57.256 67.33 36.899
H 49.881 72.145 40.971
