203
xyz format
C 31.827 78.522 60.42
C 32.736 74.771 63.351
C 35.221 78.89 63.924
C 35.695 79.715 64.855
C 31.293 79.824 61.079
C 30.601 77.583 60.231
C 32.443 78.844 59.042
C 32.575 74.975 64.883
C 33.642 73.554 63.073
C 31.312 74.496 62.786
C 39.228 80.627 67.953
C 40.425 80.231 68.377
C 43.584 76.77 69.47
C 44.118 75.588 69.185
C 44.503 72.2 67.894
C 33.325 76.023 62.728
C 43.894 73.341 68.345
C 32.896 76.504 61.507
C 32.862 77.871 61.321
C 34.643 81.853 68.927
C 33.782 84.904 73.643
C 31.619 84.399 74.772
C 31.758 86.357 73.168
C 28.123 81.75 70.866
C 28.712 81.55 73.325
C 29.527 79.826 71.737
C 37.93 80.849 67.529
C 37.535 80.605 66.219
C 36.966 81.29 68.428
C 36.188 80.445 65.919
C 35.63 81.391 68.077
C 35.28 81.039 66.786
C 33.84 78.601 61.953
C 34.488 78.084 63.071
C 34.34 76.724 63.335
C 45.799 71.878 68.277
C 44.625 74.315 69.008
C 46.501 72.814 69.017
C 45.91 73.987 69.414
C 46.317 70.647 67.929
C 46.848 69.514 67.482
C 50.369 66.267 67.39
C 33.667 82.179 69.769
C 29.227 81.348 71.867
C 46.992 83.04 75.985
C 47.104 82.729 77.272
C 45.785 83.444 81.912
C 49.675 80.715 80.893
C 46.478 82.584 80.867
C 47.317 81.543 81.205
C 46.249 82.777 79.528
C 48.351 81.217 80.344
C 47.15 82.293 78.582
C 48.097 81.366 79.002
C 48.208 65.744 66.399
C 49.057 66.581 67.096
C 46.993 66.198 65.912
C 48.547 67.79 67.551
C 46.572 67.461 66.287
C 47.324 68.269 67.123
C 50.134 81.626 82.066
C 49.547 79.252 81.371
C 46.588 90.925 70.442
C 46.862 89.089 71.966
C 46.404 89.601 70.758
C 47.076 84.686 74.21
C 46.755 83.424 74.679
C 46.607 85.145 72.987
C 46.172 82.535 73.79
C 46.043 84.221 72.123
C 45.739 82.937 72.538
C 46.574 83.414 83.252
C 45.77 84.933 81.46
C 44.341 82.949 82.147
C 47.424 89.968 72.883
C 47.442 91.643 71.259
C 50.791 80.793 79.812
C 42.55 80.742 69.423
C 46.254 93.045 69.085
C 31.851 84.006 72.3
C 32.597 82.589 70.542
C 32.683 83.795 71.23
C 43.589 80.339 70.248
C 47.115 92.022 74.986
C 49.401 92.304 73.922
C 47.438 93.744 73.221
C 43.84 78.983 70.362
C 45.852 90.821 68.024
C 45.753 91.599 69.361
C 44.969 82.099 71.761
C 32.239 84.919 73.446
C 44.345 81.244 70.961
C 30.476 82.186 71.615
C 41.914 78.484 69.078
C 41.62 79.834 68.948
C 30.607 83.413 72.23
C 43.11 78.057 69.634
C 31.41 81.869 70.659
C 47.529 91.301 72.594
C 44.278 91.672 69.826
C 46.65 86.48 72.653
C 47.88 92.321 73.663
C 46.811 87.749 72.282
H 31.247 81.064 69.946
H 46.166 84.142 83.953
H 47.623 83.658 83.077
H 45.796 84.528 71.106
H 46.018 81.501 74.099
H 47.673 85.352 74.835
H 46.513 82.434 83.722
H 45.899 88.916 70.08
H 47.801 89.548 73.813
H 48.117 92.393 70.853
H 46.461 74.688 70.042
H 47.536 72.609 69.294
H 42.834 73.506 68.155
H 43.966 71.52 67.232
H 46.2 93.654 69.987
H 45.636 93.523 68.324
H 47.283 93.034 68.724
H 51.766 80.602 80.26
H 50.631 80.048 79.034
H 50.815 81.783 79.356
H 49.136 78.628 80.577
H 50.254 82.652 81.718
H 51.088 81.281 82.464
H 49.41 81.619 82.88
H 43.768 82.982 81.22
H 43.838 83.577 82.883
H 44.341 81.922 82.512
H 45.121 85.081 80.6
H 46.778 85.256 81.199
H 45.401 85.572 82.264
H 43.857 90.672 69.933
H 43.675 92.221 69.103
H 48.025 94.095 72.374
H 47.435 91.081 75.427
H 34.252 81.188 66.453
H 37.27 81.539 69.446
H 38.287 80.5 65.437
H 41.19 77.746 68.733
H 42.443 81.8 69.18
H 44.63 78.638 71.03
H 30.339 79.545 72.406
H 28.644 79.24 71.998
H 29.799 79.556 70.719
H 31.977 84.987 75.618
H 30.533 84.47 74.756
H 34.123 79.595 61.611
H 31.898 83.357 74.933
H 29.533 81.449 74.034
H 28.253 82.529 73.452
H 28.408 81.475 69.85
H 27.186 81.251 71.11
H 27.96 82.827 70.895
H 34.292 85.39 72.812
H 34.056 85.435 74.554
H 34.139 83.877 73.721
H 30.669 86.391 73.121
H 32.09 87.031 73.956
H 32.153 86.714 72.217
H 33.395 84.54 70.877
H 27.954 80.805 73.568
H 47.303 92.806 75.72
H 35.029 76.249 64.032
H 32.659 75.818 60.698
H 31.35 74.249 61.727
H 30.852 73.653 63.303
H 30.673 75.369 62.922
H 29.79 78.113 59.733
H 30.855 76.72 59.618
H 30.237 77.234 61.198
H 33.214 72.651 63.508
H 33.754 73.401 62.0
H 34.631 73.707 63.504
H 32.051 75.91 65.085
H 32.002 74.157 65.318
H 33.544 75.005 65.379
H 47.578 94.454 74.036
H 46.384 93.742 72.942
H 49.949 92.488 72.998
H 32.07 80.586 61.132
H 30.466 80.235 60.5
H 30.94 79.615 62.089
H 32.827 77.937 58.576
H 31.695 79.282 58.382
H 33.264 79.552 59.148
H 49.707 91.335 74.315
H 49.675 93.072 74.645
H 45.312 89.877 68.077
H 46.895 90.614 67.783
H 45.419 91.405 67.211
H 46.042 91.974 74.8
H 44.211 92.178 70.789
H 29.744 83.962 72.598
H 45.613 67.833 65.924
H 49.143 68.383 68.246
H 48.503 64.711 66.211
H 48.603 80.777 78.239
H 45.374 83.314 79.166
H 47.16 80.952 82.106
H 48.892 79.183 82.238
H 50.524 78.854 81.649
