330
xyz format
Cl 41.259 60.751 72.504
Na 41.179 68.089 69.505
O 40.501 62.894 63.585
O 41.834 69.645 59.551
O 42.041 62.691 62.027
O 32.708 61.385 63.482
O 41.751 65.527 63.853
O 37.82 65.132 59.359
O 31.491 59.184 57.652
O 46.842 66.009 72.567
O 37.013 71.187 63.435
O 37.741 56.897 68.277
O 39.582 63.43 60.735
O 35.527 64.484 62.437
O 37.602 63.398 67.675
O 39.375 60.307 55.966
O 41.376 64.83 58.256
O 43.906 67.948 71.448
O 43.637 63.062 63.495
O 39.841 71.263 61.205
O 45.067 66.077 70.416
O 31.672 61.262 66.672
O 43.983 64.926 61.101
O 37.775 60.29 59.145
O 41.645 65.357 60.377
O 39.899 60.189 68.296
O 44.804 60.501 60.742
O 36.647 56.414 65.243
O 42.543 66.263 68.848
O 33.878 56.475 59.72
O 34.465 56.317 67.248
O 40.726 66.261 71.97
O 43.247 60.061 70.726
O 31.427 60.912 59.062
O 28.664 61.178 56.943
O 36.04 57.475 57.67
O 43.318 58.978 68.133
O 42.727 71.353 65.521
O 36.313 55.225 62.82
O 35.956 53.697 65.118
O 44.576 64.489 65.446
O 41.727 60.218 65.82
O 30.054 65.574 59.418
O 38.772 59.287 62.177
O 32.843 62.11 56.765
O 45.306 56.67 62.387
O 38.35 61.942 61.796
O 37.42 62.98 54.343
O 42.291 57.22 66.609
O 38.248 67.756 61.842
O 32.129 64.169 59.621
O 39.605 58.243 60.413
O 47.057 65.904 68.424
O 39.682 63.674 72.594
O 34.687 59.579 60.557
O 43.485 63.394 56.677
O 40.328 58.319 65.298
O 41.098 59.129 57.18
O 29.409 64.522 61.444
O 39.651 55.792 66.746
O 33.071 56.098 65.026
O 35.314 65.152 59.461
O 37.86 65.411 53.471
O 46.702 68.89 70.75
O 39.761 69.231 57.438
O 37.459 63.726 63.168
O 39.539 65.561 66.666
O 42.262 60.957 56.794
O 41.194 61.252 59.64
O 43.83 66.339 58.582
O 35.955 69.295 58.382
O 45.047 71.571 66.799
O 43.627 58.729 63.446
O 41.672 65.82 55.48
O 40.68 60.52 63.249
O 40.225 56.434 62.301
O 34.127 65.404 56.244
O 37.019 62.904 56.579
O 44.738 63.208 68.548
O 34.107 60.949 58.473
O 37.689 60.247 64.995
O 40.951 70.726 63.494
O 38.789 62.81 65.645
O 42.684 59.327 73.528
O 35.661 60.035 66.811
O 36.171 58.634 61.883
O 38.217 62.174 71.924
O 34.377 62.425 61.472
O 42.855 56.962 61.352
O 36.382 62.745 59.865
O 33.973 58.652 63.702
O 35.882 67.647 66.446
O 39.358 65.408 61.99
O 35.522 60.678 62.854
O 37.406 67.172 63.96
O 34.831 63.241 53.989
O 38.105 64.816 56.457
O 34.279 58.0 56.305
O 33.695 66.003 62.934
O 45.016 57.813 65.766
O 46.555 64.265 64.237
O 43.674 60.899 63.094
O 44.074 66.51 62.768
O 40.902 70.103 67.319
O 45.143 55.064 64.304
O 37.19 54.806 67.572
O 34.723 62.614 67.073
O 41.134 62.894 68.441
O 31.202 67.111 60.721
O 32.728 63.924 62.354
O 38.043 57.227 62.013
O 30.183 62.742 64.217
O 45.915 63.195 61.624
O 41.748 55.727 63.732
O 37.411 64.431 70.788
O 39.961 61.539 70.61
O 39.716 67.168 59.899
O 42.305 63.03 71.102
O 38.013 59.058 66.887
O 44.667 66.524 67.253
O 36.74 60.665 55.989
O 31.841 68.853 61.903
H 44.285 59.029 64.086
H 44.302 66.018 63.566
H 44.668 67.27 62.788
H 43.225 60.715 62.26
H 44.557 61.179 62.823
H 46.187 64.799 63.522
H 47.333 63.854 63.839
H 44.875 57.855 66.72
H 45.843 58.294 65.635
H 38.742 65.061 57.14
H 37.724 65.66 56.185
H 43.01 58.21 63.978
H 38.816 65.598 66.027
H 39.67 66.484 66.917
H 33.146 66.758 63.179
H 34.915 58.446 63.734
H 33.853 59.043 62.828
H 35.636 68.397 65.891
H 36.744 67.381 66.102
H 37.165 63.032 59.378
H 35.791 62.417 59.176
H 45.145 70.679 66.445
H 43.34 56.484 60.668
H 42.975 57.89 61.111
H 44.355 71.479 67.466
H 33.703 66.029 61.969
H 34.222 58.802 56.839
H 37.307 62.338 72.202
H 38.358 61.244 72.142
H 33.975 61.552 61.382
H 34.188 62.854 60.628
H 38.817 58.546 67.044
H 37.822 59.454 67.747
H 41.471 63.138 70.628
H 42.893 63.671 70.682
H 35.825 57.749 61.713
H 36.752 58.801 61.131
H 35.113 59.276 66.571
H 43.423 59.548 74.108
H 35.69 60.0 67.775
H 39.072 67.617 59.338
H 40.221 66.626 59.28
H 36.339 63.389 57.065
H 37.611 62.584 57.271
H 44.438 64.102 68.757
H 34.971 65.48 56.706
H 33.478 65.672 56.907
H 40.094 60.579 64.014
H 41.552 60.379 63.638
H 36.85 63.194 63.695
H 39.694 61.844 69.734
H 40.245 60.629 70.459
H 40.823 57.189 62.371
H 40.362 56.116 61.4
H 37.963 64.218 63.828
H 37.99 64.956 70.221
H 36.892 63.909 70.165
H 41.484 65.54 54.575
H 41.425 66.753 55.488
H 40.071 58.592 59.643
H 38.684 58.209 60.128
H 37.701 68.07 61.112
H 39.072 68.248 61.74
H 29.98 63.546 63.722
H 30.659 62.195 63.579
H 41.845 56.68 65.945
H 42.428 58.065 66.163
H 31.706 63.5 60.173
H 32.828 64.524 60.185
H 37.394 62.019 61.679
H 38.447 61.684 62.721
H 36.893 63.76 54.557
H 36.89 62.52 53.68
H 42.193 61.076 55.838
H 43.158 60.619 56.919
H 31.932 66.489 60.605
H 31.679 68.331 62.698
H 40.917 61.518 58.754
H 41.545 60.362 59.513
H 37.481 66.12 54.005
H 38.426 65.586 62.168
H 39.807 66.203 62.302
H 36.376 60.877 63.258
H 34.899 61.215 63.359
H 38.796 65.421 53.708
H 44.214 65.47 58.411
H 39.486 58.643 64.953
H 40.875 58.217 64.51
H 34.292 61.837 67.452
H 35.631 62.322 66.924
H 35.32 66.01 59.018
H 34.861 64.574 58.835
H 37.308 66.269 64.288
H 36.59 67.327 63.469
H 38.851 68.923 57.532
H 29.825 63.652 61.476
H 40.041 56.314 67.458
H 40.289 68.447 57.632
H 33.726 56.785 64.851
H 36.445 68.744 59.005
H 40.479 59.616 57.739
H 41.561 58.553 57.801
H 40.694 70.853 66.749
H 41.151 69.406 66.699
H 39.637 63.829 71.642
H 34.231 59.196 59.797
H 35.314 60.197 60.16
H 44.565 66.948 58.436
H 40.522 63.215 72.713
H 43.654 64.068 56.006
H 42.522 63.356 56.726
H 39.379 58.815 62.761
H 38.038 59.528 62.755
H 29.239 65.564 58.902
H 30.747 65.647 58.75
H 33.281 61.758 55.981
H 32.153 62.682 56.405
H 45.253 62.649 61.181
H 46.162 62.674 62.398
H 37.711 56.548 61.413
H 37.732 56.938 62.88
H 41.348 61.094 65.967
H 42.594 60.27 66.241
H 44.903 57.508 62.127
H 45.323 56.16 61.568
H 43.314 59.93 68.291
H 43.323 58.597 69.02
H 42.711 60.809 70.435
H 36.382 58.188 58.224
H 41.534 66.713 71.697
H 40.283 66.06 71.136
H 36.935 54.568 62.484
H 35.712 55.372 62.079
H 31.148 61.79 58.776
H 29.286 61.008 57.661
H 31.902 61.078 59.885
H 41.969 71.868 65.215
H 42.797 70.642 64.871
H 35.391 56.511 67.055
H 34.458 56.156 68.2
H 34.18 57.08 60.409
H 41.807 65.649 68.967
H 42.309 66.75 68.048
H 36.98 57.28 64.976
H 35.864 56.289 64.692
H 31.988 64.03 62.965
H 33.491 63.811 62.936
H 41.689 64.541 60.89
H 43.91 64.84 66.05
H 45.255 64.135 66.034
H 35.22 54.285 65.329
H 41.609 66.049 61.049
H 40.859 60.162 68.399
H 39.775 60.497 67.389
H 45.068 60.35 59.826
H 45.119 59.714 61.205
H 40.444 70.525 61.362
H 37.664 70.582 63.059
H 32.505 60.778 66.724
H 31.536 61.384 65.725
H 41.918 65.467 57.774
H 40.81 64.448 57.574
H 38.888 61.13 56.094
H 44.357 65.653 70.913
H 37.657 60.541 60.07
H 38.196 61.064 58.75
H 45.624 65.339 70.136
H 43.779 65.785 60.71
H 43.833 64.304 60.378
H 39.647 64.193 60.148
H 39.591 62.676 60.132
H 38.614 62.358 64.81
H 38.738 62.105 66.303
H 37.063 60.892 65.348
H 33.723 61.786 58.762
H 34.669 61.199 57.728
H 37.144 59.468 64.825
H 35.698 65.117 63.146
H 35.637 65.007 61.633
H 45.516 66.237 66.892
H 44.914 67.107 67.981
H 38.372 57.355 68.846
H 36.971 57.479 68.273
H 36.923 64.019 67.967
H 37.183 54.771 66.607
H 32.692 60.565 63.992
H 32.906 62.061 64.142
H 41.959 62.883 67.94
H 40.457 62.746 67.769
H 30.901 58.516 57.281
H 31.708 59.743 56.896
H 37.423 65.225 60.234
H 37.65 65.984 58.938
H 42.019 66.403 63.548
H 41.655 65.02 63.037
H 37.738 62.83 68.443
H 36.591 59.928 56.595
H 40.879 69.573 59.427
H 42.129 68.727 59.59
H 41.295 62.258 61.594
H 42.739 62.665 61.361
H 43.805 68.34 70.571
H 43.897 62.704 64.353
H 44.218 63.824 63.379
H 44.862 67.929 71.581
H 41.269 62.762 64.155
H 40.104 63.708 63.919
H 35.864 61.058 55.887
