63
xyz format
O 42.153 30.762 30.427
O 42.524 34.909 32.465
O 39.314 31.651 33.129
O 40.376 33.695 31.332
O 38.204 28.946 37.059
O 41.526 35.03 30.015
O 43.138 32.651 34.92
O 39.744 33.042 36.293
O 44.487 28.948 33.124
O 38.41 35.733 29.344
O 39.485 34.394 34.115
O 41.111 30.817 34.847
O 44.329 29.101 35.832
O 42.659 32.133 32.256
O 37.144 31.56 33.516
O 44.234 33.826 30.943
O 41.868 29.168 31.976
O 44.76 30.019 31.222
O 37.9 29.847 35.075
H 38.315 29.075 34.672
H 38.528 30.56 34.904
H 40.265 34.53 34.667
H 38.77 34.277 34.753
H 43.312 31.797 32.883
H 41.847 32.18 32.775
H 45.288 28.504 32.819
H 43.841 28.234 33.19
H 46.819 31.548 31.458
H 42.51 33.367 35.077
H 43.318 32.305 35.803
H 40.605 30.257 34.244
H 42.029 30.606 34.639
H 43.098 32.596 28.793
H 38.16 35.827 32.098
H 43.968 29.666 35.138
H 44.548 28.282 35.371
H 40.161 28.083 36.461
H 40.704 33.139 36.314
H 38.656 36.467 29.921
H 37.993 35.101 29.942
H 45.467 31.91 34.197
H 36.566 31.402 34.273
H 37.19 32.523 33.46
H 40.892 31.151 37.237
H 42.298 35.153 29.449
H 40.912 35.712 29.717
H 34.683 31.747 35.358
H 44.711 29.438 30.452
H 44.809 30.903 30.838
H 38.248 29.704 37.655
H 40.854 33.075 30.768
H 42.373 28.589 36.701
H 39.546 33.842 30.861
H 44.487 33.043 30.439
H 44.538 33.631 31.838
H 41.888 29.995 32.474
H 41.693 28.499 32.649
H 39.104 32.258 32.408
H 39.691 32.224 33.809
H 43.124 34.662 33.181
H 41.649 34.701 32.818
H 41.45 31.148 29.891
H 42.883 30.651 29.805
