82
xyz format
O 56.1 64.089 69.08
O 57.164 67.559 68.051
O 60.909 67.098 67.833
O 57.996 62.756 72.8
O 56.806 65.979 70.41
O 59.054 65.661 65.039
O 60.838 65.916 69.691
O 53.677 64.195 67.324
O 57.848 68.567 65.353
O 56.971 65.614 66.749
O 59.414 68.975 68.099
O 54.183 62.051 70.321
O 61.481 62.579 66.845
O 60.418 62.155 72.505
O 59.336 67.61 69.825
O 53.56 66.679 68.589
O 55.027 68.219 70.958
O 62.029 62.718 69.551
O 57.734 62.056 70.046
O 54.649 69.424 67.89
O 58.262 65.909 72.617
O 60.908 65.06 71.969
O 58.313 64.255 69.655
O 55.033 62.941 73.36
O 56.957 60.557 66.723
O 60.517 60.802 70.185
O 62.754 63.941 71.446
O 59.188 61.6 68.093
H 53.972 60.508 71.883
H 60.765 60.61 69.273
H 60.007 61.619 70.117
H 53.767 69.815 67.938
H 57.06 61.458 70.391
H 57.393 62.312 69.18
H 57.709 60.843 66.19
H 52.008 62.149 71.633
H 55.16 60.785 68.304
H 55.163 62.128 72.856
H 55.644 62.852 74.101
H 54.133 67.289 68.108
H 54.013 66.558 69.433
H 61.118 61.948 73.137
H 59.787 61.434 72.618
H 58.653 60.802 68.194
H 59.541 61.528 67.198
H 58.743 66.85 69.774
H 59.645 67.599 70.739
H 55.074 62.366 70.123
H 53.617 62.596 69.76
H 60.314 65.808 71.83
H 60.312 64.305 72.047
H 57.952 66.693 72.146
H 58.196 65.205 71.959
H 60.125 69.121 67.462
H 59.556 69.661 68.762
H 54.28 64.407 66.601
H 57.431 65.266 67.523
H 61.784 65.986 69.867
H 60.71 64.981 69.492
H 56.054 65.69 67.042
H 58.774 58.649 67.769
H 59.979 65.771 65.29
H 58.617 66.427 65.431
H 56.409 66.776 70.037
H 56.227 65.76 71.15
H 58.911 63.894 70.322
H 58.793 64.133 68.827
H 57.141 63.05 72.464
H 63.205 64.691 71.04
H 58.297 63.497 73.341
H 58.654 60.149 71.156
H 61.87 67.106 67.741
H 60.635 66.331 67.315
H 56.761 70.383 68.748
H 55.381 64.665 69.368
H 55.838 63.822 68.19
H 52.63 65.584 70.84
H 62.394 63.578 69.308
H 54.436 68.828 71.417
H 54.933 68.466 70.029
H 56.407 67.997 67.641
H 57.841 67.579 67.363
