351
xyz format
Na 35.533 36.977 44.303
Na 47.489 37.29 62.212
O 32.884 35.448 43.982
O 41.517 38.638 48.602
O 44.313 31.574 52.484
O 41.417 32.357 57.638
O 40.733 34.076 46.972
O 41.908 39.813 54.857
O 34.624 42.468 47.144
O 43.409 31.841 44.157
O 44.202 27.859 45.228
O 48.262 32.311 52.325
O 47.946 32.282 56.353
O 41.967 35.9 58.181
O 35.8 40.266 38.185
O 34.909 40.162 40.192
O 45.137 32.146 55.159
O 38.584 33.255 44.327
O 30.409 37.825 43.689
O 36.242 36.632 49.531
O 35.998 33.114 43.272
O 32.809 39.934 49.526
O 37.603 39.466 51.337
O 42.071 34.804 48.565
O 44.611 31.972 38.288
O 39.486 34.653 58.813
O 32.099 40.922 43.526
O 39.813 27.995 42.506
O 43.308 37.862 53.827
O 37.205 34.002 50.022
O 45.694 27.633 55.38
O 39.501 27.725 48.116
O 47.316 35.252 55.793
O 35.795 40.644 50.88
O 36.8 31.274 41.013
O 39.855 33.055 48.811
O 32.193 34.817 40.454
O 34.114 35.713 46.515
O 36.817 37.38 51.675
O 37.155 38.97 40.989
O 38.696 30.883 43.229
O 37.56 35.072 53.085
O 36.542 34.821 41.955
O 44.88 26.431 50.601
O 41.199 31.681 43.378
O 38.103 30.039 55.727
O 43.859 36.695 49.147
O 44.389 40.113 42.537
O 44.026 34.047 50.12
O 32.414 33.011 39.22
O 43.704 34.017 44.311
O 41.565 31.817 54.306
O 39.199 39.015 43.964
O 33.308 41.152 41.522
O 34.491 30.77 46.735
O 43.337 37.651 56.205
O 43.206 30.56 46.823
O 40.673 37.651 44.885
O 39.361 30.466 53.336
O 44.357 38.187 51.577
O 41.94 30.858 40.636
O 34.368 33.378 45.237
O 34.092 44.254 44.32
O 36.116 32.709 54.784
O 31.158 37.572 45.994
O 40.3 36.05 40.7
O 49.299 37.749 52.394
O 44.171 35.509 60.377
O 45.985 42.402 42.479
O 44.366 32.637 42.188
O 37.52 35.164 45.707
O 40.838 40.131 41.614
O 38.552 36.003 47.437
O 47.945 32.418 44.203
O 40.349 33.304 41.177
O 43.201 34.415 36.909
O 37.159 30.547 46.724
O 41.733 31.719 49.0
O 38.78 36.562 42.502
O 39.147 33.436 51.778
O 29.853 39.773 46.989
O 49.128 39.582 53.633
O 34.204 35.282 49.475
O 38.576 28.029 51.764
O 33.268 38.49 45.026
O 46.049 33.798 50.949
O 36.101 39.456 43.033
O 45.96 40.537 54.742
O 40.933 30.223 57.005
O 32.701 38.598 42.214
O 48.973 30.032 54.848
O 36.704 32.63 52.673
O 49.115 29.342 52.206
O 46.553 31.436 39.232
O 43.006 29.024 43.006
O 46.485 33.445 45.564
O 43.154 38.972 45.769
O 38.189 41.608 43.127
O 30.186 34.974 43.173
O 44.021 30.799 56.917
O 30.19 38.593 40.584
O 45.493 29.707 41.248
O 47.13 38.15 52.712
O 35.964 42.155 43.105
O 31.743 32.566 46.89
O 45.207 35.375 56.94
O 45.917 34.532 40.466
O 33.21 36.684 39.705
O 46.292 38.488 41.071
O 31.657 38.845 38.964
O 38.327 32.878 54.35
O 47.465 26.388 51.066
O 41.801 34.548 56.395
O 46.244 37.977 55.297
O 41.886 32.097 51.535
O 41.964 33.859 39.435
O 44.495 36.267 46.086
O 32.41 38.728 47.709
O 32.384 41.162 47.373
O 46.534 29.376 53.219
O 44.177 41.072 53.102
O 40.981 29.046 45.828
O 34.308 33.121 47.957
O 43.622 35.211 53.103
O 45.502 35.93 50.495
O 30.572 34.36 46.412
O 34.415 30.797 42.537
O 41.464 36.253 46.761
O 36.144 34.572 47.31
O 42.477 34.855 41.362
O 42.278 26.575 47.445
O 34.641 36.168 42.457
O 42.909 28.724 55.5
O 47.192 36.49 59.657
O 44.328 40.414 39.675
H 46.615 38.773 53.24
H 46.681 37.307 52.849
H 36.003 42.399 44.038
H 35.896 43.002 42.648
H 44.962 30.145 40.572
H 45.849 30.437 41.769
H 40.191 40.296 38.827
H 44.03 30.982 57.865
H 33.859 36.734 42.482
H 43.11 30.532 56.744
H 35.137 36.496 41.696
H 48.783 32.128 43.821
H 48.55 29.733 51.527
H 49.02 28.392 52.065
H 47.797 31.798 44.928
H 30.324 34.029 45.54
H 30.743 35.298 46.261
H 39.492 35.856 47.604
H 38.142 35.865 48.299
H 44.827 35.805 51.174
H 46.055 36.637 50.849
H 48.284 30.321 54.237
H 40.409 29.397 46.522
H 41.415 28.293 46.248
H 39.438 33.066 40.963
H 45.019 40.807 52.711
H 43.528 40.527 52.641
H 40.27 33.791 42.007
H 33.569 38.85 41.876
H 32.138 39.348 41.985
H 37.012 32.678 51.759
H 35.766 32.422 52.588
H 38.995 28.324 52.582
H 36.187 39.043 43.901
H 35.35 40.053 43.136
H 30.111 35.65 43.858
H 33.747 38.3 44.21
H 32.669 39.206 44.78
H 34.703 35.12 50.286
H 33.283 35.267 49.765
H 48.915 40.467 53.956
H 48.591 39.001 54.185
H 45.995 33.882 51.909
H 46.62 33.032 50.817
H 39.956 33.892 52.039
H 39.203 32.588 52.236
H 41.836 30.616 41.564
H 41.885 31.822 40.643
H 45.513 38.357 55.799
H 47.027 38.244 55.795
H 40.9 38.511 45.26
H 41.365 37.497 44.23
H 41.579 31.266 51.153
H 41.539 32.768 50.933
H 44.101 38.287 50.652
H 43.561 38.249 56.929
H 42.431 37.896 55.978
H 45.045 38.854 51.698
H 40.089 30.554 52.708
H 38.573 30.483 52.779
H 43.372 29.737 47.298
H 42.243 30.599 46.762
H 39.239 36.318 43.315
H 37.887 36.777 42.798
H 38.105 30.629 46.896
H 33.936 43.348 44.025
H 33.541 33.329 45.733
H 34.088 33.638 44.35
H 39.468 30.725 40.939
H 42.124 32.229 48.28
H 41.082 31.16 48.557
H 39.035 33.522 54.22
H 38.648 32.328 55.075
H 45.676 34.913 39.613
H 45.081 34.5 40.948
H 33.705 37.318 40.238
H 43.567 29.583 42.454
H 46.625 43.114 42.361
H 45.388 42.503 41.727
H 44.181 36.018 59.556
H 49.195 37.15 51.644
H 50.128 38.208 52.208
H 45.219 32.518 42.623
H 44.512 32.294 41.298
H 42.571 39.662 46.109
H 42.999 38.989 44.816
H 38.163 42.44 42.638
H 37.725 40.989 42.55
H 46.326 31.804 40.095
H 47.079 34.097 45.955
H 46.25 32.874 46.306
H 41.197 40.45 40.777
H 39.943 39.851 41.387
H 31.995 37.15 46.223
H 30.613 37.442 46.781
H 40.984 35.817 40.059
H 39.633 35.362 40.583
H 45.662 36.1 57.386
H 45.165 35.663 56.019
H 38.17 35.354 45.019
H 36.675 35.372 45.288
H 32.425 41.532 41.439
H 33.798 41.816 42.023
H 37.277 35.126 41.409
H 36.02 34.276 41.353
H 44.514 39.593 43.341
H 43.849 40.859 42.828
H 44.507 36.99 46.725
H 45.287 35.758 46.3
H 42.414 33.146 38.966
H 33.37 38.796 47.629
H 32.285 38.076 48.409
H 43.373 34.339 45.159
H 44.657 33.948 44.448
H 41.065 33.833 39.083
H 47.61 32.601 52.975
H 48.538 33.131 51.896
H 40.855 31.383 44.23
H 41.444 32.601 43.54
H 37.5 35.232 52.134
H 36.66 34.825 53.332
H 43.853 33.221 49.653
H 43.437 34.007 50.884
H 43.228 36.263 49.736
H 44.27 35.962 48.673
H 37.426 39.846 40.688
H 37.912 38.41 40.776
H 46.236 28.416 55.22
H 38.727 31.722 42.753
H 38.17 31.083 44.013
H 44.777 39.932 40.379
H 43.923 41.163 40.131
H 36.19 37.018 52.314
H 37.643 37.435 52.171
H 33.22 35.352 46.548
H 34.378 35.59 45.595
H 31.803 34.434 41.25
H 33.138 34.657 40.562
H 42.65 34.306 56.004
H 41.201 34.581 55.639
H 47.376 26.935 51.857
H 42.133 31.417 54.976
H 40.855 32.223 54.819
H 39.211 38.641 43.074
H 38.346 39.465 44.013
H 29.843 41.444 40.313
H 48.035 35.373 56.426
H 40.126 27.17 47.635
H 47.766 34.968 54.987
H 39.978 27.966 48.92
H 39.723 32.686 49.694
H 39.757 34.006 48.943
H 37.575 33.174 49.691
H 37.97 34.587 50.083
H 42.472 37.388 53.734
H 47.035 37.138 58.959
H 47.471 35.7 59.177
H 43.927 37.181 54.119
H 35.021 39.206 40.262
H 35.339 40.502 40.986
H 41.917 34.205 49.307
H 42.82 34.407 48.103
H 44.739 32.725 38.878
H 44.187 31.311 38.848
H 46.664 30.171 52.689
H 45.901 28.858 52.706
H 48.027 32.516 55.42
H 41.21 36.493 58.099
H 42.723 36.461 57.965
H 45.589 32.64 54.463
H 44.217 32.129 54.868
H 37.928 40.373 51.272
H 37.557 39.172 50.419
H 39.213 35.029 57.967
H 35.739 35.222 47.898
H 36.543 33.934 47.913
H 42.989 35.331 42.027
H 42.727 33.932 41.497
H 36.423 32.251 43.351
H 36.461 33.658 43.921
H 31.222 40.855 43.924
H 42.074 26.448 48.38
H 40.003 28.873 42.858
H 42.27 25.679 47.085
H 40.309 30.369 56.284
H 40.656 29.378 57.381
H 43.075 34.891 53.832
H 46.882 40.823 54.719
H 45.742 40.543 55.683
H 38.317 33.166 45.25
H 39.546 33.326 44.373
H 30.648 38.756 43.607
H 35.487 37.056 49.103
H 36.938 37.299 49.483
H 34.957 32.422 48.103
H 33.87 33.209 48.813
H 44.304 31.563 44.388
H 42.913 31.718 44.976
H 42.424 36.3 46.853
H 32.172 35.584 44.62
H 32.473 34.916 43.29
H 41.171 37.151 46.963
H 45.757 38.264 41.843
H 43.576 28.009 45.947
H 40.565 38.542 48.733
H 41.88 37.812 48.944
H 40.088 33.53 46.505
H 41.496 34.086 46.381
H 41.95 39.658 53.905
H 42.62 40.444 55.019
H 34.381 41.704 46.606
H 44.29 32.511 52.252
H 43.462 31.424 52.914
H 41.971 31.801 58.2
H 40.868 32.842 58.267
H 44.524 35.057 53.409
