675
xyz format
O 42.153 30.762 30.427
O 43.478 37.536 32.884
O 58.357 42.165 32.213
O 48.185 35.974 28.931
O 50.445 29.022 39.465
O 48.09 32.523 34.072
O 46.433 36.815 32.932
O 54.182 49.336 31.495
O 41.517 38.638 48.602
O 55.05 29.987 34.027
O 50.95 28.337 43.547
O 42.524 34.909 32.465
O 42.632 28.818 37.602
O 45.733 48.509 31.953
O 39.522 44.361 34.858
O 43.409 31.841 44.157
O 49.76 32.907 36.399
O 45.344 31.758 35.142
O 48.66 49.362 33.595
O 43.128 47.633 32.968
O 40.376 33.695 31.332
O 42.098 48.166 37.965
O 50.527 39.15 25.125
O 50.528 47.952 30.327
O 46.529 42.063 30.219
O 55.942 47.335 32.968
O 35.8 40.266 38.185
O 52.3 31.798 35.173
O 37.329 43.272 36.635
O 51.161 26.738 42.04
O 48.833 45.132 36.582
O 50.329 31.882 38.276
O 38.961 38.536 35.998
O 44.611 31.972 38.288
O 37.747 40.213 34.957
O 52.045 39.375 30.216
O 50.118 37.717 31.113
O 55.723 41.84 36.029
O 45.521 29.325 37.697
O 50.363 40.468 38.283
O 57.527 39.392 44.856
O 51.575 36.828 28.335
O 42.509 44.712 31.816
O 50.25 37.275 38.303
O 49.028 39.22 42.219
O 54.64 43.574 28.561
O 40.644 44.475 37.494
O 41.526 35.03 30.015
O 54.477 39.43 31.777
O 51.196 35.963 47.241
O 55.651 41.602 42.9
O 37.155 38.97 40.989
O 56.584 37.734 36.1
O 46.756 45.28 28.776
O 56.201 37.356 33.457
O 57.742 36.64 38.365
O 49.397 39.75 27.915
O 51.147 34.915 30.093
O 48.456 35.872 42.962
O 56.87 35.399 44.55
O 51.599 39.451 40.276
O 48.445 33.465 39.636
O 52.181 38.422 42.594
O 41.199 31.681 43.378
O 36.405 46.299 37.519
O 44.389 40.113 42.537
O 44.636 45.743 30.719
O 44.369 38.201 36.674
O 43.966 42.991 35.457
O 43.704 34.017 44.311
O 39.199 39.015 43.964
O 56.982 41.707 39.823
O 54.967 41.777 33.958
O 47.96 41.069 32.132
O 51.48 32.473 41.063
O 47.559 41.166 41.228
O 46.725 33.153 29.228
O 44.16 44.06 38.098
O 51.824 37.156 49.573
O 43.138 32.651 34.92
O 40.673 37.651 44.885
O 42.857 41.054 38.169
O 46.728 32.307 32.048
O 53.237 47.776 37.279
O 55.129 36.91 43.964
O 50.48 34.18 45.073
O 41.94 30.858 40.636
O 54.612 33.24 33.528
O 39.744 33.042 36.293
O 44.294 43.052 29.815
O 51.131 41.219 32.423
O 45.549 38.002 39.053
O 44.487 28.948 33.124
O 50.827 43.883 30.833
O 53.405 46.384 31.076
O 40.3 36.05 40.7
O 52.194 29.312 37.925
O 47.795 28.967 36.092
O 45.985 42.402 42.479
O 41.846 41.941 31.692
O 44.366 32.637 42.188
O 53.501 41.307 42.52
O 38.483 38.741 32.313
O 40.838 40.131 41.614
O 40.324 42.635 36.016
O 54.735 36.665 40.538
O 51.711 31.118 44.052
O 47.945 32.418 44.203
O 51.116 50.463 33.315
O 54.767 42.662 30.575
O 38.251 41.413 37.661
O 49.677 47.318 35.392
O 40.349 33.304 41.177
O 39.528 47.063 40.557
O 39.485 34.394 34.115
O 41.28 38.824 37.499
O 43.707 32.264 28.121
O 41.037 47.328 30.485
O 43.201 34.415 36.909
O 44.329 29.101 35.832
O 49.978 42.608 26.311
O 44.581 47.833 40.163
O 37.816 35.908 32.996
O 48.183 38.292 34.342
O 48.646 40.269 30.2
O 58.074 36.784 40.546
O 42.205 43.697 34.264
O 45.106 43.419 27.047
O 46.137 41.844 36.528
O 46.113 50.098 34.367
O 38.04 44.595 39.198
O 44.267 51.138 30.976
O 54.465 34.504 47.404
O 51.196 29.812 33.687
O 47.999 38.989 38.43
O 50.811 39.306 35.772
O 51.232 43.383 37.162
O 49.447 41.421 34.204
O 46.963 45.185 32.225
O 47.631 28.186 41.32
O 42.39 45.371 38.656
O 47.291 39.979 35.984
O 45.346 46.34 35.392
O 49.004 35.151 31.673
O 49.714 30.505 29.533
O 48.537 35.954 39.136
O 52.624 41.258 36.235
O 47.394 50.357 29.947
O 47.657 43.455 34.18
O 40.877 36.138 36.382
O 58.026 32.11 37.053
O 49.786 37.1 44.85
O 43.35 36.09 35.489
O 39.52 41.949 40.861
O 49.626 32.68 30.746
O 51.229 50.341 30.39
O 45.069 46.488 38.492
O 42.659 32.133 32.256
O 53.759 44.779 36.904
O 46.553 31.436 39.232
O 49.847 44.732 33.838
O 49.57 30.11 35.451
O 43.006 29.024 43.006
O 47.9 42.23 37.959
O 43.154 38.972 45.769
O 38.189 41.608 43.127
O 49.204 29.958 42.136
O 44.661 39.923 34.84
O 51.156 42.059 28.588
O 40.346 41.032 38.222
O 53.489 32.314 44.844
O 45.493 29.707 41.248
O 53.799 31.697 38.314
O 56.146 47.272 36.315
O 55.609 38.781 38.286
O 56.121 33.819 37.964
O 53.516 38.54 45.515
O 53.612 39.21 48.135
O 39.405 45.462 29.705
O 38.868 36.834 38.438
O 40.099 40.717 33.761
O 53.658 34.319 37.575
O 46.743 41.184 28.097
O 47.799 36.232 36.156
O 41.847 39.375 30.151
O 45.917 34.532 40.466
O 38.443 43.813 32.62
O 44.234 33.826 30.943
O 47.028 45.182 25.768
O 46.292 38.488 41.071
O 50.148 46.313 31.866
O 53.613 47.024 33.713
O 54.949 31.345 31.683
O 49.833 37.065 33.547
O 56.961 38.662 30.581
O 41.915 43.483 39.942
O 54.151 34.301 35.4
O 41.935 47.489 35.878
O 44.806 43.652 32.61
O 52.134 35.937 34.778
O 40.063 36.819 33.649
O 55.686 39.05 42.203
O 46.084 44.182 40.467
O 48.298 43.553 28.503
O 41.964 33.859 39.435
O 44.495 36.267 46.086
O 47.533 29.619 44.772
O 42.65 40.602 34.256
O 46.994 38.6 31.771
O 52.253 49.144 35.857
O 46.208 40.407 33.329
O 44.76 30.019 31.222
O 48.858 46.918 28.19
O 50.182 27.31 36.279
O 58.394 41.651 42.138
O 46.329 41.858 25.392
O 50.61 37.205 41.65
O 40.71 45.32 41.849
O 46.121 34.438 36.228
O 52.559 49.22 28.088
O 40.67 37.559 30.971
O 49.269 31.904 40.95
O 42.973 49.986 33.639
O 57.805 42.605 36.97
O 45.291 39.253 26.091
O 41.464 36.253 46.761
O 42.271 46.033 28.182
O 59.68 39.323 41.176
O 47.893 39.234 23.908
O 42.477 34.855 41.362
O 46.348 51.833 31.199
O 55.361 32.467 39.741
O 42.779 49.169 40.93
O 44.328 40.414 39.675
O 49.172 45.68 46.848
O 48.851 49.071 45.41
O 51.804 48.349 33.324
N 47.255 47.449 45.656
N 50.479 46.045 45.037
C 44.622 43.983 46.852
C 49.254 46.025 45.639
C 45.26 44.81 45.927
C 46.527 44.474 45.431
C 45.238 42.808 47.286
C 47.799 48.687 45.956
C 47.138 43.291 45.869
C 51.714 45.782 45.77
C 47.997 46.502 44.861
C 50.756 46.292 43.628
C 47.076 49.542 47.028
C 52.735 45.346 44.69
C 47.085 51.016 46.603
C 52.312 46.996 46.517
C 46.498 42.464 46.792
C 47.172 45.301 44.376
H 54.087 39.864 48.662
H 52.735 39.184 48.539
H 38.939 44.363 39.461
H 53.912 37.964 46.181
H 53.486 39.403 45.946
H 40.265 34.53 34.667
H 55.533 39.743 38.265
H 54.9 38.482 37.703
H 40.624 38.31 37.986
H 42.116 38.58 37.913
H 55.849 46.585 36.924
H 44.962 30.145 40.572
H 45.849 30.437 41.769
H 51.593 42.395 29.38
H 50.918 41.154 28.824
H 38.77 34.277 34.753
H 40.529 41.777 38.809
H 40.191 40.296 38.827
H 53.294 33.171 44.446
H 53.085 32.371 45.719
H 44.658 40.253 35.747
H 45.254 39.162 34.875
H 51.435 32.043 44.034
H 49.249 31.678 46.577
H 45.898 38.863 25.449
H 45.783 40.004 26.444
H 41.865 45.587 28.936
H 54.39 44.496 37.578
H 54.286 44.81 36.096
H 48.783 32.128 43.821
H 43.441 50.145 32.81
H 59.033 39.88 40.726
H 47.797 31.798 44.928
H 40.498 38.324 31.534
H 40.862 36.851 31.598
H 38.213 40.449 37.7
H 46.728 33.729 35.982
H 45.992 34.926 35.406
H 37.475 41.694 38.161
H 56.462 34.452 37.321
H 49.625 29.38 41.488
H 49.937 30.48 42.488
H 55.764 34.377 38.667
H 51.446 29.172 34.365
H 52.002 29.924 33.168
H 46.345 42.774 36.374
H 39.907 46.938 39.678
H 45.915 49.214 34.7
H 45.49 50.214 33.639
H 48.612 38.745 37.725
H 48.572 39.346 39.119
H 54.206 34.766 46.511
H 51.296 39.825 35.118
H 50.709 38.443 35.35
H 44.206 46.609 38.076
H 45.694 46.632 37.771
H 42.577 35.751 35.021
H 44.083 35.898 34.891
H 43.312 31.797 32.883
H 39.438 33.066 40.963
H 41.847 32.18 32.775
H 38.719 41.813 40.338
H 39.548 42.905 40.992
H 47.109 41.678 24.852
H 45.609 41.894 24.749
H 50.011 33.116 31.516
H 48.713 32.992 30.738
H 40.27 33.791 42.007
H 47.284 44.243 34.593
H 47.0 43.21 33.517
H 41.517 36.814 36.638
H 40.701 35.665 37.204
H 50.337 36.391 44.496
H 50.347 37.882 44.781
H 47.681 27.239 41.141
H 50.649 43.047 36.469
H 47.224 28.549 40.523
H 48.163 36.193 39.993
H 49.338 35.466 39.363
H 51.524 44.238 36.821
H 50.14 41.675 34.826
H 48.653 41.374 34.751
H 54.463 31.721 37.613
H 53.851 30.793 38.648
H 47.736 45.464 31.719
H 46.405 44.749 31.569
H 45.621 41.857 37.343
H 44.201 51.511 30.088
H 44.008 51.868 31.552
H 41.758 46.071 38.864
H 42.969 45.348 39.428
H 50.528 47.547 34.998
H 49.212 46.859 34.682
H 48.853 30.728 29.908
H 49.847 35.341 32.104
H 47.855 40.472 36.593
H 46.603 39.614 36.554
H 48.735 36.003 31.309
H 45.204 47.131 34.858
H 44.993 45.627 34.845
H 50.287 43.511 31.541
H 51.717 43.896 31.206
H 40.661 37.531 33.908
H 41.885 31.822 40.643
H 39.586 36.613 34.463
H 52.707 36.655 35.077
H 46.628 33.055 31.447
H 46.819 31.548 31.458
H 46.373 45.688 43.682
H 52.046 35.375 35.558
H 40.9 38.511 45.26
H 41.365 37.497 44.23
H 52.555 45.927 31.089
H 53.538 46.594 30.143
H 45.908 37.144 38.796
H 45.783 38.58 38.316
H 42.851 40.006 33.524
H 43.073 41.431 34.0
H 53.221 33.527 37.237
H 54.874 36.839 43.035
H 55.095 37.858 44.139
H 53.57 34.239 38.533
H 50.166 45.575 42.994
H 53.916 47.26 37.731
H 44.403 42.766 27.152
H 44.715 42.134 47.983
H 44.74 45.706 45.551
H 45.014 43.04 31.893
H 42.51 33.367 35.077
H 43.318 32.305 35.803
H 44.538 43.074 33.335
H 43.611 44.238 47.21
H 46.97 41.517 47.098
H 51.43 34.243 44.913
H 50.133 33.812 44.251
H 48.118 42.997 45.462
H 42.361 41.65 37.594
H 43.325 40.478 37.552
H 45.138 43.571 26.094
H 44.368 31.779 28.631
H 43.098 32.596 28.793
H 37.057 36.497 32.899
H 47.322 38.686 34.153
H 48.728 39.047 34.6
H 41.826 49.069 41.047
H 58.506 37.463 41.08
H 42.932 50.109 41.083
H 43.968 29.666 35.138
H 44.548 28.282 35.371
H 42.765 34.868 37.641
H 44.017 34.078 37.3
H 54.129 35.009 34.744
H 40.903 47.07 31.405
H 41.992 47.256 30.363
H 55.088 34.22 35.618
H 47.943 40.065 29.57
H 48.044 29.348 43.999
H 51.567 40.729 33.131
H 51.717 41.972 32.272
H 55.038 33.313 32.665
H 54.25 32.346 33.53
H 44.521 43.712 29.147
H 44.499 42.212 29.385
H 50.448 43.264 26.84
H 50.682 42.154 25.831
H 48.814 41.209 30.06
H 45.332 48.37 40.446
H 44.185 48.349 39.45
H 40.704 33.139 36.314
H 40.574 41.721 35.834
H 39.373 42.586 36.174
H 50.065 29.532 36.044
H 49.215 30.79 36.038
H 41.967 43.302 33.416
H 45.676 34.913 39.613
H 45.081 34.5 40.948
H 39.101 43.692 31.924
H 43.567 29.583 42.454
H 38.05 44.671 32.418
H 47.86 44.657 43.762
H 46.625 43.114 42.361
H 45.388 42.503 41.727
H 42.759 41.648 31.801
H 41.511 41.387 30.976
H 46.951 28.519 36.232
H 48.117 29.135 36.987
H 45.219 32.518 42.623
H 44.512 32.294 41.298
H 42.571 39.662 46.109
H 42.999 38.989 44.816
H 47.396 41.767 38.64
H 48.634 42.625 38.447
H 55.114 37.355 39.979
H 54.859 35.859 40.022
H 49.201 44.623 33.129
H 50.345 43.905 33.824
H 42.733 44.467 34.018
H 46.326 31.804 40.095
H 47.397 30.994 39.385
H 53.36 40.358 42.407
H 55.474 42.056 30.321
H 54.938 42.835 31.509
H 53.029 41.699 41.775
H 41.197 40.45 40.777
H 39.943 39.851 41.387
H 38.343 38.266 33.141
H 38.145 38.135 31.641
H 40.984 35.817 40.059
H 39.633 35.362 40.583
H 48.407 36.911 36.473
H 53.664 46.791 34.649
H 53.004 46.37 33.347
H 48.01 35.464 36.701
H 51.487 28.777 37.543
H 52.441 29.91 37.208
H 38.058 37.253 38.12
H 38.754 35.906 38.2
H 48.342 47.059 43.932
H 46.477 47.113 46.174
H 54.96 38.828 41.606
H 56.412 39.272 41.607
H 47.067 40.7 40.539
H 48.015 41.868 40.748
H 52.039 32.992 41.655
H 51.703 31.559 41.281
H 46.969 34.082 29.32
H 47.165 32.88 28.414
H 48.351 33.855 40.513
H 47.635 33.725 39.18
H 48.844 44.269 28.154
H 48.764 42.754 28.226
H 44.514 39.593 43.341
H 43.849 40.859 42.828
H 45.582 44.88 40.028
H 46.889 44.628 40.759
H 56.724 38.148 29.799
H 56.486 39.493 30.462
H 44.529 37.28 36.916
H 43.517 38.174 36.221
H 41.792 46.543 35.751
H 48.493 40.315 32.415
H 48.556 41.821 32.232
H 54.16 41.795 33.428
H 55.673 41.745 33.3
H 43.853 42.287 36.108
H 47.777 38.067 31.583
H 46.67 38.849 30.896
H 44.507 36.99 46.725
H 45.04 44.041 37.703
H 43.932 43.127 38.195
H 51.576 49.466 35.249
H 52.97 48.864 35.275
H 42.414 33.146 38.966
H 43.373 34.339 45.159
H 44.657 33.948 44.448
H 43.706 43.789 35.935
H 41.065 33.833 39.083
H 39.088 45.462 30.616
H 45.827 30.939 35.308
H 45.467 31.91 34.197
H 49.386 46.896 31.974
H 50.014 45.92 30.994
H 48.764 35.235 42.304
H 47.834 36.424 42.472
H 40.581 40.135 33.16
H 39.691 41.366 33.174
H 43.838 46.062 30.279
H 53.085 38.213 42.859
H 51.866 39.008 43.293
H 57.267 36.254 44.34
H 56.33 35.582 45.329
H 46.605 42.136 28.021
H 47.455 41.005 27.47
H 44.533 46.048 31.63
H 50.739 39.196 40.631
H 52.002 38.611 40.025
H 49.061 38.865 28.104
H 50.121 39.593 27.296
H 55.524 37.566 32.801
H 56.797 38.114 33.423
H 56.892 36.373 38.737
H 56.012 32.904 40.305
H 50.378 35.052 29.525
H 51.894 34.977 29.485
H 55.369 31.552 40.048
H 57.414 37.873 36.573
H 56.244 36.91 36.47
H 46.669 46.07 29.324
H 46.541 44.558 29.38
H 51.804 35.761 46.518
H 50.389 36.242 46.791
H 44.777 39.932 40.379
H 43.923 41.163 40.131
H 54.016 38.605 31.582
H 54.388 39.94 30.962
H 42.298 35.153 29.449
H 40.912 35.712 29.717
H 50.981 48.114 32.878
H 52.423 48.501 32.599
H 55.86 40.846 43.462
H 55.516 42.324 43.527
H 39.768 44.549 37.095
H 41.243 44.502 36.738
H 54.092 44.364 28.644
H 53.998 42.854 28.516
H 50.974 36.676 38.527
H 49.97 37.626 39.157
H 48.638 39.053 41.352
H 48.345 39.718 42.686
H 57.15 40.991 40.448
H 41.867 45.079 31.196
H 43.002 44.074 31.285
H 50.79 37.047 33.426
H 49.658 36.298 34.107
H 39.211 38.641 43.074
H 56.956 38.636 45.046
H 57.521 39.447 43.893
H 52.427 37.28 28.391
H 50.987 37.494 27.959
H 46.319 29.406 38.233
H 44.813 29.249 38.349
H 49.862 40.75 37.508
H 50.812 39.666 37.987
H 54.954 42.365 36.287
H 55.563 40.982 36.44
H 45.83 41.287 33.447
H 45.565 39.953 32.77
H 50.037 38.419 31.77
H 49.607 38.044 30.362
H 41.733 42.664 40.42
H 41.048 43.756 39.617
H 44.711 29.438 30.452
H 44.809 30.903 30.838
H 48.822 46.358 28.975
H 44.739 32.725 38.878
H 44.187 31.311 38.848
H 48.088 46.643 27.677
H 46.184 41.467 30.895
H 47.172 42.603 30.695
H 38.388 40.667 35.518
H 37.176 39.754 35.585
H 42.989 35.331 42.027
H 42.727 33.932 41.497
H 38.465 37.708 36.006
H 39.879 38.252 35.902
H 51.501 38.866 29.602
H 52.596 39.918 29.639
H 46.015 52.735 31.29
H 49.727 26.708 35.676
H 51.112 27.217 36.038
H 53.379 40.863 36.687
H 51.942 41.295 36.917
H 52.29 36.446 49.113
H 50.894 36.908 49.493
H 50.166 37.357 42.493
H 49.98 36.668 41.153
H 57.92 41.433 42.951
H 46.897 49.637 29.538
H 47.823 49.939 30.703
H 52.696 32.675 35.088
H 51.581 31.807 34.53
H 37.16 42.566 35.999
H 37.606 44.015 36.085
H 42.982 48.102 32.137
H 42.252 47.607 33.373
H 40.854 33.075 30.768
H 51.059 29.7 39.774
H 50.827 28.2 39.796
H 39.076 45.038 34.334
H 39.977 43.824 34.197
H 39.546 33.842 30.861
H 44.304 31.563 44.388
H 42.913 31.718 44.976
H 41.849 48.299 38.888
H 42.788 48.825 37.817
H 44.487 33.043 30.439
H 44.538 33.631 31.838
H 42.424 36.3 46.853
H 41.171 37.151 46.963
H 43.587 37.82 33.8
H 42.632 37.071 32.887
H 48.61 36.834 28.819
H 47.625 35.893 28.149
H 58.493 42.296 37.572
H 57.11 42.923 37.56
H 48.533 33.204 34.594
H 47.766 31.9 34.735
H 57.491 41.793 32.003
H 49.562 33.672 36.953
H 50.649 33.087 36.068
H 45.757 38.264 41.843
H 46.887 37.733 40.978
H 41.12 39.175 29.548
H 51.401 38.985 24.749
H 50.094 38.289 25.083
H 51.45 47.744 30.522
H 42.596 39.532 29.563
H 50.468 47.849 29.369
H 47.163 44.402 26.321
H 48.41 48.755 32.888
H 48.244 48.985 34.38
H 51.367 28.795 42.807
H 50.529 29.046 44.049
H 53.486 49.532 30.855
H 54.428 30.438 34.612
H 54.326 48.387 31.395
H 49.054 44.705 37.419
H 43.124 34.662 33.181
H 41.649 34.701 32.818
H 49.595 44.943 36.021
H 51.117 32.027 38.813
H 50.344 30.933 38.097
H 49.407 31.213 40.29
H 45.945 36.067 32.566
H 45.742 37.399 33.267
H 48.355 31.774 41.229
H 45.723 49.277 31.369
H 46.085 47.803 31.397
H 39.952 45.044 41.319
H 41.459 45.215 41.249
