774
xyz format
O 67.443 45.63 45.603
O 68.359 43.086 54.523
O 69.831 48.448 45.987
O 74.857 41.91 41.833
O 64.275 48.624 42.465
O 63.784 46.708 48.397
O 64.909 40.94 43.163
O 67.345 48.817 50.344
O 67.066 54.338 55.681
O 55.752 53.306 41.348
O 62.842 59.32 50.441
O 71.236 40.427 49.196
O 66.077 51.943 48.352
O 67.744 46.953 58.777
O 69.971 57.602 40.999
O 60.41 51.628 51.882
O 65.304 43.889 46.505
O 62.752 58.048 44.383
O 72.346 50.641 55.342
O 62.194 42.612 47.902
O 62.173 44.389 42.685
O 65.032 58.193 53.772
O 60.649 44.321 52.543
O 64.323 47.801 55.339
O 63.103 48.738 45.302
O 67.561 37.754 41.403
O 71.921 50.145 46.021
O 67.054 61.767 48.895
O 61.539 55.57 41.633
O 72.564 43.314 37.78
O 68.132 44.456 39.404
O 63.678 51.852 40.364
O 70.887 45.059 49.576
O 66.038 60.789 52.061
O 61.097 47.285 39.771
O 67.809 53.637 41.01
O 65.019 50.15 57.858
O 70.952 45.473 40.043
O 65.141 55.078 45.493
O 66.393 42.618 45.076
O 65.816 54.329 48.2
O 72.754 38.695 44.273
O 68.807 50.74 45.586
O 61.473 44.715 48.2
O 64.804 52.153 55.074
O 67.316 36.873 45.045
O 65.525 52.671 44.585
O 72.217 46.232 42.651
O 68.83 44.092 41.94
O 68.506 46.737 47.887
O 73.858 46.883 49.56
O 63.502 41.26 46.724
O 69.998 38.521 46.452
O 64.727 61.208 39.209
O 62.061 43.908 37.631
O 65.778 46.918 42.973
O 64.222 45.19 42.549
O 66.673 43.966 42.372
O 61.746 48.45 48.04
O 71.55 42.045 41.691
O 66.14 43.802 53.398
O 73.65 44.463 53.985
O 64.999 55.127 54.17
O 74.299 42.512 49.231
O 59.147 49.572 52.362
O 59.735 44.46 49.947
O 74.787 41.464 51.604
O 70.928 59.159 53.705
O 65.951 61.95 43.321
O 62.787 52.349 46.174
O 68.857 42.968 45.345
O 65.584 36.578 46.605
O 75.722 43.93 41.154
O 61.228 59.219 53.159
O 70.173 46.186 45.534
O 62.906 39.422 43.925
O 59.491 41.082 51.615
O 72.837 46.478 52.5
O 60.875 56.202 50.356
O 73.702 51.787 42.779
O 64.897 49.875 54.136
O 67.535 49.778 57.797
O 62.426 43.614 45.743
O 63.522 44.213 54.656
O 71.488 52.678 41.931
O 70.108 53.36 39.458
O 57.069 50.944 47.434
O 74.32 57.188 47.452
O 61.67 60.589 49.077
O 67.307 52.029 56.754
O 67.53 55.478 44.629
O 74.985 54.128 52.411
O 67.36 55.888 52.61
O 59.052 40.635 45.899
O 69.825 43.099 38.317
O 66.814 46.949 52.976
O 69.466 49.221 48.582
O 59.399 49.094 44.669
O 66.986 42.563 49.955
O 60.062 44.345 41.674
O 65.57 48.977 59.756
O 72.318 38.561 47.268
O 75.769 51.269 43.95
O 66.635 59.354 41.847
O 71.274 63.123 47.551
O 75.344 40.312 46.613
O 57.482 43.742 42.228
O 68.37 46.646 41.621
O 75.243 50.565 51.292
O 72.63 42.195 44.045
O 61.991 41.178 50.57
O 56.906 48.665 42.027
O 74.787 49.243 53.663
O 59.223 46.933 46.829
O 70.148 55.109 49.272
O 58.972 44.967 38.96
O 61.308 48.56 54.575
O 63.951 57.903 46.767
O 73.252 44.143 46.298
O 63.531 43.32 52.289
O 66.915 40.92 53.767
O 68.556 48.274 43.101
O 73.251 53.982 43.039
O 59.342 57.664 49.762
O 67.002 54.671 50.022
O 64.221 38.518 40.79
O 76.358 46.786 39.045
O 64.435 39.502 50.039
O 58.264 59.554 45.095
O 63.897 50.046 47.79
O 57.548 52.303 44.476
O 74.426 43.695 39.391
O 64.779 53.145 50.193
O 69.016 64.218 45.603
O 67.153 39.17 51.721
O 67.928 44.615 47.791
O 71.943 43.874 48.046
O 61.369 48.486 42.344
O 72.746 39.699 40.29
O 64.402 61.363 50.707
O 72.258 39.458 51.406
O 69.945 53.596 43.675
O 68.608 48.549 53.638
O 68.57 43.342 51.808
O 69.876 40.911 44.022
O 63.765 54.904 56.18
O 74.753 53.486 46.525
O 62.31 52.908 43.54
O 59.547 53.745 45.963
O 66.758 58.695 39.359
O 68.991 57.036 50.856
O 59.739 56.869 45.804
O 70.023 49.895 51.219
O 62.898 54.962 51.608
O 61.818 53.825 48.639
O 75.517 46.397 47.702
O 64.586 43.393 49.489
O 67.75 51.667 53.748
O 68.911 55.426 42.911
O 69.56 50.759 56.025
O 77.2 42.696 46.561
O 70.138 59.345 47.123
O 71.249 43.865 43.486
O 65.53 42.804 37.469
O 71.555 48.52 44.573
O 58.822 46.964 51.092
O 69.005 60.911 52.108
O 74.359 48.141 43.669
O 60.701 48.478 37.688
O 65.993 48.457 40.905
O 59.805 41.423 48.572
O 70.24 45.853 51.53
O 58.55 44.819 46.721
O 63.529 50.618 50.228
O 57.216 55.613 46.616
O 73.983 46.165 39.976
O 63.815 45.919 53.122
O 67.926 40.622 43.046
O 74.079 55.06 50.382
O 56.784 47.336 45.397
O 77.352 53.775 48.095
O 70.437 48.094 41.294
O 72.893 43.61 51.991
O 71.048 48.164 38.908
O 65.206 45.478 56.278
O 75.681 57.295 52.075
O 70.116 53.973 46.542
O 61.18 45.78 50.956
O 66.21 44.838 51.374
O 64.679 37.913 45.103
O 60.695 40.219 43.778
O 67.743 50.348 36.169
O 69.646 59.53 39.567
O 72.47 48.32 50.95
O 68.599 50.251 38.54
O 59.949 43.914 44.681
O 73.904 48.505 39.58
O 70.683 50.986 36.535
O 70.421 51.212 48.57
O 63.68 50.758 43.388
O 68.875 57.428 53.018
O 71.703 56.515 48.601
O 61.48 51.258 49.088
O 66.182 51.454 42.628
O 68.644 62.422 42.981
O 58.034 60.286 47.16
O 61.644 42.892 39.623
O 64.165 52.322 52.887
O 64.109 55.729 48.859
O 59.438 46.785 42.027
O 58.134 55.782 52.161
O 58.58 48.821 49.111
O 69.778 41.124 54.197
O 63.845 62.107 44.969
O 73.767 52.484 50.24
O 60.41 58.431 47.998
O 58.316 54.111 48.936
O 67.033 59.107 48.538
O 61.832 51.639 54.799
O 61.716 55.792 45.973
O 64.148 40.605 39.335
O 70.384 41.215 47.306
O 56.998 55.032 44.209
O 61.191 37.962 45.881
O 60.976 59.705 44.48
O 66.353 46.773 48.338
O 71.345 58.403 44.585
O 59.429 55.082 42.667
O 71.952 52.018 39.092
O 72.686 51.383 52.983
O 66.894 57.467 45.327
O 76.695 48.033 50.154
O 73.18 56.033 53.525
O 65.226 47.043 46.374
O 69.449 41.964 49.151
O 57.6 42.914 50.605
O 59.719 49.752 39.534
O 67.213 49.441 44.803
O 67.077 39.77 48.91
O 65.652 39.855 45.902
O 71.047 54.057 50.982
O 64.33 43.585 40.127
O 68.467 53.516 52.803
O 62.888 60.417 46.224
O 59.652 52.897 39.842
O 60.461 57.639 43.872
O 67.718 48.593 55.697
O 69.717 60.399 49.481
O 71.166 47.902 54.0
O 56.121 58.474 44.4
O 71.009 45.974 37.319
O 64.72 61.502 47.32
O 58.394 41.651 42.138
O 72.055 41.22 54.258
O 67.769 53.237 47.772
O 62.357 41.464 42.486
O 64.177 47.751 50.972
O 70.291 61.075 43.64
O 71.976 49.716 41.266
O 59.433 46.664 54.217
O 71.196 62.744 44.895
O 61.838 51.324 39.278
O 63.232 47.84 39.281
O 71.739 54.065 53.176
O 59.887 50.759 47.083
O 62.766 59.39 42.403
O 76.751 47.587 41.916
O 57.525 42.61 46.168
O 68.579 61.247 46.523
O 60.246 52.807 42.008
O 72.926 61.412 46.035
O 72.488 59.353 48.668
O 65.837 64.717 46.944
O 75.367 45.411 43.859
O 59.295 50.375 42.726
O 60.832 46.359 45.268
O 75.293 42.702 45.464
O 66.557 54.01 37.138
O 64.951 64.335 43.018
O 66.343 60.743 45.142
H 65.798 64.117 46.189
H 69.06 44.009 51.312
H 68.945 42.506 51.501
H 63.975 50.553 44.284
H 64.068 51.625 43.212
H 61.772 46.577 45.259
H 60.514 46.676 44.414
H 75.325 43.618 45.768
H 74.648 42.722 44.746
H 68.939 48.313 52.763
H 69.013 49.408 53.812
H 59.73 44.599 44.038
H 56.933 43.047 46.793
H 72.377 48.871 50.162
H 72.949 48.885 51.568
H 58.375 42.6 46.627
H 67.939 50.061 39.219
H 69.428 50.296 39.032
H 59.645 43.1 44.261
H 68.832 59.428 40.075
H 67.394 50.84 35.415
H 68.439 49.801 35.783
H 61.248 40.821 44.291
H 66.045 45.89 56.522
H 65.27 45.377 55.32
H 69.734 48.755 41.256
H 70.561 47.945 42.24
H 60.765 50.376 47.203
H 59.906 51.096 46.178
H 71.036 53.802 46.303
H 70.036 54.932 46.47
H 74.87 56.891 52.409
H 77.377 46.856 41.989
H 72.0 43.571 52.357
H 73.363 42.907 52.456
H 76.697 47.933 42.816
H 66.678 59.608 39.662
H 73.282 48.068 38.985
H 73.765 49.444 39.407
H 69.922 51.233 37.075
H 66.446 58.729 38.446
H 71.198 49.022 39.324
H 70.341 48.338 38.273
H 71.542 50.578 41.266
H 72.096 49.52 42.203
H 69.825 51.744 48.029
H 71.287 51.36 48.169
H 69.648 60.383 43.839
H 69.766 52.788 44.173
H 62.5 53.147 48.548
H 60.993 53.336 48.529
H 61.452 41.697 42.244
H 62.793 41.322 41.637
H 70.089 54.26 44.36
H 72.002 40.262 54.152
H 71.885 41.559 53.37
H 64.5 42.452 49.293
H 64.494 44.506 39.89
H 61.811 47.628 42.321
H 61.969 49.066 41.859
H 74.964 45.681 48.038
H 75.905 46.781 48.498
H 64.941 43.766 48.672
H 64.824 60.698 50.149
H 64.317 43.129 39.276
H 74.856 54.73 49.913
H 73.391 55.074 49.704
H 57.513 46.716 45.269
H 57.151 48.004 45.988
H 64.782 60.642 47.755
H 64.858 62.132 48.038
H 71.578 46.203 38.064
H 70.13 46.249 37.608
H 67.212 40.133 43.472
H 67.73 40.542 42.104
H 56.94 57.967 44.337
H 63.142 55.79 52.04
H 62.996 55.156 50.668
H 70.676 47.072 54.053
H 71.105 48.146 53.068
H 69.447 58.775 46.765
H 70.7 59.532 46.36
H 70.148 50.728 55.261
H 68.25 55.805 42.318
H 69.426 56.19 43.198
H 69.895 50.061 56.601
H 66.195 43.02 38.135
H 65.203 43.666 37.183
H 75.8 54.094 43.094
H 72.032 48.049 43.877
H 70.285 48.967 51.162
H 69.229 49.943 50.672
H 70.839 53.188 51.346
H 70.473 54.656 51.476
H 58.999 56.547 45.275
H 59.686 56.347 46.614
H 68.705 53.405 51.874
H 69.144 54.116 53.142
H 58.753 58.083 41.217
H 68.362 56.811 50.159
H 69.655 57.57 50.402
H 70.945 49.088 44.088
H 70.542 43.312 43.842
H 71.656 44.25 44.271
H 73.531 40.26 40.319
H 72.182 40.059 40.986
H 67.075 48.516 45.041
H 66.596 49.919 45.37
H 67.029 51.297 54.273
H 68.449 51.82 54.396
H 77.533 47.888 50.611
H 76.25 48.696 50.696
H 65.543 60.304 44.827
H 62.717 40.61 50.855
H 62.168 42.016 51.016
H 73.03 42.589 43.259
H 72.969 41.291 44.045
H 73.092 51.583 52.131
H 56.865 49.026 42.921
H 68.948 48.078 43.961
H 68.549 49.239 43.066
H 73.58 54.732 43.551
H 72.865 54.392 42.255
H 57.456 47.877 42.123
H 70.452 54.417 48.671
H 69.555 55.641 48.727
H 58.173 45.031 39.498
H 59.501 45.723 39.244
H 59.269 47.868 46.593
H 67.491 39.96 51.281
H 69.448 40.53 44.799
H 70.802 40.989 44.285
H 74.005 48.677 53.685
H 74.884 49.535 54.578
H 75.849 50.918 50.628
H 75.259 51.229 51.992
H 70.941 41.247 46.518
H 69.633 40.672 47.034
H 59.944 53.127 45.335
H 58.711 53.988 45.547
H 74.366 52.985 47.253
H 64.206 43.101 51.635
H 62.937 43.916 51.816
H 63.225 57.679 47.362
H 64.643 58.221 47.36
H 59.303 55.934 43.102
H 60.184 54.698 43.131
H 65.636 47.891 46.584
H 65.12 47.07 45.415
H 61.655 49.386 54.216
H 61.619 47.891 53.952
H 64.667 55.215 56.331
H 63.46 54.649 57.06
H 73.416 44.686 45.517
H 72.897 43.321 45.935
H 59.423 46.925 47.773
H 66.606 59.638 49.222
H 64.725 53.574 51.056
H 65.176 52.287 50.388
H 66.576 59.367 47.728
H 64.026 62.832 44.358
H 69.685 41.55 53.336
H 69.62 64.473 46.311
H 72.206 43.377 48.83
H 71.387 43.254 47.557
H 66.873 53.794 50.404
H 66.197 55.147 50.262
H 59.768 58.458 50.109
H 58.543 58.0 49.337
H 63.966 37.594 44.535
H 65.423 38.021 44.498
H 72.746 52.346 39.532
H 72.024 51.059 39.174
H 61.158 46.652 50.543
H 61.9 45.847 51.595
H 66.986 44.584 50.859
H 65.523 44.965 50.708
H 63.663 61.358 44.388
H 64.854 40.371 50.009
H 64.485 39.191 49.126
H 73.924 42.873 39.452
H 74.639 43.765 38.452
H 72.345 56.221 47.943
H 72.248 56.917 49.289
H 66.299 40.936 53.024
H 59.068 59.12 45.406
H 76.031 47.681 39.202
H 76.789 46.551 39.875
H 62.806 53.46 44.157
H 59.652 58.4 47.402
H 61.169 58.461 47.402
H 67.88 43.892 47.153
H 67.267 44.382 48.453
H 58.232 51.655 44.266
H 56.945 52.252 43.725
H 63.651 50.978 47.854
H 66.016 61.558 45.542
H 64.837 50.073 47.571
H 62.068 52.136 44.067
H 59.744 50.716 39.572
H 59.2 49.505 40.31
H 57.658 43.835 50.322
H 57.335 42.445 49.804
H 61.219 60.522 48.226
H 75.919 54.076 52.17
H 74.787 53.247 52.75
H 66.941 57.538 46.289
H 67.686 55.121 45.512
H 67.005 54.794 44.195
H 66.613 58.346 45.046
H 66.706 51.342 56.441
H 58.042 44.465 42.54
H 60.613 45.028 41.273
H 60.141 43.6 41.066
H 66.295 42.461 50.622
H 67.407 41.695 49.926
H 67.252 59.645 42.53
H 65.818 59.183 42.333
H 76.311 51.716 43.288
H 75.245 51.981 44.336
H 60.931 60.318 45.224
H 70.384 62.885 47.838
H 60.478 60.151 43.784
H 67.849 46.221 42.313
H 69.244 46.246 41.713
H 69.23 42.651 48.509
H 70.21 42.326 49.622
H 66.29 50.784 43.315
H 66.857 51.225 41.977
H 68.324 61.743 42.373
H 69.222 57.308 53.91
H 60.208 48.851 44.202
H 58.804 48.354 44.498
H 66.563 47.803 53.349
H 66.301 46.896 52.16
H 68.832 58.387 52.916
H 72.394 49.961 54.658
H 74.357 52.238 49.517
H 73.021 52.905 49.795
H 61.499 50.319 49.313
H 61.597 51.7 49.938
H 69.732 48.338 48.869
H 68.506 49.158 48.507
H 62.27 42.329 39.149
H 62.153 43.688 39.818
H 65.026 51.987 52.605
H 63.693 51.531 53.172
H 70.226 53.454 38.504
H 70.874 53.813 39.83
H 73.685 57.913 47.514
H 75.176 57.634 47.441
H 66.85 56.557 52.137
H 67.838 55.427 51.91
H 59.06 41.024 45.015
H 69.516 43.688 37.618
H 69.179 42.382 38.316
H 70.546 52.757 41.733
H 71.504 52.297 42.818
H 64.615 56.175 48.167
H 63.699 54.986 48.4
H 56.66 50.152 47.804
H 57.307 51.463 48.213
H 64.092 43.539 55.047
H 62.754 43.714 54.35
H 68.281 49.169 57.868
H 67.4 50.082 58.703
H 61.781 42.897 45.714
H 61.894 44.407 45.599
H 73.572 45.885 52.301
H 60.803 55.315 50.729
H 61.123 56.749 51.111
H 72.72 46.386 53.454
H 67.32 54.294 37.655
H 65.63 49.662 54.727
H 64.164 50.056 54.737
H 73.659 51.524 41.852
H 73.275 51.058 43.245
H 63.609 39.764 44.492
H 63.292 39.45 43.04
H 71.06 46.53 45.37
H 69.984 45.656 44.751
H 66.305 35.962 46.785
H 65.641 37.216 47.328
H 75.788 44.839 40.836
H 76.375 43.454 40.625
H 60.443 58.946 52.669
H 61.831 58.471 53.063
H 68.507 42.758 44.47
H 68.568 42.226 45.891
H 61.866 52.299 46.461
H 63.056 53.242 46.421
H 59.813 43.731 49.319
H 59.614 45.235 49.385
H 75.57 41.95 51.891
H 74.828 40.644 52.111
H 65.913 46.087 48.857
H 66.261 47.565 48.881
H 64.584 41.086 40.05
H 62.126 55.729 46.845
H 62.294 51.415 55.616
H 60.914 51.401 54.981
H 62.006 54.987 45.525
H 57.204 55.861 43.757
H 57.525 54.376 43.735
H 66.155 43.108 52.727
H 65.279 44.222 53.274
H 64.753 54.345 53.661
H 65.39 55.715 53.511
H 74.552 44.165 53.814
H 73.506 44.242 54.913
H 74.059 41.827 48.594
H 74.59 43.247 48.677
H 70.627 58.359 43.942
H 58.419 49.622 52.995
H 59.896 49.281 52.897
H 72.109 58.669 44.058
H 65.497 61.328 42.74
H 66.326 62.6 42.714
H 61.651 46.72 40.324
H 60.583 47.797 40.408
H 70.159 60.835 48.742
H 69.162 59.734 49.055
H 66.475 60.009 51.696
H 68.548 53.672 41.63
H 67.944 54.413 40.45
H 63.119 52.069 41.12
H 64.24 51.139 40.691
H 70.174 44.494 49.253
H 70.63 45.943 49.285
H 61.031 57.578 43.095
H 59.684 58.112 43.55
H 63.962 45.689 41.765
H 64.512 44.34 42.195
H 70.602 44.833 40.674
H 67.686 39.449 48.234
H 66.339 40.13 48.402
H 62.01 54.729 41.698
H 60.854 55.398 40.975
H 72.548 44.271 37.654
H 71.444 46.094 40.595
H 65.37 49.502 57.234
H 67.972 45.094 40.11
H 68.236 43.618 39.872
H 66.558 39.828 46.234
H 65.137 39.448 46.611
H 72.277 42.266 41.096
H 70.822 41.831 41.093
H 61.371 48.078 47.232
H 61.621 47.75 48.693
H 68.655 60.6 45.811
H 66.602 44.13 43.32
H 66.314 43.076 42.265
H 68.535 46.485 48.818
H 69.389 46.52 47.563
H 68.37 62.07 46.063
H 66.066 46.248 43.605
H 66.372 47.661 43.139
H 66.855 48.367 56.066
H 67.685 49.554 55.608
H 74.575 46.654 40.561
H 73.581 45.506 40.555
H 56.737 56.448 46.539
H 56.55 54.996 46.943
H 64.667 47.081 50.478
H 63.263 47.444 50.93
H 63.812 50.677 51.149
H 63.794 49.728 49.963
H 65.426 48.856 40.233
H 66.176 49.185 41.511
H 61.282 48.21 36.965
H 60.556 49.419 37.527
H 60.517 40.788 48.719
H 60.105 41.931 47.808
H 69.542 46.328 51.998
H 70.928 46.519 51.406
H 59.497 44.631 46.733
H 58.293 44.766 47.65
H 74.021 47.327 43.275
H 73.985 48.837 43.115
H 57.92 41.433 42.951
H 59.27 41.912 42.447
H 64.111 45.758 52.218
H 63.301 46.734 53.053
H 59.43 47.536 51.577
H 59.048 46.077 51.397
H 69.178 60.112 51.594
H 66.443 42.006 44.331
H 65.448 53.984 47.377
H 72.911 39.309 45.001
H 69.201 51.56 45.909
H 69.015 50.741 44.643
H 61.528 45.592 47.8
H 61.845 44.842 49.082
H 65.551 52.758 54.992
H 64.289 52.521 55.802
H 64.823 52.659 45.248
H 66.269 52.248 45.031
H 67.525 37.412 44.272
H 59.713 53.832 39.609
H 58.821 52.836 40.33
H 62.635 61.268 46.604
H 62.893 59.82 46.982
H 65.298 55.949 45.878
H 64.193 55.076 45.309
H 66.377 42.039 45.848
H 66.452 54.994 47.907
H 68.082 53.198 46.86
H 68.379 53.852 48.198
H 63.749 47.196 39.78
H 62.991 48.502 39.941
H 62.429 41.917 48.529
H 62.988 43.16 47.859
H 62.516 60.142 42.954
H 70.42 48.277 46.732
H 68.949 48.327 46.359
H 63.651 59.163 42.713
H 65.315 40.484 42.415
H 64.614 41.779 42.788
H 67.464 53.913 54.911
H 67.695 54.16 56.391
H 67.306 48.652 51.294
H 66.6 49.41 50.183
H 62.288 57.799 45.192
H 63.679 57.865 44.584
H 72.309 49.888 46.867
H 71.002 50.341 46.24
H 63.397 47.541 55.252
H 64.67 47.718 54.442
H 58.898 46.42 41.316
H 63.274 48.61 46.244
H 62.142 48.826 45.255
H 59.0 46.478 42.83
H 67.134 38.421 41.956
H 62.477 43.573 43.101
H 61.974 44.967 43.432
H 57.278 55.714 51.718
H 65.502 58.1 52.934
H 64.102 58.194 53.514
H 59.823 43.841 52.686
H 60.942 44.543 53.436
H 58.83 53.645 48.265
H 57.561 53.53 49.091
H 58.769 55.771 51.434
H 59.516 48.606 49.204
H 58.583 49.756 48.871
H 67.81 61.494 49.43
H 66.478 62.218 49.525
H 74.512 47.335 50.108
H 62.793 40.988 46.128
H 64.219 41.511 46.128
H 60.955 52.271 41.631
H 60.194 52.508 42.924
H 73.653 46.083 50.059
H 72.075 40.901 49.254
H 71.501 39.506 49.079
H 66.084 51.876 47.389
H 66.789 51.354 48.629
H 68.807 44.28 42.886
H 75.288 45.596 44.803
H 74.582 44.886 43.662
H 69.396 43.313 41.874
H 71.313 45.977 42.874
H 72.692 45.392 42.626
H 70.622 39.044 45.934
H 69.139 38.753 46.079
H 72.327 60.021 47.99
H 71.608 59.162 49.015
H 60.22 50.359 42.451
H 58.973 49.494 42.499
H 65.206 61.198 40.047
H 63.637 48.505 43.18
H 64.095 47.884 41.872
H 67.938 46.44 45.779
H 67.8 45.321 44.761
H 68.338 43.926 54.048
H 67.497 43.045 54.956
H 74.382 41.179 42.247
H 75.416 42.251 42.542
H 62.361 50.531 39.103
H 62.071 51.917 38.553
H 63.766 45.75 48.52
H 63.349 46.838 47.545
H 71.652 53.226 53.646
H 71.439 54.72 53.819
H 70.383 57.661 41.87
H 70.539 62.455 45.54
H 59.755 51.369 51.222
H 61.025 50.884 51.9
H 62.238 58.689 50.85
H 58.545 46.767 53.851
H 59.984 46.506 53.441
H 69.028 57.54 41.195
H 65.69 44.741 46.743
H 64.681 44.108 45.8
