160
xyz format
O 55.282 69.903 61.529
O 49.134 68.801 64.594
O 49.25 73.189 64.786
O 55.515 65.421 64.893
O 56.1 64.089 69.08
O 52.85 63.112 63.59
O 50.124 71.066 62.912
O 57.043 72.786 59.531
O 57.164 67.559 68.051
O 57.344 71.035 68.34
O 60.909 67.098 67.833
O 61.224 67.401 63.609
O 58.319 68.869 61.621
O 56.806 65.979 70.41
O 57.278 73.401 62.757
O 59.054 65.661 65.039
O 51.441 73.722 65.643
O 55.562 72.896 65.901
O 59.342 70.725 66.173
O 56.02 70.466 65.296
O 60.838 65.916 69.691
O 53.677 64.195 67.324
O 60.777 65.268 60.86
O 57.848 68.567 65.353
O 56.971 65.614 66.749
O 56.551 62.57 64.886
O 59.414 68.975 68.099
O 48.548 71.202 59.898
O 52.154 68.613 63.906
O 61.686 69.979 63.938
O 65.031 69.513 64.007
O 64.283 66.522 62.313
O 62.334 70.071 60.867
O 54.666 67.197 63.153
O 59.336 67.61 69.825
O 56.04 65.471 60.968
O 47.029 71.051 63.464
O 60.355 71.783 61.643
O 53.56 66.679 68.589
O 55.027 68.219 70.958
O 62.029 62.718 69.551
O 52.026 64.899 71.153
O 54.649 69.424 67.89
O 58.262 65.909 72.617
O 60.908 65.06 71.969
O 52.356 71.258 64.071
O 51.519 74.229 62.427
O 53.114 71.179 59.877
O 49.961 72.902 59.884
O 50.457 68.681 61.555
O 53.651 66.875 65.295
O 58.313 64.255 69.655
O 58.791 66.438 62.945
O 57.065 70.114 59.193
O 60.825 67.465 60.918
O 62.641 65.124 62.733
O 56.036 67.297 59.66
O 62.754 63.941 71.446
H 52.734 66.987 65.575
H 54.149 67.425 65.912
H 50.777 67.808 61.295
H 49.644 68.789 61.046
H 62.854 64.196 62.576
H 62.469 65.163 63.682
H 60.627 68.235 61.466
H 57.331 70.644 59.954
H 56.149 70.377 59.04
H 53.767 69.815 67.938
H 55.134 70.025 67.311
H 60.421 67.679 60.068
H 53.801 71.796 60.16
H 59.575 72.156 61.214
H 60.771 72.544 62.066
H 56.552 65.032 61.658
H 54.133 67.289 68.108
H 54.013 66.558 69.433
H 54.647 68.0 63.688
H 53.738 66.938 63.097
H 58.743 66.85 69.774
H 59.645 67.599 70.739
H 51.576 73.349 62.034
H 51.441 74.816 61.665
H 60.314 65.808 71.83
H 60.312 64.305 72.047
H 53.04 70.641 64.358
H 51.574 70.98 64.564
H 57.952 66.693 72.146
H 58.196 65.205 71.959
H 61.624 70.939 64.02
H 62.023 69.697 64.797
H 52.665 68.858 63.124
H 51.627 67.862 63.608
H 62.05 69.887 61.771
H 64.078 69.602 63.878
H 56.43 71.189 64.805
H 55.074 70.628 65.196
H 56.645 63.529 64.834
H 57.38 62.238 64.52
H 60.125 69.121 67.462
H 59.556 69.661 68.762
H 49.267 70.565 59.803
H 48.146 70.97 60.744
H 52.881 63.885 66.875
H 54.28 64.407 66.601
H 57.431 68.095 64.621
H 57.958 69.464 65.015
H 57.431 65.266 67.523
H 61.784 65.986 69.867
H 60.71 64.981 69.492
H 61.659 64.884 60.784
H 60.303 64.644 61.423
H 56.054 65.69 67.042
H 60.03 70.511 65.531
H 59.695 71.492 66.641
H 55.602 72.235 66.603
H 54.8 73.438 66.14
H 52.177 73.706 65.018
H 51.226 72.789 65.767
H 59.979 65.771 65.29
H 58.617 66.427 65.431
H 61.967 67.83 63.167
H 56.409 66.776 70.037
H 56.227 65.76 71.15
H 57.433 72.716 62.095
H 57.466 72.959 63.594
H 58.911 63.894 70.322
H 58.793 64.133 68.827
H 60.988 66.68 63.012
H 63.467 63.314 71.624
H 63.205 64.691 71.04
H 58.824 69.41 61.001
H 57.799 68.291 61.049
H 61.87 67.106 67.741
H 60.635 66.331 67.315
H 56.761 70.383 68.748
H 57.204 70.908 67.394
H 54.803 65.234 64.269
H 56.266 65.635 64.325
H 55.381 64.665 69.368
H 55.838 63.822 68.19
H 52.63 65.584 70.84
H 62.339 62.131 68.849
H 62.394 63.578 69.308
H 54.436 68.828 71.417
H 54.933 68.466 70.029
H 58.904 67.373 63.154
H 58.471 66.443 62.035
H 53.454 63.496 64.238
H 49.326 68.968 63.663
H 49.913 68.325 64.907
H 49.272 73.961 65.365
H 48.499 72.678 65.115
H 50.769 70.739 62.272
H 49.499 71.566 62.373
H 57.911 72.841 59.95
H 55.983 68.206 59.338
H 56.407 67.997 67.641
H 57.841 67.579 67.363
H 55.43 70.853 61.437
H 55.388 69.745 62.475
