390
xyz format
Cl 62.646 58.926 60.688
O 48.289 54.675 60.198
O 40.501 62.894 63.585
O 42.041 62.691 62.027
O 47.424 54.104 66.271
O 40.864 56.219 58.793
O 55.968 59.682 62.992
O 58.119 54.41 60.805
O 49.199 54.548 65.05
O 48.067 51.742 61.864
O 58.796 59.374 64.961
O 45.343 58.568 57.018
O 55.515 65.421 64.893
O 49.235 60.47 57.866
O 39.582 63.43 60.735
O 51.694 59.22 57.721
O 52.85 63.112 63.59
O 44.439 61.737 54.351
O 39.375 60.307 55.966
O 43.637 63.062 63.495
O 61.128 58.983 57.055
O 38.696 57.437 57.182
O 43.983 64.926 61.101
O 45.731 53.856 60.759
O 37.775 60.29 59.145
O 42.458 57.269 53.963
O 61.826 62.956 59.73
O 42.547 54.312 57.931
O 57.782 65.822 55.598
O 44.804 60.501 60.742
O 44.145 66.322 55.699
O 47.298 56.666 66.583
O 54.899 66.253 56.186
O 47.926 61.005 61.121
O 50.096 62.503 52.401
O 51.385 60.879 53.472
O 47.457 65.997 56.091
O 46.216 56.588 52.637
O 55.729 60.392 59.571
O 51.724 53.542 64.725
O 53.87 53.66 68.672
O 43.288 60.914 51.7
O 54.912 63.025 55.92
O 52.78 57.819 67.129
O 53.481 67.473 57.748
O 46.392 62.363 52.051
O 53.677 64.195 67.324
O 49.581 59.632 54.869
O 43.351 53.627 60.992
O 49.944 52.038 65.237
O 58.991 62.781 56.522
O 56.551 62.57 64.886
O 52.149 60.996 55.772
O 45.306 56.67 62.387
O 47.052 57.775 61.629
O 44.16 58.405 59.33
O 59.051 56.579 63.042
O 53.335 59.822 59.477
O 53.887 51.634 67.558
O 52.648 62.02 61.581
O 59.661 62.547 61.16
O 47.15 59.032 58.231
O 39.605 58.243 60.413
O 43.485 63.394 56.677
O 47.662 68.301 55.971
O 42.88 56.545 56.125
O 41.098 59.129 57.18
O 47.78 58.377 55.011
O 52.245 51.887 61.515
O 44.112 57.961 52.243
O 54.925 60.006 67.785
O 61.59 60.384 58.908
O 54.662 56.543 64.089
O 57.288 67.433 57.747
O 52.492 64.562 57.905
O 52.916 55.211 65.598
O 42.262 60.957 56.794
O 59.691 61.441 58.761
O 50.022 54.357 61.744
O 41.194 61.252 59.64
O 49.498 55.815 69.244
O 43.83 66.339 58.582
O 49.8 68.0 55.179
O 43.627 58.729 63.446
O 56.04 65.471 60.968
O 40.68 60.52 63.249
O 40.225 56.434 62.301
O 61.23 55.035 60.138
O 54.39 58.038 61.041
O 51.36 54.265 68.284
O 45.484 55.421 68.155
O 45.654 62.323 59.04
O 56.798 62.435 53.25
O 44.499 64.204 53.591
O 58.291 55.897 65.975
O 42.855 56.962 61.352
O 46.19 64.401 57.621
O 55.395 58.188 65.856
O 49.094 57.43 60.789
O 47.129 60.991 55.846
O 54.031 61.468 65.908
O 59.831 58.823 61.169
O 53.778 58.748 63.227
O 56.364 54.83 63.474
O 50.216 64.356 56.489
O 45.016 57.813 65.766
O 46.555 64.265 64.237
O 43.674 60.899 63.094
O 58.993 65.84 58.401
O 41.164 55.004 53.881
O 40.52 56.216 56.62
O 45.143 55.064 64.304
O 57.663 61.028 61.846
O 50.522 60.756 60.53
O 51.672 68.261 59.316
O 55.939 60.065 56.213
O 56.236 63.753 58.922
O 45.915 63.195 61.624
O 41.748 55.727 63.732
O 51.743 56.608 61.237
O 58.796 56.877 59.666
O 46.554 63.974 55.049
O 49.576 58.58 52.507
O 57.798 60.473 57.314
O 50.585 56.881 63.867
O 56.957 60.557 66.723
O 53.589 53.425 63.084
O 51.17 59.369 62.253
O 48.602 65.852 62.258
O 53.609 61.002 51.89
O 44.961 53.241 62.831
O 47.396 65.304 52.568
O 56.036 67.297 59.66
O 56.131 58.195 58.527
O 47.472 63.353 60.031
O 46.676 54.87 62.737
O 58.454 57.81 67.415
O 45.936 66.161 60.452
C 49.365 53.325 56.879
C 48.124 52.651 57.501
C 46.223 53.463 53.307
H 53.717 56.416 63.94
H 44.285 59.029 64.086
H 54.834 56.055 64.904
H 58.367 65.156 58.667
H 43.225 60.715 62.26
H 44.557 61.179 62.823
H 56.188 59.276 55.716
H 46.187 64.799 63.522
H 47.333 63.854 63.839
H 50.53 63.626 57.038
H 49.515 64.756 57.018
H 44.875 57.855 66.72
H 45.843 58.294 65.635
H 43.01 58.21 63.978
H 47.484 65.666 53.458
H 46.544 65.642 52.266
H 56.147 60.79 55.611
H 60.056 59.601 61.693
H 60.56 58.213 61.339
H 46.838 65.028 57.966
H 45.738 64.896 56.927
H 49.166 57.257 59.842
H 48.836 56.576 61.159
H 43.34 56.484 60.668
H 42.975 57.89 61.111
H 47.936 53.024 58.534
H 57.063 55.246 63.993
H 55.89 54.289 64.118
H 52.996 58.483 63.727
H 53.729 59.712 63.219
H 56.07 57.841 65.259
H 54.717 58.532 65.261
H 51.996 59.137 61.81
H 50.743 58.516 62.403
H 44.432 63.459 52.981
H 44.58 64.97 53.01
H 53.866 57.27 60.781
H 55.021 57.679 61.677
H 60.824 55.595 59.465
H 57.709 60.843 66.19
H 56.236 60.492 66.085
H 57.103 61.787 53.898
H 56.321 63.084 53.782
H 51.373 56.572 64.331
H 50.306 57.651 64.378
H 57.892 56.63 65.489
H 57.48 61.384 57.351
H 57.259 60.015 57.971
H 49.998 53.803 57.675
H 50.824 54.875 67.762
H 51.861 53.775 67.62
H 49.086 59.214 51.969
H 48.918 58.254 53.133
H 45.053 55.486 67.293
H 45.827 54.519 68.172
H 55.61 59.365 68.012
H 40.094 60.579 64.014
H 41.552 60.379 63.638
H 55.16 60.785 68.304
H 40.823 57.189 62.371
H 40.362 56.116 61.4
H 44.122 58.893 51.99
H 58.401 57.716 59.4
H 44.404 57.97 53.163
H 58.217 56.565 60.373
H 61.213 59.53 59.155
H 61.853 60.771 59.753
H 51.934 55.783 60.774
H 56.552 65.032 61.658
H 55.399 66.0 61.459
H 50.949 56.406 61.748
H 45.091 63.107 59.027
H 45.991 62.268 58.137
H 42.013 55.195 62.971
H 40.071 58.592 59.643
H 52.824 59.013 59.601
H 53.859 59.644 58.686
H 59.201 56.028 63.82
H 58.645 57.378 63.401
H 50.252 67.172 55.383
H 43.74 58.773 58.543
H 44.771 57.746 58.977
H 49.229 67.773 54.435
H 53.215 64.64 58.54
H 51.841 65.201 58.22
H 42.193 61.076 55.838
H 43.158 60.619 56.919
H 53.56 54.808 66.194
H 48.635 55.477 68.976
H 52.279 55.623 66.194
H 59.275 60.602 58.994
H 59.94 61.325 57.836
H 52.619 61.279 60.963
H 52.599 62.796 61.009
H 59.517 62.579 62.113
H 59.584 61.609 60.947
H 40.917 61.518 58.754
H 46.957 59.579 59.002
H 47.376 58.173 58.611
H 41.545 60.362 59.513
H 50.956 54.17 61.906
H 49.563 53.632 62.186
H 48.023 68.256 56.865
H 46.725 68.488 56.111
H 44.214 65.47 58.411
H 53.116 61.725 65.74
H 54.534 62.268 65.71
H 47.452 60.45 56.577
H 46.262 61.291 56.148
H 52.32 52.7 60.999
H 51.466 52.035 62.065
H 40.479 59.616 57.739
H 41.561 58.553 57.801
H 45.029 55.997 64.522
H 45.41 54.664 65.141
H 45.886 54.423 52.845
H 43.654 64.068 56.006
H 47.132 58.827 54.454
H 47.611 57.441 54.849
H 42.522 63.356 56.726
H 42.498 57.431 56.156
H 43.628 56.596 56.734
H 45.253 62.649 61.181
H 54.093 54.561 68.406
H 46.162 62.674 62.398
H 42.991 61.813 51.512
H 43.313 60.878 52.665
H 57.38 62.238 64.52
H 46.846 57.686 60.69
H 46.996 58.725 61.787
H 44.903 57.508 62.127
H 45.323 56.16 61.568
H 52.881 63.885 66.875
H 54.28 64.407 66.601
H 50.258 58.952 54.765
H 49.447 59.678 55.824
H 43.69 54.437 61.394
H 43.011 53.921 60.138
H 45.593 61.822 52.078
H 46.695 62.278 51.138
H 52.619 57.117 67.772
H 52.026 58.411 67.243
H 52.874 66.896 57.268
H 53.805 68.079 57.07
H 56.568 60.642 59.977
H 55.109 61.054 59.9
H 51.067 53.562 64.018
H 51.225 53.806 65.508
H 40.058 55.421 56.914
H 40.095 56.43 55.779
H 50.703 51.567 64.871
H 41.209 54.723 54.803
H 58.877 63.508 57.146
H 58.307 62.937 55.86
H 49.283 51.987 64.536
H 55.573 62.913 56.614
H 54.46 62.172 55.894
H 47.204 64.28 60.002
H 48.163 63.334 60.704
H 46.527 57.494 52.517
H 46.06 56.523 53.587
H 46.396 65.895 61.258
H 46.623 66.59 59.927
H 52.079 60.238 53.273
H 50.588 60.476 53.105
H 46.816 66.334 55.452
H 48.31 66.182 55.679
H 50.432 63.388 52.587
H 50.477 62.289 51.54
H 47.304 54.178 62.981
H 47.239 55.623 62.516
H 57.545 57.758 67.735
H 54.836 65.455 55.646
H 48.487 60.222 61.173
H 54.893 65.919 57.091
H 47.885 61.196 60.175
H 44.669 65.966 54.97
H 44.798 66.768 56.253
H 55.369 63.333 58.861
H 56.082 64.646 58.592
H 47.955 57.038 65.981
H 46.642 56.275 65.992
H 52.033 60.087 55.468
H 52.764 60.913 56.512
H 41.707 54.201 58.393
H 42.289 54.643 57.062
H 42.181 57.907 53.293
H 42.713 56.493 53.448
H 60.983 63.291 59.402
H 62.324 62.76 58.927
H 45.068 60.35 59.826
H 45.119 59.714 61.205
H 54.803 65.234 64.269
H 38.937 58.316 56.863
H 39.014 57.43 58.093
H 44.534 58.638 56.496
H 46.038 58.488 56.352
H 38.888 61.13 56.094
H 39.854 60.451 55.14
H 45.208 61.177 54.183
H 44.26 61.605 55.29
H 53.197 52.59 63.37
H 45.257 53.927 59.921
H 45.879 52.908 60.86
H 38.196 61.064 58.75
H 53.735 53.905 63.909
H 43.779 65.785 60.71
H 43.833 64.304 60.378
H 39.591 62.676 60.132
H 50.836 58.953 57.369
H 51.519 60.08 58.123
H 47.35 63.445 54.914
H 45.859 63.315 55.171
H 48.838 61.286 58.194
H 49.155 59.86 58.61
H 53.454 63.496 64.238
H 52.442 63.882 63.174
H 59.295 59.347 64.135
H 50.577 61.345 59.767
H 50.717 59.885 60.162
H 45.632 52.801 63.368
H 44.301 52.553 62.681
H 49.091 54.498 59.69
H 48.068 53.818 60.583
H 58.032 60.418 62.498
H 58.88 54.477 61.395
H 57.362 54.424 61.404
H 57.47 61.822 62.359
H 47.852 51.612 62.796
H 47.324 51.338 61.399
H 49.159 54.654 64.091
H 49.361 55.443 65.373
H 55.929 58.108 59.467
H 56.484 57.329 58.287
H 41.295 62.258 61.594
H 42.739 62.665 61.361
H 43.897 62.704 64.353
H 44.218 63.824 63.379
H 61.074 59.732 56.449
H 60.219 58.865 57.356
H 48.189 64.985 62.158
H 53.106 61.386 51.161
H 53.736 61.742 52.497
H 47.002 53.359 66.717
H 47.867 54.578 66.986
H 40.083 55.86 59.234
H 41.464 56.423 59.521
H 55.971 59.639 62.028
H 56.11 58.767 63.263
