407
xyz format
Cl 47.816 30.708 60.247
O 44.405 25.896 53.398
O 46.962 28.622 48.728
O 38.146 26.099 47.255
O 46.513 21.896 52.613
O 50.445 29.022 39.465
O 51.588 31.083 47.566
O 41.21 27.671 39.253
O 44.313 31.574 52.484
O 41.417 32.357 57.638
O 50.95 28.337 43.547
O 42.322 26.668 57.849
O 44.262 25.013 38.412
O 43.992 24.817 43.626
O 43.409 31.841 44.157
O 44.202 27.859 45.228
O 48.262 32.311 52.325
O 41.933 22.698 53.335
O 47.946 32.282 56.353
O 50.558 26.197 60.281
O 45.137 32.146 55.159
O 35.157 26.844 52.851
O 52.727 30.364 56.437
O 47.845 28.102 61.283
O 50.454 25.739 52.124
O 51.161 26.738 42.04
O 53.805 22.386 44.661
O 55.185 25.407 42.795
O 54.066 29.649 51.982
O 58.47 23.376 50.216
O 46.422 21.704 45.745
O 50.584 26.564 44.804
O 50.329 31.882 38.276
O 51.709 23.13 55.892
O 52.099 25.274 58.968
O 49.805 28.0 47.394
O 53.936 29.521 54.794
O 39.813 27.995 42.506
O 34.547 28.544 47.565
O 50.526 21.845 51.272
O 49.429 23.459 53.394
O 41.243 25.537 53.974
O 45.694 27.633 55.38
O 39.501 27.725 48.116
O 55.002 31.796 55.372
O 53.795 28.205 57.145
O 50.034 26.616 50.135
O 36.524 26.872 49.286
O 51.808 28.999 46.82
O 51.061 31.956 54.321
O 38.22 29.507 49.033
O 48.445 33.465 39.636
O 49.581 27.309 55.104
O 44.88 26.431 50.601
O 41.199 31.681 43.378
O 44.863 22.647 50.426
O 38.103 30.039 55.727
O 53.977 28.683 59.902
O 44.026 34.047 50.12
O 50.619 24.336 39.673
O 41.565 31.817 54.306
O 51.48 32.473 41.063
O 55.794 25.778 50.403
O 43.206 30.56 46.823
O 39.361 30.466 53.336
O 50.48 34.18 45.073
O 41.94 30.858 40.636
O 58.427 26.082 47.382
O 52.194 29.312 37.925
O 54.134 23.479 57.417
O 44.636 25.056 56.7
O 52.681 27.03 38.275
O 49.573 23.219 44.03
O 41.856 27.655 60.228
O 44.366 32.637 42.188
O 49.47 22.739 57.725
O 51.711 31.118 44.052
O 47.945 32.418 44.203
O 48.257 27.486 58.081
O 51.875 28.909 52.896
O 51.853 26.252 55.552
O 37.159 30.547 46.724
O 41.733 31.719 49.0
O 38.546 26.21 42.283
O 52.252 26.546 47.882
O 50.431 32.206 56.932
O 41.244 23.022 47.716
O 38.576 28.029 51.764
O 47.631 28.186 41.32
O 37.425 24.538 49.781
O 46.049 33.798 50.949
O 55.036 26.209 47.893
O 46.899 27.467 43.896
O 40.933 30.223 57.005
O 51.592 21.91 48.687
O 39.505 27.216 58.129
O 48.973 30.032 54.848
O 43.763 27.608 39.38
O 49.115 29.342 52.206
O 42.168 23.661 50.343
O 49.399 30.812 46.976
O 49.364 22.466 47.364
O 59.054 26.879 52.516
O 46.553 31.436 39.232
O 43.006 29.024 43.006
O 46.485 33.445 45.564
O 37.609 25.714 51.631
O 49.204 29.958 42.136
O 55.014 28.877 45.193
O 44.021 30.799 56.917
O 53.489 32.314 44.844
O 45.493 29.707 41.248
O 45.389 24.214 46.521
O 45.397 24.125 58.744
O 55.6 28.51 49.681
O 52.97 23.888 49.165
O 45.559 27.575 42.147
O 50.973 27.435 57.634
O 45.719 26.103 47.764
O 49.64 29.997 58.461
O 47.465 26.388 51.066
O 41.886 32.097 51.535
O 47.533 29.619 44.772
O 48.361 21.726 49.178
O 56.573 27.325 45.185
O 55.195 26.889 52.277
O 36.563 28.234 45.843
O 52.751 26.909 50.263
O 55.573 31.175 47.996
O 55.208 24.706 45.187
O 46.534 29.376 53.219
O 34.172 30.657 49.549
O 46.211 24.74 52.907
O 47.545 24.985 61.083
O 48.268 24.82 57.904
O 40.981 29.046 45.828
O 43.622 35.211 53.103
O 45.502 35.93 50.495
O 57.955 28.652 46.267
O 49.269 31.904 40.95
O 47.02 23.857 43.015
O 42.198 26.308 42.487
O 42.5 24.114 45.083
O 50.354 29.0 50.421
O 42.278 26.575 47.445
O 49.208 24.979 48.276
O 42.909 28.724 55.5
O 48.103 25.227 44.433
O 44.814 22.78 53.756
O 46.704 23.572 48.165
H 52.229 26.425 54.68
H 52.438 26.731 56.153
H 45.946 24.879 58.498
H 44.512 24.502 58.827
H 49.946 24.844 47.668
H 48.46 25.156 47.693
H 45.088 24.902 45.916
H 44.671 24.144 47.164
H 44.962 30.145 40.572
H 45.849 30.437 41.769
H 44.03 30.982 57.865
H 53.085 32.371 45.719
H 43.11 30.532 56.744
H 50.785 28.831 49.574
H 50.552 29.928 50.597
H 51.435 32.043 44.034
H 52.404 31.073 43.382
H 49.836 30.31 46.277
H 49.249 31.678 46.577
H 42.93 26.565 41.912
H 41.424 26.369 41.914
H 48.783 32.128 43.821
H 48.55 29.733 51.527
H 49.02 28.392 52.065
H 47.797 31.798 44.928
H 41.653 24.371 50.746
H 42.829 24.128 49.817
H 49.625 29.38 41.488
H 49.937 30.48 42.488
H 54.472 29.544 45.633
H 54.378 28.197 44.938
H 51.9 29.349 53.754
H 51.964 27.973 53.115
H 49.718 29.823 54.27
H 48.284 30.321 54.237
H 40.628 23.668 48.083
H 41.62 22.595 48.497
H 43.625 28.352 39.98
H 40.409 29.397 46.522
H 41.415 28.293 46.248
H 43.927 26.863 39.972
H 47.342 27.605 58.366
H 39.199 27.719 57.364
H 39.415 26.297 57.849
H 48.611 26.842 58.708
H 38.995 28.324 52.582
H 37.747 28.522 51.74
H 47.681 27.239 41.141
H 47.224 28.549 40.523
H 47.385 24.298 60.423
H 48.208 25.551 60.669
H 54.667 31.45 48.187
H 50.508 31.265 56.732
H 35.909 28.941 45.776
H 36.057 27.435 45.652
H 55.28 27.767 51.883
H 55.034 27.071 53.211
H 56.505 26.442 44.802
H 56.844 27.877 44.441
H 37.709 24.184 48.929
H 36.461 24.514 49.73
H 45.995 33.882 51.909
H 46.62 33.032 50.817
H 48.708 23.078 47.008
H 49.919 22.256 46.603
H 39.203 32.588 52.236
H 41.836 30.616 41.564
H 41.885 31.822 40.643
H 58.032 26.465 46.589
H 51.429 26.447 47.387
H 52.933 26.28 47.251
H 47.868 21.221 49.837
H 48.961 22.267 49.706
H 50.592 27.822 58.433
H 50.419 26.663 57.467
H 41.579 31.266 51.153
H 41.539 32.768 50.933
H 40.089 30.554 52.708
H 38.573 30.483 52.779
H 43.372 29.737 47.298
H 42.243 30.599 46.762
H 38.654 25.824 41.405
H 38.707 25.469 42.881
H 38.105 30.629 46.896
H 36.783 30.366 47.594
H 48.044 29.348 43.999
H 48.046 29.282 45.516
H 48.721 29.702 58.431
H 49.782 30.212 59.391
H 42.124 32.229 48.28
H 41.082 31.16 48.557
H 50.397 23.651 44.288
H 52.413 26.766 39.164
H 49.044 23.235 44.837
H 42.375 28.644 42.383
H 43.567 29.583 42.454
H 41.204 28.15 59.717
H 41.472 27.616 61.113
H 37.946 25.026 52.217
H 37.219 26.359 52.234
H 50.28 22.231 57.854
H 49.485 22.959 56.785
H 45.265 24.938 55.978
H 43.776 24.94 56.277
H 52.682 24.639 49.699
H 53.595 24.276 48.54
H 57.038 23.9 52.786
H 53.8 24.17 56.831
H 56.346 26.086 49.673
H 55.001 25.444 49.966
H 52.039 32.992 41.655
H 51.703 31.559 41.281
H 47.635 33.725 39.18
H 44.675 26.15 49.7
H 45.33 27.276 50.48
H 48.958 26.974 54.447
H 50.311 27.654 54.574
H 50.845 25.259 39.505
H 50.049 24.377 40.451
H 38.588 29.448 55.137
H 44.388 22.332 51.206
H 45.598 23.154 50.794
H 47.61 32.601 52.975
H 48.538 33.131 51.896
H 40.855 31.383 44.23
H 41.444 32.601 43.54
H 37.896 29.777 49.901
H 37.677 28.74 48.813
H 43.853 33.221 49.653
H 43.437 34.007 50.884
H 55.721 28.518 48.723
H 56.493 28.385 50.024
H 46.602 26.488 47.83
H 48.352 25.421 45.345
H 48.901 25.431 43.929
H 51.532 31.255 54.789
H 51.633 32.726 54.426
H 46.298 26.898 55.214
H 46.236 28.416 55.22
H 44.881 23.582 54.288
H 45.159 22.09 54.336
H 36.039 27.362 49.962
H 37.394 26.737 49.681
H 52.035 28.241 46.267
H 52.585 29.114 47.381
H 54.505 28.742 56.771
H 54.212 27.348 57.296
H 47.376 26.935 51.857
H 48.144 25.746 51.306
H 49.281 26.998 49.666
H 50.587 26.26 49.429
H 42.133 31.417 54.976
H 40.855 32.223 54.819
H 45.171 26.838 47.462
H 41.265 26.484 53.785
H 41.787 25.449 54.766
H 40.126 27.17 47.635
H 39.978 27.966 48.92
H 42.186 28.313 55.991
H 42.525 28.901 54.632
H 49.843 21.174 51.4
H 51.226 21.373 50.803
H 48.932 24.282 53.303
H 49.129 22.927 52.646
H 34.881 30.396 48.949
H 46.848 24.07 52.628
H 46.758 25.417 53.325
H 55.935 24.57 45.808
H 54.446 24.865 45.757
H 52.085 26.787 50.951
H 53.584 26.932 50.751
H 46.664 30.171 52.689
H 45.901 28.858 52.706
H 48.384 33.01 56.811
H 48.027 32.516 55.42
H 49.973 26.864 60.66
H 50.792 25.642 61.036
H 45.589 32.64 54.463
H 44.217 32.129 54.868
H 53.938 28.707 54.276
H 53.997 30.217 54.128
H 52.303 25.259 58.024
H 52.515 26.087 59.28
H 49.317 28.62 47.95
H 49.275 27.194 47.43
H 55.583 26.116 42.276
H 54.574 25.868 43.383
H 53.286 21.74 45.156
H 54.522 22.615 45.265
H 52.421 22.531 56.148
H 35.204 27.897 47.852
H 42.074 26.448 48.38
H 40.048 28.067 41.572
H 40.003 28.873 42.858
H 42.27 25.679 47.085
H 40.309 30.369 56.284
H 40.656 29.378 57.381
H 53.424 30.676 57.028
H 52.2 29.777 56.994
H 47.972 28.522 60.423
H 47.772 28.846 61.893
H 50.907 21.291 48.403
H 51.447 22.684 48.129
H 47.744 24.134 57.47
H 46.66 22.61 48.098
H 46.879 23.728 49.101
H 48.713 25.265 57.172
H 55.412 25.324 47.808
H 55.101 26.572 47.001
H 46.155 27.987 44.224
H 47.448 27.333 44.679
H 51.929 26.603 42.61
H 50.451 26.269 42.496
H 50.762 24.828 52.212
H 50.4 26.051 53.036
H 51.059 29.7 39.774
H 50.827 28.2 39.796
H 44.304 31.563 44.388
H 42.913 31.718 44.976
H 46.897 23.468 43.89
H 51.169 30.556 48.257
H 52.053 31.773 48.054
H 46.537 23.261 42.429
H 41.426 28.37 39.883
H 41.047 26.901 39.812
H 44.5 26.951 45.37
H 43.576 28.009 45.947
H 45.427 26.801 41.586
H 44.704 27.692 42.582
H 42.021 22.86 52.387
H 42.181 23.541 53.735
H 46.788 22.583 45.902
H 45.627 21.876 45.225
H 51.367 28.795 42.807
H 50.529 29.046 44.049
H 41.919 24.392 44.364
H 41.89 23.833 45.776
H 50.576 25.762 45.341
H 50.147 27.219 45.363
H 53.311 29.605 51.382
H 54.808 29.861 51.402
H 37.181 26.119 47.277
H 38.347 25.488 46.535
H 49.407 31.213 40.29
H 48.355 31.774 41.229
H 47.284 28.164 49.514
H 46.002 28.599 48.826
H 43.824 26.508 52.929
H 46.975 21.743 51.779
H 47.226 21.996 53.255
H 44.022 25.85 54.283
H 42.083 26.09 57.114
H 43.242 26.439 58.031
H 44.29 32.511 52.252
H 43.462 31.424 52.914
H 44.221 24.388 42.793
H 44.233 25.741 43.482
