80
xyz format
O 33.994 67.104 54.839
O 30.136 64.261 49.929
O 26.849 60.057 54.334
O 30.685 62.111 51.835
O 24.853 62.174 53.682
O 28.664 61.178 56.943
O 30.054 65.574 59.418
O 29.895 70.243 51.165
O 28.74 68.696 48.934
O 30.135 65.473 56.644
O 29.409 64.522 61.444
O 29.75 66.513 51.072
O 34.127 65.404 56.244
O 27.82 67.286 56.005
O 28.553 66.023 53.282
O 27.203 64.702 56.516
O 32.056 63.298 53.082
O 30.114 62.254 55.04
O 31.733 59.795 54.694
O 27.727 63.301 54.51
O 26.189 66.308 50.019
O 26.172 65.533 53.707
O 30.045 68.417 54.438
O 31.771 65.823 54.513
O 25.482 63.546 50.171
O 27.915 63.368 51.704
O 27.673 64.819 49.37
O 27.628 63.755 58.981
H 32.406 63.661 52.259
H 32.675 63.613 53.753
H 26.745 65.363 55.981
H 27.444 65.183 57.318
H 30.194 67.042 51.746
H 28.836 66.822 51.104
H 28.382 66.109 54.229
H 29.175 65.286 53.228
H 33.478 65.672 56.907
H 31.938 65.247 50.717
H 31.108 67.518 59.851
H 29.66 68.563 49.193
H 27.438 62.786 55.274
H 28.415 63.876 54.867
H 30.772 59.786 54.785
H 29.825 63.652 61.476
H 29.499 64.75 56.577
H 29.791 66.138 56.034
H 29.239 65.564 58.902
H 30.747 65.647 58.75
H 29.174 69.648 51.405
H 30.047 70.755 51.969
H 32.153 62.682 56.405
H 26.583 60.985 54.341
H 27.286 59.936 55.186
H 26.377 65.455 52.767
H 26.008 64.623 53.983
H 30.001 62.64 55.917
H 30.398 63.0 54.496
H 28.287 62.039 57.164
H 29.286 61.008 57.661
H 27.455 64.121 59.857
H 29.492 68.809 53.751
H 30.643 67.838 53.949
H 31.529 65.022 54.994
H 31.281 65.75 53.685
H 28.188 68.061 55.564
H 28.119 67.378 56.918
H 33.65 67.836 54.312
H 31.043 61.398 52.38
H 25.783 65.677 50.626
H 26.638 66.933 50.602
H 29.978 62.481 52.379
H 33.612 65.555 53.324
H 24.723 63.006 53.209
H 26.257 60.824 57.061
H 28.057 65.647 49.056
H 27.048 63.16 52.074
H 25.114 63.424 51.055
H 26.039 62.768 50.046
H 27.929 64.333 51.685
H 29.024 62.014 50.372
