304
xyz format
O 64.275 48.624 42.465
O 63.784 46.708 48.397
O 64.909 40.94 43.163
O 58.357 42.165 32.213
O 65.304 43.889 46.505
O 62.194 42.612 47.902
O 62.081 40.221 36.613
O 62.173 44.389 42.685
O 63.103 48.738 45.302
O 67.561 37.754 41.403
O 61.097 47.285 39.771
O 66.393 42.618 45.076
O 61.473 44.715 48.2
O 66.266 39.062 38.048
O 63.502 41.26 46.724
O 62.061 43.908 37.631
O 65.778 46.918 42.973
O 64.222 45.19 42.549
O 66.673 43.966 42.372
O 61.746 48.45 48.04
O 55.723 41.84 36.029
O 50.363 40.468 38.283
O 59.735 44.46 49.947
O 57.527 39.392 44.856
O 50.25 37.275 38.303
O 49.028 39.22 42.219
O 62.508 37.306 37.731
O 62.906 39.422 43.925
O 55.651 41.602 42.9
O 56.584 37.734 36.1
O 56.201 37.356 33.457
O 57.742 36.64 38.365
O 62.426 43.614 45.743
O 56.87 35.399 44.55
O 51.599 39.451 40.276
O 52.181 38.422 42.594
O 59.052 40.635 45.899
O 61.117 37.571 41.945
O 62.966 35.992 41.161
O 59.399 49.094 44.669
O 60.062 44.345 41.674
O 56.982 41.707 39.823
O 54.967 41.777 33.958
O 60.473 36.334 47.206
O 59.668 41.292 39.142
O 57.482 43.742 42.228
O 56.906 48.665 42.027
O 55.129 36.91 43.964
O 59.223 46.933 46.829
O 58.972 44.967 38.96
O 60.145 38.919 37.668
O 56.685 35.957 49.083
O 60.416 33.93 38.209
O 64.221 38.518 40.79
O 53.501 41.307 42.52
O 65.088 45.87 34.132
O 54.735 36.665 40.538
O 61.369 48.486 42.344
O 63.748 37.969 35.67
O 60.14 41.978 34.969
O 58.074 36.784 40.546
O 57.365 45.403 34.892
O 47.999 38.989 38.43
O 65.53 42.804 37.469
O 60.701 48.478 37.688
O 59.805 41.423 48.572
O 58.55 44.819 46.721
O 56.446 50.871 40.283
O 52.624 41.258 36.235
O 58.887 37.503 46.227
O 58.668 39.011 49.076
O 67.926 40.622 43.046
O 49.786 37.1 44.85
O 56.784 47.336 45.397
O 60.816 46.482 35.409
O 61.358 35.36 43.722
O 53.759 44.779 36.904
O 64.679 37.913 45.103
O 60.695 40.219 43.778
O 56.146 47.272 36.315
O 59.949 43.914 44.681
O 55.609 38.781 38.286
O 56.121 33.819 37.964
O 63.68 50.758 43.388
O 53.516 38.54 45.515
O 61.644 42.892 39.623
O 53.658 34.319 37.575
O 59.438 46.785 42.027
O 64.148 40.605 39.335
O 61.191 37.962 45.881
O 57.043 40.261 49.869
O 55.686 39.05 42.203
O 65.066 40.585 34.809
O 57.6 42.914 50.605
O 59.719 49.752 39.534
O 65.652 39.855 45.902
O 64.33 43.585 40.127
O 58.394 41.651 42.138
O 62.357 41.464 42.486
O 50.61 37.205 41.65
O 57.805 42.605 36.97
O 63.232 47.84 39.281
O 59.68 39.323 41.176
O 58.618 46.359 37.294
O 57.525 42.61 46.168
O 56.94 40.673 47.041
O 59.295 50.375 42.726
O 60.832 46.359 45.268
O 64.879 34.391 36.554
O 63.671 43.581 35.382
H 61.772 46.577 45.259
H 60.514 46.676 44.414
H 53.912 37.964 46.181
H 53.486 39.403 45.946
H 55.533 39.743 38.265
H 54.9 38.482 37.703
H 59.73 44.599 44.038
H 56.933 43.047 46.793
H 58.375 42.6 46.627
H 56.92 47.648 36.752
H 55.849 46.585 36.924
H 59.645 43.1 44.261
H 58.678 45.644 36.648
H 59.218 47.031 36.947
H 61.248 40.821 44.291
H 60.665 39.419 44.317
H 62.149 35.668 44.182
H 60.724 35.207 44.433
H 54.39 44.496 37.578
H 54.286 44.81 36.096
H 59.033 39.88 40.726
H 60.243 39.954 41.641
H 56.462 34.452 37.321
H 55.764 34.377 38.667
H 61.452 41.697 42.244
H 62.793 41.322 41.637
H 64.494 44.506 39.89
H 61.811 47.628 42.321
H 61.969 49.066 41.859
H 64.317 43.129 39.276
H 58.441 38.08 48.96
H 58.867 39.311 48.18
H 57.513 46.716 45.269
H 67.212 40.133 43.472
H 67.73 40.542 42.104
H 59.99 46.227 34.981
H 61.455 45.839 35.076
H 50.347 37.882 44.781
H 66.195 43.02 38.135
H 65.203 43.666 37.183
H 57.811 46.017 34.294
H 56.917 44.788 34.298
H 63.835 38.802 35.191
H 63.282 37.395 35.049
H 56.865 49.026 42.921
H 57.456 47.877 42.123
H 58.173 45.031 39.498
H 59.501 45.723 39.244
H 54.874 36.839 43.035
H 55.095 37.858 44.139
H 59.269 47.868 46.593
H 53.57 34.239 38.533
H 58.506 37.463 41.08
H 57.851 36.097 41.186
H 59.608 38.269 37.197
H 59.559 39.236 38.367
H 60.83 42.447 35.455
H 59.477 41.782 35.643
H 59.423 46.925 47.773
H 64.219 38.462 39.826
H 63.285 38.577 41.019
H 63.966 37.594 44.535
H 65.423 38.021 44.498
H 55.114 37.355 39.979
H 54.859 35.859 40.022
H 53.36 40.358 42.407
H 53.029 41.699 41.775
H 64.578 45.354 33.495
H 59.507 34.237 38.314
H 60.929 34.746 38.161
H 57.412 36.192 48.493
H 54.96 38.828 41.606
H 56.412 39.272 41.607
H 59.517 42.169 39.515
H 60.501 41.013 39.542
H 59.744 50.716 39.572
H 59.2 49.505 40.31
H 60.562 37.0 42.491
H 61.67 38.034 42.586
H 56.605 43.972 42.56
H 58.042 44.465 42.54
H 60.613 45.028 41.273
H 60.141 43.6 41.066
H 61.892 37.759 45.249
H 64.431 40.987 35.414
H 61.572 38.657 46.431
H 60.032 35.849 47.915
H 56.568 39.522 49.47
H 57.341 39.91 50.718
H 61.322 36.583 47.591
H 54.16 41.795 33.428
H 55.673 41.745 33.3
H 65.453 41.34 34.348
H 60.208 48.851 44.202
H 58.804 48.354 44.498
H 62.79 36.147 42.097
H 63.85 36.359 41.03
H 62.27 42.329 39.149
H 62.153 43.688 39.818
H 53.085 38.213 42.859
H 51.866 39.008 43.293
H 59.987 40.51 46.103
H 59.06 41.024 45.015
H 57.267 36.254 44.34
H 56.33 35.582 45.329
H 50.739 39.196 40.631
H 52.002 38.611 40.025
H 57.059 42.505 40.36
H 55.524 37.566 32.801
H 56.797 38.114 33.423
H 56.892 36.373 38.737
H 61.781 42.897 45.714
H 61.894 44.407 45.599
H 58.057 35.845 37.918
H 57.414 37.873 36.573
H 56.244 36.91 36.47
H 63.609 39.764 44.492
H 63.292 39.45 43.04
H 63.283 36.792 37.47
H 62.884 38.108 38.113
H 55.86 40.846 43.462
H 55.516 42.324 43.527
H 49.97 37.626 39.157
H 48.345 39.718 42.686
H 57.15 40.991 40.448
H 59.813 43.731 49.319
H 59.614 45.235 49.385
H 63.261 40.438 39.677
H 64.584 41.086 40.05
H 56.956 38.636 45.046
H 57.521 39.447 43.893
H 63.242 42.805 35.763
H 49.862 40.75 37.508
H 63.141 43.774 34.599
H 50.812 39.666 37.987
H 54.954 42.365 36.287
H 55.563 40.982 36.44
H 61.651 46.72 40.324
H 60.583 47.797 40.408
H 63.962 45.689 41.765
H 64.512 44.34 42.195
H 66.558 39.828 46.234
H 61.371 48.078 47.232
H 57.029 39.712 47.046
H 57.456 40.955 47.807
H 66.602 44.13 43.32
H 66.314 43.076 42.265
H 66.066 46.248 43.605
H 66.372 47.661 43.139
H 62.389 44.481 36.926
H 61.213 43.592 37.294
H 53.379 40.863 36.687
H 51.942 41.295 36.917
H 50.166 37.357 42.493
H 57.998 37.461 46.6
H 59.065 38.45 46.164
H 49.98 36.668 41.153
H 61.282 48.21 36.965
H 60.556 49.419 37.527
H 60.517 40.788 48.719
H 60.105 41.931 47.808
H 59.497 44.631 46.733
H 58.293 44.766 47.65
H 57.92 41.433 42.951
H 59.27 41.912 42.447
H 66.443 42.006 44.331
H 61.528 45.592 47.8
H 61.845 44.842 49.082
H 66.397 40.013 38.147
H 66.221 38.741 38.958
H 66.377 42.039 45.848
H 62.966 39.946 36.885
H 62.046 39.986 35.677
H 63.749 47.196 39.78
H 62.991 48.502 39.941
H 62.429 41.917 48.529
H 62.988 43.16 47.859
H 65.315 40.484 42.415
H 64.614 41.779 42.788
H 58.493 42.296 37.572
H 57.11 42.923 37.56
H 58.697 41.578 32.9
H 58.898 46.42 41.316
H 62.142 48.826 45.255
H 59.0 46.478 42.83
H 62.477 43.573 43.101
H 61.974 44.967 43.432
H 62.793 40.988 46.128
H 64.219 41.511 46.128
H 60.22 50.359 42.451
H 58.973 49.494 42.499
H 63.637 48.505 43.18
H 64.095 47.884 41.872
H 64.681 44.108 45.8
