417
xyz format
O 67.443 45.63 45.603
O 69.831 48.448 45.987
O 61.925 48.975 33.936
O 64.275 48.624 42.465
O 63.784 46.708 48.397
O 64.909 40.94 43.163
O 67.345 48.817 50.344
O 59.583 55.722 38.457
O 66.077 51.943 48.352
O 65.304 43.889 46.505
O 62.752 58.048 44.383
O 62.194 42.612 47.902
O 62.173 44.389 42.685
O 56.718 50.371 36.194
O 60.603 53.293 37.665
O 63.103 48.738 45.302
O 67.561 37.754 41.403
O 71.921 50.145 46.021
O 61.539 55.57 41.633
O 68.132 44.456 39.404
O 63.678 51.852 40.364
O 61.097 47.285 39.771
O 67.809 53.637 41.01
O 70.952 45.473 40.043
O 65.141 55.078 45.493
O 66.393 42.618 45.076
O 65.816 54.329 48.2
O 68.807 50.74 45.586
O 61.473 44.715 48.2
O 65.525 52.671 44.585
O 72.217 46.232 42.651
O 68.83 44.092 41.94
O 68.506 46.737 47.887
O 63.502 41.26 46.724
O 62.061 43.908 37.631
O 65.778 46.918 42.973
O 64.222 45.19 42.549
O 66.673 43.966 42.372
O 61.746 48.45 48.04
O 62.799 56.683 39.336
O 57.768 51.798 33.928
O 62.787 52.349 46.174
O 68.857 42.968 45.345
O 70.173 46.186 45.534
O 62.906 39.422 43.925
O 62.426 43.614 45.743
O 71.488 52.678 41.931
O 60.727 45.296 32.895
O 70.108 53.36 39.458
O 57.069 50.944 47.434
O 67.53 55.478 44.629
O 69.466 49.221 48.582
O 63.267 47.106 33.72
O 59.399 49.094 44.669
O 60.062 44.345 41.674
O 59.668 41.292 39.142
O 57.482 43.742 42.228
O 68.37 46.646 41.621
O 56.906 48.665 42.027
O 59.223 46.933 46.829
O 70.148 55.109 49.272
O 58.972 44.967 38.96
O 63.951 57.903 46.767
O 73.252 44.143 46.298
O 68.556 48.274 43.101
O 59.065 53.587 33.812
O 67.002 54.671 50.022
O 64.221 38.518 40.79
O 59.951 56.297 35.449
O 63.897 50.046 47.79
O 57.548 52.303 44.476
O 64.779 53.145 50.193
O 67.928 44.615 47.791
O 61.369 48.486 42.344
O 59.425 57.438 41.472
O 69.945 53.596 43.675
O 61.668 51.737 35.816
O 62.31 52.908 43.54
O 59.547 53.745 45.963
O 57.365 45.403 34.892
O 59.739 56.869 45.804
O 57.302 55.255 38.117
O 61.818 53.825 48.639
O 64.586 43.393 49.489
O 68.911 55.426 42.911
O 58.436 47.377 32.045
O 71.249 43.865 43.486
O 65.53 42.804 37.469
O 71.555 48.52 44.573
O 74.359 48.141 43.669
O 60.701 48.478 37.688
O 65.993 48.457 40.905
O 58.55 44.819 46.721
O 63.529 50.618 50.228
O 56.446 50.871 40.283
O 57.216 55.613 46.616
O 67.926 40.622 43.046
O 56.784 47.336 45.397
O 57.225 52.662 37.699
O 60.816 46.482 35.409
O 57.528 54.975 41.331
O 70.437 48.094 41.294
O 60.364 48.822 31.943
O 71.048 48.164 38.908
O 70.116 53.973 46.542
O 61.18 45.78 50.956
O 66.21 44.838 51.374
O 59.194 50.643 35.513
O 67.743 50.348 36.169
O 68.599 50.251 38.54
O 56.146 47.272 36.315
O 59.949 43.914 44.681
O 70.683 50.986 36.535
O 70.421 51.212 48.57
O 63.68 50.758 43.388
O 61.48 51.258 49.088
O 66.182 51.454 42.628
O 61.644 42.892 39.623
O 64.109 55.729 48.859
O 59.438 46.785 42.027
O 58.58 48.821 49.111
O 60.41 58.431 47.998
O 58.316 54.111 48.936
O 61.716 55.792 45.973
O 64.148 40.605 39.335
O 56.998 55.032 44.209
O 66.353 46.773 48.338
O 59.429 55.082 42.667
O 71.952 52.018 39.092
O 64.485 51.869 33.805
O 66.894 57.467 45.327
O 65.226 47.043 46.374
O 59.719 49.752 39.534
O 67.213 49.441 44.803
O 64.33 43.585 40.127
O 59.652 52.897 39.842
O 60.461 57.639 43.872
O 58.394 41.651 42.138
O 62.582 54.613 34.904
O 67.769 53.237 47.772
O 62.357 41.464 42.486
O 64.177 47.751 50.972
O 71.976 49.716 41.266
O 61.838 51.324 39.278
O 57.805 42.605 36.97
O 63.232 47.84 39.281
O 59.887 50.759 47.083
O 58.618 46.359 37.294
O 60.246 52.807 42.008
O 59.295 50.375 42.726
O 60.832 46.359 45.268
O 66.557 54.01 37.138
O 63.671 43.581 35.382
H 63.975 50.553 44.284
H 64.068 51.625 43.212
H 61.772 46.577 45.259
H 60.514 46.676 44.414
H 59.73 44.599 44.038
H 67.939 50.061 39.219
H 69.428 50.296 39.032
H 56.92 47.648 36.752
H 55.849 46.585 36.924
H 59.645 43.1 44.261
H 58.678 45.644 36.648
H 59.218 47.031 36.947
H 67.394 50.84 35.415
H 68.439 49.801 35.783
H 60.497 48.025 32.471
H 60.185 49.506 32.601
H 69.734 48.755 41.256
H 70.561 47.945 42.24
H 60.765 50.376 47.203
H 59.906 51.096 46.178
H 71.036 53.802 46.303
H 70.036 54.932 46.47
H 69.922 51.233 37.075
H 71.198 49.022 39.324
H 70.341 48.338 38.273
H 71.542 50.578 41.266
H 72.096 49.52 42.203
H 69.825 51.744 48.029
H 69.766 52.788 44.173
H 57.233 54.572 38.796
H 62.5 53.147 48.548
H 60.993 53.336 48.529
H 61.452 41.697 42.244
H 62.793 41.322 41.637
H 70.089 54.26 44.36
H 64.5 42.452 49.293
H 64.494 44.506 39.89
H 61.811 47.628 42.321
H 61.969 49.066 41.859
H 64.941 43.766 48.672
H 64.317 43.129 39.276
H 57.569 52.964 36.849
H 57.492 51.735 37.739
H 62.065 55.11 35.55
H 62.317 53.697 35.054
H 57.151 48.004 45.988
H 67.212 40.133 43.472
H 67.73 40.542 42.104
H 59.99 46.227 34.981
H 61.455 45.839 35.076
H 68.25 55.805 42.318
H 69.426 56.19 43.198
H 61.25 51.289 35.07
H 66.195 43.02 38.135
H 61.375 51.229 36.583
H 65.203 43.666 37.183
H 56.808 55.354 40.812
H 58.306 55.107 40.775
H 72.032 48.049 43.877
H 57.811 46.017 34.294
H 56.917 44.788 34.298
H 58.999 56.547 45.275
H 59.686 56.347 46.614
H 58.753 58.083 41.217
H 60.022 57.418 40.714
H 70.945 49.088 44.088
H 71.656 44.25 44.271
H 67.075 48.516 45.041
H 66.596 49.919 45.37
H 62.717 40.61 50.855
H 56.865 49.026 42.921
H 68.948 48.078 43.961
H 68.549 49.239 43.066
H 57.456 47.877 42.123
H 58.173 45.031 39.498
H 59.501 45.723 39.244
H 59.269 47.868 46.593
H 59.944 53.127 45.335
H 58.711 53.988 45.547
H 63.225 57.679 47.362
H 59.303 55.934 43.102
H 60.184 54.698 43.131
H 65.636 47.891 46.584
H 65.12 47.07 45.415
H 59.423 46.925 47.773
H 64.725 53.574 51.056
H 65.176 52.287 50.388
H 58.859 51.368 36.055
H 58.991 49.856 36.034
H 66.873 53.794 50.404
H 66.197 55.147 50.262
H 61.158 46.652 50.543
H 66.986 44.584 50.859
H 65.523 44.965 50.708
H 59.941 55.413 35.061
H 62.806 53.46 44.157
H 58.844 53.532 34.75
H 59.828 53.002 33.722
H 67.88 43.892 47.153
H 67.267 44.382 48.453
H 58.232 51.655 44.266
H 56.945 52.252 43.725
H 63.651 50.978 47.854
H 64.837 50.073 47.571
H 62.068 52.136 44.067
H 59.517 42.169 39.515
H 59.744 50.716 39.572
H 59.2 49.505 40.31
H 66.941 57.538 46.289
H 67.686 55.121 45.512
H 67.005 54.794 44.195
H 66.613 58.346 45.046
H 56.605 43.972 42.56
H 58.042 44.465 42.54
H 60.613 45.028 41.273
H 60.141 43.6 41.066
H 67.849 46.221 42.313
H 69.244 46.246 41.713
H 63.616 51.584 33.496
H 66.29 50.784 43.315
H 66.857 51.225 41.977
H 63.753 47.876 33.399
H 63.142 47.289 34.659
H 60.208 48.851 44.202
H 58.804 48.354 44.498
H 61.499 50.319 49.313
H 61.597 51.7 49.938
H 69.732 48.338 48.869
H 68.506 49.158 48.507
H 62.27 42.329 39.149
H 62.153 43.688 39.818
H 60.879 44.698 32.153
H 61.448 45.934 32.826
H 70.226 53.454 38.504
H 70.874 53.813 39.83
H 70.546 52.757 41.733
H 64.615 56.175 48.167
H 63.699 54.986 48.4
H 57.307 51.463 48.213
H 61.781 42.897 45.714
H 61.894 44.407 45.599
H 63.609 39.764 44.492
H 63.292 39.45 43.04
H 71.06 46.53 45.37
H 69.984 45.656 44.751
H 68.507 42.758 44.47
H 68.568 42.226 45.891
H 61.866 52.299 46.461
H 63.056 53.242 46.421
H 65.913 46.087 48.857
H 66.261 47.565 48.881
H 64.584 41.086 40.05
H 62.126 55.729 46.845
H 62.006 54.987 45.525
H 57.204 55.861 43.757
H 57.525 54.376 43.735
H 63.141 43.774 34.599
H 57.057 52.109 33.354
H 58.388 51.38 33.318
H 61.651 46.72 40.324
H 60.583 47.797 40.408
H 68.548 53.672 41.63
H 67.944 54.413 40.45
H 63.119 52.069 41.12
H 64.24 51.139 40.691
H 61.031 57.578 43.095
H 63.962 45.689 41.765
H 64.512 44.34 42.195
H 70.602 44.833 40.674
H 62.01 54.729 41.698
H 60.854 55.398 40.975
H 71.444 46.094 40.595
H 67.972 45.094 40.11
H 68.236 43.618 39.872
H 62.497 55.796 39.566
H 63.282 56.971 40.12
H 61.371 48.078 47.232
H 61.621 47.75 48.693
H 66.602 44.13 43.32
H 66.314 43.076 42.265
H 68.535 46.485 48.818
H 69.389 46.52 47.563
H 66.066 46.248 43.605
H 66.372 47.661 43.139
H 62.389 44.481 36.926
H 56.737 56.448 46.539
H 64.667 47.081 50.478
H 63.263 47.444 50.93
H 63.812 50.677 51.149
H 63.794 49.728 49.963
H 65.426 48.856 40.233
H 66.176 49.185 41.511
H 61.282 48.21 36.965
H 60.556 49.419 37.527
H 59.497 44.631 46.733
H 73.985 48.837 43.115
H 59.27 41.912 42.447
H 66.443 42.006 44.331
H 65.448 53.984 47.377
H 69.201 51.56 45.909
H 69.015 50.741 44.643
H 61.528 45.592 47.8
H 61.845 44.842 49.082
H 64.823 52.659 45.248
H 66.269 52.248 45.031
H 59.713 53.832 39.609
H 58.821 52.836 40.33
H 65.298 55.949 45.878
H 64.193 55.076 45.309
H 66.377 42.039 45.848
H 66.452 54.994 47.907
H 68.082 53.198 46.86
H 68.379 53.852 48.198
H 63.749 47.196 39.78
H 62.991 48.502 39.941
H 62.988 43.16 47.859
H 70.42 48.277 46.732
H 68.949 48.327 46.359
H 65.315 40.484 42.415
H 64.614 41.779 42.788
H 67.306 48.652 51.294
H 60.536 55.62 38.575
H 59.426 55.398 37.562
H 66.6 49.41 50.183
H 62.288 57.799 45.192
H 63.679 57.865 44.584
H 72.309 49.888 46.867
H 71.002 50.341 46.24
H 58.898 46.42 41.316
H 63.274 48.61 46.244
H 62.142 48.826 45.255
H 59.0 46.478 42.83
H 62.477 43.573 43.101
H 61.974 44.967 43.432
H 59.695 53.099 37.401
H 60.972 53.748 36.898
H 58.83 53.645 48.265
H 59.516 48.606 49.204
H 56.473 51.032 35.534
H 56.839 49.565 35.677
H 58.583 49.756 48.871
H 64.219 41.511 46.128
H 60.955 52.271 41.631
H 60.194 52.508 42.924
H 66.084 51.876 47.389
H 66.789 51.354 48.629
H 68.807 44.28 42.886
H 69.396 43.313 41.874
H 71.313 45.977 42.874
H 72.692 45.392 42.626
H 60.22 50.359 42.451
H 58.973 49.494 42.499
H 63.637 48.505 43.18
H 64.095 47.884 41.872
H 67.938 46.44 45.779
H 67.8 45.321 44.761
H 62.361 50.531 39.103
H 62.071 51.917 38.553
H 63.766 45.75 48.52
H 63.349 46.838 47.545
H 61.654 49.027 34.861
H 62.271 49.856 33.748
H 65.69 44.741 46.743
H 64.681 44.108 45.8
