64
xyz format
O 51.025 49.636 71.163
O 47.517 49.802 77.261
O 46.774 49.983 71.37
O 55.016 54.74 74.581
O 52.723 54.884 75.119
O 52.045 49.715 73.938
O 49.968 48.301 76.975
O 46.858 53.389 72.654
O 45.254 50.635 75.202
O 48.644 51.879 74.636
O 53.821 50.34 72.797
O 50.783 51.519 76.896
O 46.948 48.523 73.007
O 45.674 46.127 73.378
O 48.947 49.484 73.465
O 46.904 52.403 76.822
O 48.719 45.149 76.367
O 50.516 53.01 74.369
O 53.678 52.437 73.681
O 49.111 46.466 74.649
O 52.977 50.092 77.192
O 45.983 47.686 70.461
H 46.521 49.057 73.689
H 47.452 47.871 73.509
H 50.09 51.203 76.303
H 51.475 51.827 76.296
H 54.539 50.737 72.289
H 53.283 49.899 72.128
H 47.931 52.021 74.001
H 48.544 52.609 75.26
H 53.592 52.949 74.495
H 53.645 53.106 72.985
H 47.273 53.004 71.872
H 47.334 54.219 72.781
H 50.118 53.175 73.505
H 51.406 52.703 74.157
H 54.238 52.482 70.96
H 51.768 50.587 73.63
H 51.545 49.106 73.381
H 49.136 47.996 76.592
H 50.641 47.842 76.457
H 51.785 54.661 75.086
H 46.547 52.954 76.114
H 51.68 54.719 72.863
H 48.918 45.503 77.243
H 45.295 47.009 73.475
H 46.322 46.075 74.092
H 55.803 54.328 74.202
H 54.49 54.982 73.809
H 51.593 50.26 70.694
H 50.145 50.026 71.087
H 50.464 52.513 71.135
H 45.274 47.919 71.072
H 46.749 47.562 71.035
H 47.891 49.825 78.15
H 48.266 50.015 76.691
H 45.83 50.05 71.177
H 46.103 50.895 74.824
H 44.683 50.527 74.431
H 49.758 45.813 74.356
H 49.573 47.308 74.544
H 53.208 50.869 77.715
H 49.415 48.874 72.882
H 49.613 50.149 73.683
