395
xyz format
Cl 59.885 43.869 52.84
O 54.812 36.659 40.242
O 63.452 44.871 47.636
O 62.665 42.939 43.193
O 52.124 36.468 51.879
O 51.02 40.568 49.607
O 52.359 32.97 47.895
O 57.227 36.292 42.562
O 56.678 37.691 53.472
O 66.491 42.037 56.435
O 53.646 39.294 52.048
O 58.501 43.491 49.858
O 51.567 38.33 48.921
O 59.203 37.335 52.53
O 60.196 42.183 54.91
O 50.339 32.123 53.586
O 56.85 37.658 40.372
O 48.999 34.238 55.587
O 54.15 34.25 54.814
O 62.167 37.286 54.674
O 61.011 39.849 54.197
O 51.562 35.45 47.372
O 56.307 40.289 53.62
O 55.03 31.922 55.086
O 60.536 46.067 53.953
O 61.759 34.542 55.886
O 51.341 37.096 55.043
O 57.009 39.027 49.886
O 55.686 44.258 51.242
O 51.459 35.751 44.229
O 49.1 38.706 50.378
O 55.793 39.771 56.812
O 56.57 34.698 57.42
O 61.148 37.104 48.26
O 51.901 30.807 47.419
O 56.914 38.717 46.721
O 58.028 34.637 40.891
O 54.847 39.568 40.327
O 52.942 32.563 51.85
O 63.674 45.377 57.484
O 62.839 43.941 54.415
O 53.766 39.593 45.184
O 55.852 33.046 41.46
O 51.573 34.422 50.099
O 55.844 35.131 45.046
O 49.012 35.032 53.527
O 60.128 41.337 45.018
O 55.354 42.066 56.25
O 57.857 42.732 51.939
O 59.437 40.037 52.201
O 62.407 37.654 43.87
O 64.081 38.72 41.53
O 55.453 36.405 52.163
O 49.674 39.206 53.736
O 60.731 39.431 42.405
O 63.447 38.334 45.686
O 53.919 41.474 58.509
O 60.94 43.598 56.729
O 65.961 43.339 58.659
O 62.649 39.389 50.4
O 57.517 33.582 43.153
O 58.203 32.813 49.572
O 61.195 41.912 47.531
O 50.801 38.609 43.318
O 52.593 43.516 55.774
O 53.614 36.349 49.365
O 53.062 42.565 50.158
O 64.012 42.4 50.471
O 58.136 34.719 59.724
O 58.202 37.11 45.842
O 58.023 32.763 56.494
O 63.833 35.664 49.518
O 60.622 40.045 57.197
O 48.066 37.714 53.923
O 62.659 41.287 57.283
O 55.318 34.764 47.551
O 52.243 38.316 57.133
O 50.043 32.02 49.218
O 60.827 35.0 45.458
O 57.8 33.884 47.689
O 53.71 41.498 46.646
O 56.442 40.342 42.164
O 62.202 42.433 45.659
O 54.428 30.952 52.043
O 59.466 47.215 55.924
O 56.873 42.529 43.358
O 55.077 31.616 47.203
O 57.981 41.894 57.086
O 57.836 31.976 52.814
O 54.261 37.23 45.999
O 64.714 38.536 51.168
O 66.053 38.892 54.588
O 53.802 33.648 59.156
O 66.598 40.223 48.499
O 53.627 37.274 54.458
O 52.664 40.643 54.878
O 58.54 43.035 45.778
O 59.891 38.709 49.087
O 55.305 33.956 50.559
O 59.301 36.313 43.363
O 61.07 42.015 50.673
O 49.863 40.587 44.693
O 64.404 40.826 43.774
O 52.179 39.476 46.709
O 55.029 37.614 59.013
O 59.274 35.675 49.938
O 57.814 34.522 52.201
O 57.116 35.843 62.003
O 59.575 35.274 54.041
O 61.647 37.069 51.41
O 61.552 34.082 49.321
O 57.686 44.236 55.435
O 51.522 34.275 54.97
O 57.587 40.139 58.619
O 59.043 32.723 44.93
O 65.371 38.376 44.059
O 47.467 36.532 51.92
O 54.938 38.067 43.597
O 49.933 39.069 55.917
O 52.413 31.446 55.274
O 49.562 36.01 51.497
O 49.153 33.602 47.911
O 51.967 33.453 44.649
O 56.052 31.742 50.32
O 56.331 42.015 48.334
O 59.011 37.253 58.319
O 62.356 44.466 50.867
O 51.361 40.593 52.568
O 49.039 39.461 47.929
O 63.812 41.584 59.161
O 53.709 35.817 56.509
O 55.309 42.266 52.929
H 64.042 40.114 43.231
H 57.0 32.412 52.606
H 58.014 32.244 53.724
H 54.126 37.274 59.056
H 55.26 37.767 59.937
H 56.714 31.047 50.222
H 53.72 37.565 46.725
H 53.614 36.993 45.322
H 59.773 47.548 56.777
H 58.552 37.369 59.16
H 58.264 41.447 56.279
H 58.47 42.726 57.072
H 59.608 46.262 55.986
H 59.944 37.234 58.567
H 64.212 40.744 58.904
H 52.843 41.576 54.704
H 52.976 40.198 54.08
H 65.935 38.581 44.815
H 63.849 41.57 60.126
H 59.823 36.145 42.569
H 59.833 36.952 43.856
H 60.413 42.452 51.229
H 61.528 41.422 51.283
H 65.823 38.793 43.316
H 55.233 31.322 50.029
H 52.972 30.833 55.767
H 52.167 30.949 54.484
H 65.631 38.76 51.368
H 53.141 33.43 58.488
H 54.635 33.633 58.669
H 66.983 41.069 48.76
H 67.352 39.721 48.165
H 53.56 38.081 53.933
H 54.226 37.516 55.175
H 64.412 38.076 51.961
H 57.312 34.731 52.998
H 65.916 39.783 54.243
H 66.464 38.422 53.852
H 57.489 35.158 51.552
H 57.828 42.507 43.501
H 57.425 36.228 61.174
H 56.882 34.938 61.762
H 61.318 36.669 50.596
H 54.24 31.369 47.615
H 62.031 36.326 51.892
H 55.568 32.039 47.919
H 63.938 46.728 52.614
H 54.858 30.235 52.525
H 54.929 31.736 52.304
H 51.409 40.058 46.697
H 51.855 38.659 46.309
H 49.901 36.958 46.179
H 64.394 45.516 51.819
H 54.495 41.658 46.109
H 53.966 40.759 47.212
H 58.732 33.811 47.449
H 57.442 34.497 47.035
H 51.189 38.112 44.049
H 51.228 39.473 43.376
H 54.03 37.113 49.784
H 53.268 35.84 50.108
H 56.817 39.82 42.884
H 55.702 40.804 42.577
H 61.462 34.441 44.992
H 60.877 34.69 46.371
H 54.679 34.049 47.44
H 55.512 34.753 48.497
H 50.718 31.331 49.222
H 51.49 38.828 57.454
H 53.007 38.772 57.506
H 54.342 42.184 40.608
H 63.004 42.441 46.196
H 62.113 43.349 45.367
H 63.259 42.339 49.87
H 64.773 42.227 49.903
H 57.781 36.669 46.59
H 59.062 37.38 46.189
H 58.801 34.686 60.422
H 57.568 33.961 59.913
H 62.316 41.227 56.383
H 61.985 41.796 57.751
H 60.297 39.504 56.467
H 61.255 39.469 57.645
H 47.189 35.812 52.5
H 57.739 43.574 45.779
H 58.206 42.129 45.802
H 58.947 38.549 48.964
H 50.089 41.256 45.351
H 49.406 39.908 45.204
H 54.558 33.345 50.577
H 55.678 33.888 51.447
H 60.115 39.324 48.378
H 64.008 35.021 50.216
H 63.414 36.399 49.984
H 57.875 32.01 55.908
H 57.744 33.522 55.966
H 57.601 33.48 49.924
H 58.732 32.554 50.337
H 61.06 41.851 48.485
H 61.191 40.992 47.239
H 51.796 43.49 55.231
H 53.286 43.771 55.152
H 48.855 37.198 54.129
H 53.117 41.603 50.206
H 52.309 42.781 50.722
H 55.477 42.811 53.708
H 61.873 43.755 56.533
H 60.582 44.485 56.86
H 66.417 42.786 59.305
H 65.531 44.015 59.198
H 53.334 40.707 58.536
H 53.558 42.013 57.794
H 48.814 34.097 53.393
H 62.423 37.035 43.13
H 62.506 38.517 43.449
H 59.694 39.317 51.611
H 59.095 40.713 51.603
H 49.077 39.45 53.018
H 50.32 38.629 53.31
H 60.397 39.132 43.26
H 60.733 40.393 42.483
H 49.974 35.055 53.6
H 59.541 35.727 49.012
H 62.694 40.202 49.881
H 61.957 38.877 49.962
H 59.741 34.897 50.268
H 55.193 36.037 51.31
H 54.653 36.847 52.475
H 63.377 39.174 41.051
H 63.98 37.797 41.265
H 55.232 41.514 55.468
H 55.348 42.965 55.9
H 52.529 35.92 52.563
H 52.417 37.361 52.098
H 50.397 41.281 49.797
H 59.148 32.176 45.718
H 59.104 33.625 45.267
H 51.454 40.853 48.793
H 52.669 33.79 48.299
H 56.584 35.92 41.945
H 56.709 36.46 43.359
H 52.816 32.946 47.045
H 55.355 43.163 58.332
H 54.214 44.145 58.137
H 55.954 35.867 45.662
H 55.052 34.681 45.366
H 50.706 34.07 49.864
H 51.531 34.515 51.059
H 50.704 41.575 55.238
H 57.728 43.688 51.909
H 57.734 42.513 52.871
H 59.535 40.702 44.597
H 60.128 42.088 44.41
H 53.218 39.039 44.615
H 54.298 40.106 44.563
H 62.495 43.702 51.441
H 62.239 45.198 51.486
H 48.113 39.685 47.777
H 49.215 38.762 47.286
H 62.239 43.886 53.66
H 63.206 44.831 54.351
H 48.709 35.601 48.716
H 48.185 37.002 48.454
H 53.751 36.996 61.341
H 56.416 41.451 47.555
H 64.101 44.838 56.806
H 63.178 44.736 58.008
H 52.106 32.418 51.39
H 52.684 33.043 52.647
H 55.463 41.786 48.689
H 58.714 35.294 40.715
H 57.678 34.431 40.015
H 56.109 38.412 47.158
H 57.269 39.377 47.33
H 52.46 30.314 46.806
H 62.053 37.401 48.106
H 60.916 36.642 47.445
H 55.73 33.893 41.907
H 55.703 32.396 42.158
H 63.513 38.146 46.631
H 62.964 39.168 45.651
H 51.335 31.333 46.841
H 56.719 33.864 57.883
H 56.495 35.346 58.132
H 55.951 38.855 57.071
H 54.834 39.862 56.864
H 49.871 33.74 47.281
H 61.015 33.967 48.528
H 62.401 33.69 49.083
H 51.583 35.651 45.181
H 48.205 38.398 50.564
H 48.978 39.632 50.132
H 52.344 35.614 43.867
H 55.706 39.752 54.15
H 56.368 39.809 52.785
H 50.468 31.284 53.127
H 50.515 32.786 52.907
H 51.722 34.996 55.58
H 52.029 34.496 54.18
H 57.062 38.038 41.234
H 55.959 31.834 54.84
H 55.027 31.756 56.037
H 65.667 46.266 60.221
H 51.26 36.814 54.123
H 51.621 38.017 54.976
H 53.525 34.192 41.592
H 52.848 38.45 41.867
H 60.843 45.83 53.069
H 54.611 41.664 53.217
H 50.599 41.092 52.248
H 57.451 34.302 43.792
H 58.42 33.654 42.819
H 51.554 39.981 51.846
H 61.591 37.583 55.39
H 61.552 36.958 54.006
H 61.227 39.383 53.38
H 61.863 39.934 54.644
H 60.638 42.019 54.068
H 59.446 42.741 54.671
H 54.266 33.696 54.032
H 54.217 35.149 54.469
H 49.433 33.388 55.731
H 57.276 43.537 54.911
H 58.247 44.699 54.801
H 52.356 35.946 47.605
H 53.36 36.421 57.176
H 54.031 35.067 57.024
H 50.974 35.591 48.125
H 61.255 46.604 54.309
H 67.102 42.183 57.168
H 65.655 41.833 56.871
H 54.662 37.245 43.172
H 54.798 38.736 42.915
H 53.738 40.223 51.803
H 54.413 38.872 51.64
H 62.79 44.769 46.941
H 54.638 37.267 40.971
H 54.706 35.786 40.641
H 63.093 44.36 48.372
H 59.37 43.783 49.555
H 58.57 42.528 49.858
H 49.637 38.151 55.951
H 56.348 37.022 54.085
H 62.157 42.118 43.171
H 57.295 38.207 54.007
H 52.425 38.035 48.592
H 51.196 37.54 49.334
H 59.416 37.139 51.609
H 58.509 36.7 52.745
H 57.829 39.773 57.759
H 49.42 35.067 51.346
H 54.821 43.829 51.253
H 55.748 44.672 52.112
H 50.207 36.255 50.822
H 62.458 35.067 55.477
H 61.297 35.176 56.449
H 60.351 34.781 53.749
H 59.636 35.247 55.004
H 56.324 39.03 50.566
H 56.92 39.892 49.467
H 50.98 36.506 57.13
H 50.02 44.52 56.112
H 58.353 39.944 59.174
