368
xyz format
O 49.082 73.724 49.746
O 40.58 71.96 51.324
O 40.501 62.894 63.585
O 41.834 69.645 59.551
O 42.041 62.691 62.027
O 43.198 71.925 49.376
O 48.479 61.247 49.622
O 41.751 65.527 63.853
O 37.82 65.132 59.359
O 45.343 58.568 57.018
O 44.544 69.498 54.368
O 50.752 72.257 50.495
O 49.587 74.158 56.85
O 51.937 69.553 51.704
O 51.37 72.079 54.307
O 49.235 60.47 57.866
O 39.582 63.43 60.735
O 49.158 68.118 50.586
O 44.064 70.738 47.13
O 39.239 72.091 57.694
O 44.439 61.737 54.351
O 39.375 60.307 55.966
O 41.376 64.83 58.256
O 43.637 63.062 63.495
O 39.841 71.263 61.205
O 44.923 69.41 49.975
O 43.983 64.926 61.101
O 37.775 60.29 59.145
O 39.659 72.374 53.94
O 48.185 65.582 49.733
O 46.719 72.536 55.898
O 41.645 65.357 60.377
O 42.7 66.81 51.56
O 42.36 74.43 51.431
O 44.804 60.501 60.742
O 44.145 66.322 55.699
O 54.899 66.253 56.186
O 46.791 61.459 46.866
O 47.926 61.005 61.121
O 49.436 65.964 51.511
O 50.096 62.503 52.401
O 49.133 66.643 45.444
O 42.549 75.651 53.252
O 47.457 65.997 56.091
O 42.154 71.945 60.486
O 43.288 60.914 51.7
O 53.481 67.473 57.748
O 46.392 62.363 52.051
O 49.581 59.632 54.869
O 36.625 68.739 52.341
O 43.316 64.901 49.42
O 48.548 71.202 59.898
O 45.306 56.67 62.387
O 47.052 57.775 61.629
O 44.16 58.405 59.33
O 38.35 61.942 61.796
O 37.42 62.98 54.343
O 38.248 67.756 61.842
O 47.15 59.032 58.231
O 41.462 60.503 49.131
O 43.485 63.394 56.677
O 47.662 68.301 55.971
O 38.714 68.244 49.258
O 41.098 59.129 57.18
O 47.78 58.377 55.011
O 51.532 69.267 56.597
O 37.86 65.411 53.471
O 46.604 71.79 52.932
O 52.438 69.578 54.231
O 39.761 69.231 57.438
O 48.334 69.772 54.208
O 44.112 57.961 52.243
O 51.084 62.025 46.917
O 52.492 64.562 57.905
O 42.262 60.957 56.794
O 45.601 66.564 49.948
O 42.977 69.149 57.488
O 41.194 61.252 59.64
O 43.83 66.339 58.582
O 35.955 69.295 58.382
O 49.8 68.0 55.179
O 43.627 58.729 63.446
O 49.537 73.242 53.011
O 43.634 67.596 53.742
O 46.061 73.681 54.138
O 41.672 65.82 55.48
O 34.127 65.404 56.244
O 44.778 74.834 55.99
O 43.63 68.584 47.013
O 45.654 62.323 59.04
O 37.019 62.904 56.579
O 39.893 67.174 52.309
O 44.951 63.541 49.997
O 50.798 67.973 52.906
O 40.938 68.178 49.511
O 42.982 73.392 53.7
O 44.499 64.204 53.591
O 42.855 56.962 61.352
O 46.19 64.401 57.621
O 36.382 62.745 59.865
O 47.703 59.154 48.739
O 49.549 69.373 47.7
O 47.129 60.991 55.846
O 39.358 65.408 61.99
O 44.197 62.054 47.458
O 40.191 69.018 55.291
O 48.587 71.379 57.705
O 38.105 64.816 56.457
O 49.961 72.902 59.884
O 50.216 64.356 56.489
O 46.555 64.265 64.237
O 43.674 60.899 63.094
O 44.074 66.51 62.768
O 45.407 72.069 49.331
O 44.864 75.995 53.24
O 46.644 68.847 52.456
O 47.759 65.644 47.534
O 56.236 63.753 58.922
O 52.588 64.842 52.716
O 45.915 63.195 61.624
O 37.832 70.091 54.695
O 41.966 73.232 56.525
O 46.554 63.974 55.049
O 40.689 60.948 52.072
O 52.012 63.466 48.398
O 43.944 71.675 52.405
O 39.716 67.168 59.899
O 38.197 65.74 51.026
O 46.46 73.561 50.56
O 51.192 66.775 48.366
O 48.602 65.852 62.258
O 42.354 69.544 51.287
O 49.013 70.417 51.058
O 47.396 65.304 52.568
O 49.277 63.91 50.661
O 47.472 63.353 60.031
O 45.936 66.161 60.452
O 51.262 71.473 57.669
H 49.055 72.215 57.829
H 48.913 71.058 56.855
H 44.302 66.018 63.566
H 44.668 67.27 62.788
H 43.225 60.715 62.26
H 44.557 61.179 62.823
H 46.187 64.799 63.522
H 47.333 63.854 63.839
H 50.53 63.626 57.038
H 49.515 64.756 57.018
H 45.561 71.49 48.575
H 45.131 72.903 48.929
H 38.742 65.061 57.14
H 37.724 65.66 56.185
H 47.484 65.666 53.458
H 46.544 65.642 52.266
H 50.534 61.896 47.7
H 46.838 65.028 57.966
H 45.738 64.896 56.927
H 37.165 63.032 59.378
H 46.924 59.319 49.285
H 47.347 59.094 47.843
H 50.888 72.654 59.994
H 49.908 73.776 60.29
H 49.112 69.992 48.298
H 50.802 66.306 49.114
H 44.432 63.459 52.981
H 44.58 64.97 53.01
H 38.295 65.428 50.117
H 38.852 65.226 51.515
H 43.173 68.226 53.175
H 49.916 72.436 52.638
H 43.064 66.817 53.729
H 39.072 67.617 59.338
H 40.221 66.626 59.28
H 44.598 71.665 51.695
H 43.106 71.532 51.947
H 51.275 63.505 49.019
H 36.339 63.389 57.065
H 37.611 62.584 57.271
H 44.189 74.387 55.368
H 44.122 58.893 51.99
H 45.257 73.338 53.729
H 46.608 73.942 53.387
H 44.395 68.569 47.602
H 41.484 65.54 54.575
H 41.425 66.753 55.488
H 45.091 63.107 59.027
H 45.991 62.268 58.137
H 37.701 68.07 61.112
H 39.072 68.248 61.74
H 50.252 67.172 55.383
H 43.74 58.773 58.543
H 44.771 57.746 58.977
H 49.229 67.773 54.435
H 37.394 62.019 61.679
H 38.447 61.684 62.721
H 36.893 63.76 54.557
H 36.89 62.52 53.68
H 53.215 64.64 58.54
H 51.841 65.201 58.22
H 42.193 61.076 55.838
H 43.158 60.619 56.919
H 45.859 67.44 50.262
H 45.103 66.193 50.687
H 38.445 70.545 54.104
H 37.445 70.805 55.217
H 40.917 61.518 58.754
H 46.957 59.579 59.002
H 47.376 58.173 58.611
H 41.545 60.362 59.513
H 43.404 69.298 56.635
H 43.713 68.945 58.079
H 46.761 71.459 52.039
H 48.023 68.256 56.865
H 46.725 68.488 56.111
H 46.658 70.999 53.483
H 44.485 62.926 47.161
H 43.398 62.237 47.968
H 37.481 66.12 54.005
H 38.426 65.586 62.168
H 39.807 66.203 62.302
H 38.796 65.421 53.708
H 44.214 65.47 58.411
H 44.707 75.207 52.706
H 45.817 68.84 51.958
H 46.798 67.916 52.657
H 47.774 66.54 47.174
H 48.05 65.095 46.796
H 48.598 73.036 53.098
H 39.384 68.564 55.019
H 40.39 69.599 54.546
H 47.452 60.45 56.577
H 46.262 61.291 56.148
H 38.851 68.923 57.532
H 52.193 69.939 56.391
H 51.852 68.481 56.136
H 40.289 68.447 57.632
H 52.552 68.636 54.056
H 51.513 69.742 54.01
H 40.479 59.616 57.739
H 41.561 58.553 57.801
H 42.125 60.65 49.817
H 48.784 70.064 53.405
H 48.371 70.545 54.786
H 44.565 66.948 58.436
H 43.654 64.068 56.006
H 47.132 58.827 54.454
H 47.611 57.441 54.849
H 42.522 63.356 56.726
H 45.253 62.649 61.181
H 46.162 62.674 62.398
H 42.991 61.813 51.512
H 43.313 60.878 52.665
H 46.996 58.725 61.787
H 49.267 70.565 59.803
H 48.146 70.97 60.744
H 43.836 65.591 48.991
H 43.006 64.358 48.685
H 49.447 59.678 55.824
H 45.593 61.822 52.078
H 46.695 62.278 51.138
H 52.874 66.896 57.268
H 53.805 68.079 57.07
H 42.766 71.387 60.982
H 41.695 72.447 61.171
H 47.204 64.28 60.002
H 48.163 63.334 60.704
H 46.396 65.895 61.258
H 46.623 66.59 59.927
H 46.816 66.334 55.452
H 48.31 66.182 55.679
H 42.841 76.003 54.102
H 42.577 76.418 52.665
H 50.432 63.388 52.587
H 50.477 62.289 51.54
H 50.3 65.569 51.686
H 49.258 66.485 52.304
H 46.187 61.091 47.524
H 48.487 60.222 61.173
H 54.893 65.919 57.091
H 47.885 61.196 60.175
H 44.669 65.966 54.97
H 44.798 66.768 56.253
H 55.369 63.333 58.861
H 43.039 65.92 51.397
H 43.279 67.375 51.033
H 41.689 64.541 60.89
H 41.609 66.049 61.049
H 42.071 73.541 51.674
H 43.081 74.275 50.809
H 40.362 72.142 54.559
H 45.068 60.35 59.826
H 45.119 59.714 61.205
H 47.473 65.04 50.095
H 47.767 66.44 49.586
H 46.731 72.001 56.702
H 46.711 73.444 56.227
H 50.96 71.054 58.485
H 51.676 72.291 57.972
H 50.935 72.474 49.572
H 50.957 71.316 50.554
H 39.47 71.074 60.334
H 40.444 70.525 61.362
H 44.534 58.638 56.496
H 46.038 58.488 56.352
H 48.867 73.882 56.269
H 50.36 74.163 56.272
H 44.35 70.178 50.093
H 45.811 69.788 49.948
H 41.918 65.467 57.774
H 40.81 64.448 57.574
H 39.854 60.451 55.14
H 38.722 71.277 57.657
H 45.208 61.177 54.183
H 44.26 61.605 55.29
H 40.797 61.56 51.333
H 40.119 60.256 51.714
H 43.779 65.785 60.71
H 43.833 64.304 60.378
H 39.647 64.193 60.148
H 39.591 62.676 60.132
H 43.237 72.641 54.25
H 42.115 73.644 54.043
H 41.832 67.821 49.434
H 40.898 68.848 48.817
H 39.806 68.132 52.396
H 40.27 67.057 51.428
H 50.13 68.548 52.511
H 51.194 67.527 52.147
H 45.184 62.696 49.593
H 44.458 63.29 50.787
H 44.888 70.363 54.624
H 45.311 68.917 54.439
H 47.35 63.445 54.914
H 45.859 63.315 55.171
H 48.838 61.286 58.194
H 49.155 59.86 58.61
H 45.608 73.496 51.01
H 47.104 73.494 51.277
H 48.715 68.416 49.781
H 50.077 68.005 50.313
H 48.002 61.901 49.096
H 49.093 60.849 48.992
H 45.34 73.587 57.941
H 41.193 73.543 56.038
H 42.145 72.365 56.14
H 42.762 71.265 48.823
H 42.484 72.273 49.924
H 48.192 69.965 51.288
H 48.72 71.282 50.748
H 49.252 74.669 49.843
H 40.053 72.667 50.93
H 40.613 71.287 50.633
H 37.423 65.225 60.234
H 37.65 65.984 58.938
H 42.019 66.403 63.548
H 41.655 65.02 63.037
H 40.879 69.573 59.427
H 42.129 68.727 59.59
H 41.295 62.258 61.594
H 42.739 62.665 61.361
H 43.897 62.704 64.353
H 44.218 63.824 63.379
H 48.572 63.425 51.108
H 49.2 63.63 49.741
H 48.189 64.985 62.158
H 48.023 66.31 62.881
H 42.202 69.789 50.365
H 41.648 68.914 51.476
