66
xyz format
O 36.862 74.537 51.0
O 40.58 71.96 51.324
O 41.949 71.846 45.23
O 33.588 72.568 49.856
O 43.198 71.925 49.376
O 37.697 70.486 44.696
O 38.371 70.189 48.289
O 42.36 74.43 51.431
O 42.549 75.651 53.252
O 36.026 71.251 53.232
O 39.264 72.287 46.072
O 40.433 75.629 51.747
O 40.594 75.02 44.73
O 40.987 73.689 47.57
O 38.714 68.244 49.258
O 32.416 70.089 49.615
O 36.687 71.866 49.769
O 43.137 74.945 48.592
O 38.92 76.07 49.131
O 38.824 72.795 48.166
O 40.496 68.562 45.922
O 41.787 76.941 48.916
H 38.678 72.442 43.304
H 39.239 75.232 49.489
H 39.003 76.682 49.872
H 42.081 73.855 43.108
H 31.576 69.677 49.853
H 32.612 70.661 50.367
H 41.244 73.182 48.35
H 41.093 74.607 47.849
H 36.125 71.78 50.549
H 36.239 72.534 49.235
H 38.928 67.683 48.502
H 40.259 68.211 46.79
H 41.12 69.27 46.123
H 39.252 72.947 45.368
H 39.446 71.46 45.607
H 40.76 74.539 45.551
H 41.393 75.547 44.608
H 37.934 73.095 47.945
H 38.945 73.091 49.077
H 35.828 72.175 53.035
H 40.767 71.632 43.379
H 42.577 76.418 52.665
H 39.772 74.94 51.603
H 40.153 76.046 52.572
H 36.512 69.032 47.985
H 42.071 73.541 51.674
H 38.329 69.76 44.763
H 37.731 70.886 48.098
H 39.162 70.466 47.811
H 43.526 75.571 47.969
H 43.363 74.083 48.222
H 40.898 68.848 48.817
H 43.353 70.702 46.479
H 42.762 71.265 48.823
H 42.484 72.273 49.924
H 37.264 74.264 50.165
H 36.086 75.041 50.726
H 40.053 72.667 50.93
H 40.613 71.287 50.633
H 33.997 72.338 50.7
H 33.162 73.416 50.032
H 41.079 77.291 49.472
H 41.459 72.302 45.926
H 42.481 72.545 44.829
