106
xyz format
O 61.102 36.683 55.334
O 63.448 36.398 59.761
O 60.196 35.981 57.618
O 58.247 35.569 61.606
O 52.727 30.364 56.437
O 57.624 35.185 56.593
O 53.936 29.521 54.794
O 55.002 31.796 55.372
O 56.513 29.937 53.846
O 63.183 34.26 59.274
O 60.977 37.685 58.77
O 63.251 35.457 62.214
O 60.895 35.423 60.618
O 59.092 34.199 59.255
O 52.827 32.964 57.245
O 57.952 31.834 54.264
O 56.144 35.509 52.173
O 58.739 38.574 54.443
O 56.86 30.496 57.245
O 60.809 30.629 56.69
O 55.46 34.327 55.566
O 56.327 38.29 51.963
O 59.266 36.379 51.227
O 62.552 38.645 54.658
O 56.768 37.691 59.228
O 56.932 33.895 50.321
O 57.708 34.175 53.621
O 60.293 33.608 56.385
O 62.634 36.921 52.631
O 54.926 38.322 54.83
O 55.178 36.925 57.186
O 54.099 35.935 53.144
O 55.535 32.102 58.886
O 56.712 36.168 54.569
H 61.663 38.974 54.839
H 62.73 38.946 53.759
H 57.025 37.942 58.332
H 55.845 32.865 58.383
H 54.633 31.97 58.569
H 58.99 36.77 52.064
H 63.153 37.592 56.922
H 62.325 38.865 56.935
H 55.957 35.847 51.288
H 56.984 35.924 52.404
H 56.155 38.031 51.049
H 59.463 38.471 57.069
H 60.925 30.897 57.61
H 61.699 30.685 56.321
H 52.904 30.585 60.403
H 58.09 38.741 55.137
H 62.962 34.601 62.555
H 58.577 31.504 58.538
H 57.575 30.651 56.614
H 56.61 29.577 57.087
H 52.626 33.425 56.421
H 52.2 33.338 57.876
H 58.939 35.152 59.222
H 59.682 34.036 58.508
H 61.142 34.778 61.292
H 60.454 36.12 61.119
H 58.456 31.958 55.077
H 57.036 31.958 54.54
H 60.341 33.801 55.441
H 60.048 32.675 56.416
H 60.048 37.666 59.032
H 61.431 37.246 59.5
H 62.659 34.351 58.469
H 57.73 34.436 50.28
H 58.905 33.112 52.112
H 59.791 31.879 52.116
H 59.769 35.717 56.793
H 61.07 35.574 57.564
H 54.331 29.329 59.278
H 54.505 28.742 56.771
H 55.266 30.976 55.807
H 54.564 32.296 56.072
H 57.289 29.652 53.348
H 56.095 29.108 54.112
H 55.435 31.979 52.722
H 56.759 33.997 53.647
H 57.935 34.339 54.545
H 55.695 32.639 61.015
H 54.878 31.363 61.12
H 62.986 36.758 53.515
H 61.678 36.943 52.766
H 53.997 30.217 54.128
H 52.324 36.437 55.326
H 58.053 34.34 56.773
H 57.607 35.621 57.455
H 54.164 38.089 54.285
H 55.62 38.51 54.185
H 53.424 30.676 57.028
H 55.254 34.72 56.423
H 56.198 33.734 55.757
H 56.515 30.426 59.987
H 53.329 35.15 58.404
H 54.405 36.738 56.639
H 54.366 35.146 53.633
H 53.692 35.581 52.344
H 63.401 36.427 58.797
H 57.665 36.007 60.973
H 58.309 34.666 61.273
H 57.53 36.641 54.768
H 56.09 36.498 55.229
H 60.784 36.135 54.606
H 62.015 36.395 55.456
