309
xyz format
Cl 47.816 30.708 60.247
Cl 39.148 40.485 72.982
Na 37.083 30.36 63.863
Na 47.489 37.29 62.212
O 47.762 42.709 62.717
O 50.681 38.287 70.734
O 43.183 35.498 71.595
O 40.835 39.486 66.723
O 45.322 43.488 68.492
O 47.72 27.35 63.94
O 43.578 31.445 62.935
O 50.845 32.383 67.979
O 52.341 36.905 65.243
O 50.543 34.192 69.4
O 45.9 31.848 71.012
O 49.495 40.318 75.375
O 47.782 37.364 66.119
O 48.148 36.832 72.522
O 50.085 42.824 68.915
O 44.277 36.009 68.583
O 43.895 40.144 73.427
O 47.845 28.102 61.283
O 39.792 36.815 72.671
O 49.908 34.975 58.2
O 40.793 37.207 69.212
O 53.036 35.388 62.771
O 39.899 36.73 64.839
O 51.643 43.428 71.237
O 51.408 38.624 57.022
O 50.286 29.566 63.09
O 41.77 39.637 69.633
O 50.233 42.399 59.323
O 46.156 39.886 71.998
O 51.588 39.224 68.646
O 52.012 41.385 68.688
O 50.889 33.83 72.315
O 42.179 38.164 73.692
O 50.982 37.216 62.935
O 55.782 32.223 65.02
O 40.034 33.806 65.611
O 40.527 28.843 66.644
O 55.442 37.586 73.44
O 47.172 40.967 68.31
O 53.641 33.982 72.375
O 48.891 40.778 69.726
O 53.238 39.604 64.257
O 50.461 40.554 64.247
O 41.016 40.539 71.49
O 51.524 32.665 64.318
O 55.207 36.551 65.795
O 49.349 33.687 65.75
O 53.39 32.551 66.205
O 44.171 35.509 60.377
O 43.991 33.441 61.356
O 47.968 41.509 59.92
O 43.497 40.364 66.479
O 42.353 36.063 66.932
O 48.415 31.171 65.467
O 47.634 38.818 73.778
O 45.496 40.102 58.895
O 47.945 31.018 63.198
O 51.472 40.468 59.169
O 45.25 38.928 69.783
O 56.145 35.469 68.343
O 47.252 42.258 65.355
O 40.033 31.071 63.284
O 44.837 41.826 64.612
O 50.076 27.539 66.014
O 41.55 43.194 70.5
O 41.849 31.027 69.365
O 40.476 33.058 70.207
O 48.118 33.442 58.998
O 54.289 33.527 70.004
O 49.193 35.31 61.363
O 47.896 34.388 72.314
O 49.629 40.119 67.086
O 42.221 37.833 71.125
O 50.285 42.34 73.235
O 47.559 41.7 72.876
O 54.771 36.225 71.526
O 42.649 37.545 64.368
O 48.289 35.566 64.494
O 42.12 39.148 62.0
O 39.178 42.533 69.52
O 44.969 37.1 62.414
O 53.773 38.205 67.29
O 53.99 33.576 63.828
O 47.199 28.08 66.238
O 47.963 30.795 69.007
O 45.207 35.375 56.94
O 44.737 35.929 65.741
O 45.865 40.33 61.551
O 48.643 38.698 57.426
O 45.988 33.491 68.871
O 49.64 29.997 58.461
O 50.762 35.421 65.634
O 45.519 31.339 64.045
O 45.196 38.262 66.439
O 41.943 42.159 66.751
O 40.623 27.388 64.392
O 53.953 30.128 64.256
O 45.516 37.064 70.952
O 41.656 30.611 61.007
O 38.943 39.695 68.424
O 52.395 35.805 68.419
O 48.66 36.122 67.8
O 44.481 39.194 63.317
O 52.912 30.404 61.352
O 47.348 39.235 63.286
O 49.787 33.289 62.008
O 52.486 41.32 73.415
O 52.092 33.938 60.397
O 48.494 43.335 70.36
O 44.227 31.157 68.262
O 47.192 36.49 59.657
O 50.201 38.684 61.455
O 42.502 38.243 59.304
H 53.591 39.031 67.757
H 53.964 37.579 67.999
H 51.47 34.373 60.993
H 57.0 31.636 62.922
H 52.714 33.502 60.993
H 47.872 35.259 65.308
H 48.046 34.895 63.844
H 45.245 36.179 62.327
H 44.616 37.317 61.542
H 47.833 31.934 63.482
H 48.406 31.094 62.353
H 49.904 32.808 62.836
H 48.849 33.178 61.809
H 47.343 39.736 73.844
H 48.567 38.854 74.02
H 42.508 38.687 71.47
H 42.905 37.602 70.484
H 41.814 42.393 70.03
H 41.142 30.513 68.956
H 41.808 31.877 68.909
H 45.359 39.357 58.297
H 41.17 33.624 70.566
H 40.576 32.233 70.698
H 48.968 33.429 59.455
H 39.113 40.616 68.188
H 38.768 39.731 69.372
H 53.575 33.178 69.457
H 54.912 33.891 69.363
H 50.827 27.477 65.411
H 49.82 32.925 66.111
H 49.622 33.708 64.825
H 49.316 27.633 65.426
H 52.53 32.303 66.566
H 53.42 33.509 66.321
H 45.072 41.989 65.534
H 44.086 42.412 64.459
H 50.968 31.906 64.534
H 52.2 32.296 63.737
H 40.77 41.413 71.818
H 40.208 40.215 71.071
H 41.213 27.508 63.638
H 40.255 28.268 64.538
H 53.264 30.211 63.584
H 45.942 39.231 69.182
H 44.552 38.618 69.192
H 51.05 39.992 59.895
H 56.033 36.416 68.494
H 56.957 35.255 68.819
H 42.309 42.538 67.56
H 41.1 41.785 67.034
H 55.885 37.096 66.214
H 54.988 35.897 66.47
H 48.034 42.636 65.776
H 46.901 42.986 64.827
H 45.05 35.113 60.411
H 44.592 32.997 60.745
H 44.571 33.751 62.063
H 44.181 36.018 59.556
H 48.426 38.737 58.366
H 53.953 36.739 71.522
H 55.259 36.565 70.766
H 42.492 38.443 64.05
H 42.161 36.992 63.745
H 47.129 42.489 72.524
H 48.025 41.333 72.115
H 45.413 35.775 66.413
H 45.173 36.512 65.107
H 48.691 41.07 60.387
H 47.557 40.797 59.414
H 45.662 36.1 57.386
H 47.89 31.934 65.741
H 48.703 30.78 66.301
H 44.192 40.68 67.069
H 43.0 39.74 67.023
H 42.204 36.869 66.423
H 41.973 35.369 66.38
H 49.419 41.194 70.419
H 48.249 40.248 70.214
H 50.837 40.251 63.411
H 49.553 40.791 64.018
H 39.908 29.566 66.807
H 41.209 28.969 67.316
H 51.148 34.834 66.296
H 49.974 35.771 66.07
H 54.573 33.828 72.175
H 52.521 39.243 64.793
H 53.39 38.923 63.589
H 47.269 40.328 67.592
H 47.312 41.819 67.879
H 53.649 34.799 72.888
H 54.013 33.419 62.875
H 54.784 34.099 63.993
H 41.894 37.422 74.241
H 42.356 38.866 74.331
H 52.765 41.037 68.195
H 52.245 42.309 68.841
H 51.929 37.373 63.031
H 50.749 36.722 63.731
H 51.212 33.412 71.506
H 50.598 34.702 72.021
H 49.332 40.501 76.309
H 49.83 41.156 75.032
H 46.189 32.325 71.8
H 46.678 31.859 70.44
H 50.767 28.777 62.81
H 49.409 29.231 63.317
H 47.324 27.213 66.643
H 46.755 28.592 66.925
H 51.019 34.888 69.87
H 49.821 34.662 68.965
H 47.241 30.174 68.85
H 47.913 31.399 68.255
H 55.505 32.014 65.921
H 56.576 32.757 65.142
H 39.739 34.537 65.054
H 39.367 33.124 65.468
H 46.666 39.3 71.425
H 45.643 40.422 71.38
H 52.129 39.32 69.44
H 51.363 38.285 68.634
H 42.318 39.135 69.017
H 41.298 40.259 69.065
H 43.044 38.102 60.091
H 45.832 38.767 66.961
H 44.469 38.102 67.054
H 45.48 32.297 63.935
H 45.759 31.017 63.167
H 49.526 38.172 60.992
H 49.77 39.531 61.624
H 47.035 37.138 58.959
H 47.471 35.7 59.177
H 53.013 36.68 65.899
H 49.02 37.241 72.594
H 47.682 37.395 71.891
H 52.112 35.179 62.96
H 39.128 37.218 64.526
H 40.504 37.421 65.136
H 53.352 35.79 63.59
H 49.34 42.5 68.394
H 50.423 43.564 68.395
H 48.43 44.059 69.726
H 47.586 43.016 70.438
H 40.193 36.496 68.955
H 40.43 37.984 68.769
H 53.073 35.545 67.782
H 51.732 36.252 67.878
H 47.772 28.846 61.893
H 50.399 40.626 67.374
H 47.797 35.702 67.91
H 48.57 36.957 68.276
H 49.345 39.66 67.886
H 44.052 39.967 63.705
H 44.709 38.651 64.082
H 48.59 34.673 72.922
H 47.285 33.897 72.878
H 48.236 35.426 61.313
H 49.452 35.86 62.113
H 44.381 35.112 68.241
H 43.799 40.92 72.862
H 44.113 39.436 72.809
H 43.726 35.893 69.367
H 45.33 37.497 71.794
H 45.761 36.165 71.205
H 47.207 37.603 65.381
H 48.108 38.213 66.44
H 43.94 34.942 71.371
H 46.242 43.545 68.778
H 45.354 42.884 67.739
H 52.197 41.022 72.543
H 40.106 38.855 66.757
H 40.878 39.737 65.792
H 47.158 41.964 62.824
H 49.931 38.85 70.502
H 50.969 38.629 71.589
H 43.533 36.104 72.26
H 45.897 32.649 68.407
H 46.329 34.09 68.195
H 51.704 37.434 65.739
H 51.326 32.17 68.789
H 49.923 32.415 68.262
H 45.911 41.003 60.86
H 45.156 39.746 61.255
H 47.465 26.934 63.107
H 47.084 28.068 64.042
H 40.726 36.896 72.444
H 43.63 30.419 68.086
H 44.152 31.289 69.216
H 50.497 35.722 58.368
H 47.713 39.466 62.423
H 48.074 38.776 63.727
H 43.912 31.371 62.032
H 43.618 30.541 63.269
