47
xyz format
O 67.504 68.334 48.91
O 63.709 72.529 40.911
O 65.254 67.849 39.795
O 67.719 68.723 45.768
O 69.275 66.517 41.447
O 65.593 68.66 46.358
O 67.714 67.655 42.698
O 65.235 70.63 41.03
O 64.667 68.385 43.334
O 67.362 65.095 43.669
O 64.806 66.687 44.858
O 67.687 70.179 41.156
O 63.598 66.9 42.117
O 68.592 70.168 44.357
O 63.435 67.588 46.967
H 66.117 65.556 46.557
H 64.137 69.148 43.599
H 66.774 64.647 44.29
H 65.576 68.695 43.425
H 67.562 70.805 40.432
H 67.777 70.744 41.934
H 64.365 66.198 44.152
H 65.728 66.722 44.572
H 67.656 68.619 42.709
H 67.621 67.41 43.627
H 65.031 70.162 41.849
H 65.544 69.932 40.439
H 65.18 69.258 46.993
H 65.06 68.767 45.561
H 69.817 67.1 41.993
H 68.918 65.879 42.078
H 63.627 71.605 47.599
H 66.763 68.485 48.31
H 68.252 68.19 48.318
H 63.114 67.902 46.112
H 63.182 68.29 47.579
H 67.782 67.857 46.191
H 67.774 69.343 46.506
H 66.483 69.902 37.911
H 69.46 66.352 44.254
H 69.139 69.404 44.134
H 68.942 70.872 43.796
H 65.917 67.247 40.155
H 64.421 66.674 41.668
H 63.334 67.733 41.708
H 63.522 71.803 40.303
H 64.069 73.219 40.34
