34
xyz format
O 46.363 47.688 49.017
O 41.005 43.105 47.516
O 49.172 45.68 46.848
O 48.851 49.071 45.41
N 47.255 47.449 45.656
N 50.479 46.045 45.037
C 44.622 43.983 46.852
C 49.254 46.025 45.639
C 45.26 44.81 45.927
C 46.527 44.474 45.431
C 45.238 42.808 47.286
C 47.799 48.687 45.956
C 47.138 43.291 45.869
C 47.997 46.502 44.861
C 50.756 46.292 43.628
C 47.076 49.542 47.028
C 46.498 42.464 46.792
C 47.172 45.301 44.376
H 46.634 44.163 48.564
H 47.62 45.375 47.967
H 46.373 45.688 43.682
H 50.467 47.345 43.355
H 50.166 45.575 42.994
H 44.715 42.134 47.983
H 44.74 45.706 45.551
H 43.611 44.238 47.21
H 46.97 41.517 47.098
H 48.118 42.997 45.462
H 46.003 49.2 47.141
H 47.86 44.657 43.762
H 46.625 43.114 42.361
H 46.863 50.678 44.484
H 48.342 47.059 43.932
H 46.477 47.113 46.174
