97
xyz format
O 40.501 62.894 63.585
O 42.041 62.691 62.027
O 37.741 56.897 68.277
O 37.602 63.398 67.675
O 31.672 61.262 66.672
O 39.899 60.189 68.296
O 36.647 56.414 65.243
O 34.465 56.317 67.248
O 36.313 55.225 62.82
O 35.956 53.697 65.118
O 41.727 60.218 65.82
O 38.772 59.287 62.177
O 42.291 57.22 66.609
O 39.605 58.243 60.413
O 40.328 58.319 65.298
O 39.651 55.792 66.746
O 33.071 56.098 65.026
O 40.68 60.52 63.249
O 40.225 56.434 62.301
O 37.689 60.247 64.995
O 38.789 62.81 65.645
O 41.46 54.421 67.434
O 35.661 60.035 66.811
O 33.973 58.652 63.702
O 35.522 60.678 62.854
O 37.19 54.806 67.572
O 34.723 62.614 67.073
O 41.134 62.894 68.441
O 38.043 57.227 62.013
O 39.961 61.539 70.61
O 38.013 59.058 66.887
H 43.225 60.715 62.26
H 43.01 58.21 63.978
H 33.482 54.76 70.439
H 34.915 58.446 63.734
H 38.817 58.546 67.044
H 37.822 59.454 67.747
H 33.686 53.459 63.875
H 35.113 59.276 66.571
H 35.69 60.0 67.775
H 41.487 54.352 66.472
H 41.95 55.232 67.619
H 40.094 60.579 64.014
H 41.552 60.379 63.638
H 36.85 63.194 63.695
H 39.694 61.844 69.734
H 40.245 60.629 70.459
H 40.823 57.189 62.371
H 30.538 56.837 67.573
H 38.684 58.209 60.128
H 41.845 56.68 65.945
H 42.428 58.065 66.163
H 38.447 61.684 62.721
H 39.435 54.767 69.904
H 36.376 60.877 63.258
H 34.899 61.215 63.359
H 39.486 58.643 64.953
H 40.875 58.217 64.51
H 34.292 61.837 67.452
H 35.631 62.322 66.924
H 40.041 56.314 67.458
H 39.349 54.989 67.188
H 33.726 56.785 64.851
H 32.723 56.329 65.897
H 39.379 58.815 62.761
H 38.038 59.528 62.755
H 37.732 56.938 62.88
H 41.348 61.094 65.967
H 42.594 60.27 66.241
H 36.935 54.568 62.484
H 35.712 55.372 62.079
H 35.391 56.511 67.055
H 34.458 56.156 68.2
H 41.807 65.649 68.967
H 38.17 52.241 65.694
H 36.98 57.28 64.976
H 35.864 56.289 64.692
H 35.864 53.546 64.169
H 35.22 54.285 65.329
H 40.859 60.162 68.399
H 39.775 60.497 67.389
H 32.505 60.778 66.724
H 38.614 62.358 64.81
H 38.738 62.105 66.303
H 37.063 60.892 65.348
H 37.144 59.468 64.825
H 38.372 57.355 68.846
H 36.971 57.479 68.273
H 36.923 64.019 67.967
H 37.183 54.771 66.607
H 36.274 54.626 67.815
H 41.959 62.883 67.94
H 40.457 62.746 67.769
H 37.738 62.83 68.443
H 35.149 52.467 67.181
H 41.295 62.258 61.594
H 41.269 62.762 64.155
