343
xyz format
Cl 39.106 49.969 60.184
Na 35.918 45.033 51.34
Na 36.045 52.744 54.029
O 29.609 40.322 65.015
O 30.247 50.397 57.83
O 31.276 45.424 62.335
O 24.435 52.12 58.149
O 25.793 52.139 64.387
O 35.549 49.602 66.684
O 29.194 43.419 62.652
O 30.885 47.152 58.49
O 28.95 36.009 59.347
O 33.544 49.568 62.046
O 24.314 48.324 61.396
O 31.518 53.605 63.107
O 35.06 50.375 70.509
O 30.252 41.001 61.495
O 32.229 48.197 51.93
O 34.482 52.566 66.49
O 25.545 57.242 53.404
O 26.051 54.568 53.65
O 33.462 42.924 54.583
O 27.97 51.193 54.054
O 27.03 56.027 62.615
O 26.367 48.11 66.415
O 36.115 47.947 57.122
O 29.977 50.025 55.681
O 34.983 47.227 55.413
O 26.565 39.48 61.241
O 25.241 53.742 62.868
O 25.907 42.907 64.135
O 29.561 52.174 65.614
O 29.856 46.113 56.703
O 30.114 49.385 53.351
O 37.448 52.083 65.074
O 38.212 46.403 67.42
O 33.878 56.475 59.72
O 27.815 49.028 59.144
O 31.977 42.934 66.207
O 29.915 38.172 61.749
O 28.487 47.652 53.572
O 37.778 52.699 61.682
O 25.706 51.594 60.107
O 25.713 41.786 60.598
O 32.256 46.71 56.603
O 35.473 47.645 62.085
O 36.313 55.225 62.82
O 34.184 48.452 59.501
O 35.825 45.508 61.706
O 32.081 47.191 54.461
O 31.898 50.66 64.627
O 35.24 43.816 64.776
O 35.956 53.697 65.118
O 39.298 50.135 64.821
O 24.667 54.222 59.785
O 26.832 46.396 62.36
O 37.791 47.788 64.487
O 27.758 47.873 57.275
O 34.192 44.376 67.594
O 24.04 44.465 57.303
O 33.341 39.729 62.026
O 26.63 45.558 65.002
O 28.158 36.581 61.319
O 29.118 46.178 59.329
O 29.341 50.501 63.325
O 32.96 47.145 64.291
O 33.071 56.098 65.026
O 35.494 46.774 64.889
O 25.714 49.599 55.099
O 27.974 52.504 62.194
O 29.623 38.276 66.726
O 32.201 45.414 66.59
O 26.988 49.417 61.918
O 33.74 53.775 62.964
O 32.846 50.038 56.493
O 28.559 39.59 60.319
O 31.98 42.344 64.056
O 29.986 41.428 58.399
O 25.527 49.277 63.578
O 23.237 53.586 54.766
O 26.615 54.378 57.226
O 34.119 50.603 65.335
O 36.277 45.16 58.973
O 23.653 50.053 56.377
O 27.781 50.677 65.406
O 22.189 47.398 57.258
O 24.319 48.7 59.178
O 28.751 48.204 64.379
O 33.286 44.712 63.978
O 25.468 46.566 53.997
O 28.495 54.48 53.532
O 31.447 40.171 66.792
O 35.656 53.484 58.677
O 37.91 49.795 57.98
O 24.725 48.181 56.839
O 26.446 44.752 56.667
O 26.198 57.436 59.973
O 31.515 45.151 53.129
O 30.695 53.439 53.104
O 31.525 37.855 63.279
O 32.819 40.019 59.355
O 27.778 54.359 59.092
O 22.733 55.279 57.197
O 26.32 37.055 60.013
O 37.94 49.073 67.089
O 37.411 49.635 61.542
O 39.733 52.288 62.804
O 31.752 47.638 66.94
O 35.976 50.126 56.944
O 26.679 52.413 55.351
O 27.734 41.323 57.598
O 37.19 54.806 67.572
O 28.559 37.394 64.127
O 24.417 57.124 57.337
O 30.204 48.041 61.625
O 30.92 51.039 60.645
O 33.906 41.029 66.336
O 33.494 44.757 56.3
O 36.398 50.531 63.789
O 34.262 46.965 52.847
O 35.371 50.464 60.959
O 33.05 46.901 62.086
O 28.73 51.543 51.349
O 32.35 53.405 61.08
O 27.274 56.449 55.15
O 27.133 58.615 57.404
H 26.181 37.735 59.341
H 26.786 36.356 59.539
H 31.938 39.708 59.599
H 26.901 55.283 57.048
H 25.663 54.404 57.07
H 30.898 45.384 53.834
H 28.815 52.779 62.58
H 27.657 51.821 62.798
H 26.05 45.531 57.078
H 27.263 45.089 56.278
H 24.764 47.301 56.445
H 25.514 48.219 57.394
H 27.748 55.321 59.153
H 27.525 54.065 59.976
H 27.156 57.344 59.901
H 26.034 58.346 59.698
H 22.332 55.241 56.319
H 22.679 54.368 57.512
H 33.249 46.317 61.343
H 32.44 47.549 61.71
H 22.313 46.8 56.51
H 22.605 46.933 57.995
H 28.478 50.031 65.579
H 26.984 50.251 65.744
H 23.076 50.791 56.144
H 24.464 50.482 56.676
H 33.686 53.459 63.875
H 34.253 53.092 62.515
H 34.97 51.213 61.417
H 35.802 50.867 60.195
H 29.372 47.839 63.736
H 28.094 48.654 63.834
H 35.604 45.583 59.521
H 33.985 51.341 64.728
H 34.302 49.856 64.752
H 23.659 49.304 59.539
H 25.157 49.065 59.489
H 27.446 50.088 61.396
H 26.605 48.831 61.253
H 33.113 53.67 60.55
H 29.982 47.486 60.866
H 29.465 48.659 61.681
H 27.469 45.352 65.433
H 23.885 54.065 55.297
H 33.431 39.131 61.274
H 33.114 40.575 61.62
H 31.635 53.961 60.745
H 26.06 44.817 65.246
H 23.368 52.664 55.021
H 29.313 57.834 53.432
H 32.973 49.305 57.108
H 32.698 50.798 57.069
H 31.758 42.889 63.291
H 32.903 42.563 64.234
H 28.421 39.351 59.394
H 28.292 40.517 60.358
H 23.905 57.597 58.004
H 24.81 56.391 57.828
H 23.167 44.448 56.893
H 24.007 45.237 57.882
H 29.451 37.754 64.05
H 25.168 50.172 63.534
H 25.403 49.025 64.501
H 28.676 36.451 63.952
H 30.473 42.192 58.732
H 30.079 40.773 59.101
H 30.619 52.512 53.364
H 29.713 45.435 59.166
H 32.157 37.275 62.837
H 31.642 37.65 64.215
H 26.082 48.808 54.685
H 25.58 50.204 54.359
H 28.513 46.157 58.577
H 33.299 46.694 65.074
H 28.96 38.498 66.061
H 32.279 47.732 64.642
H 35.39 46.009 65.469
H 36.071 46.451 64.185
H 30.454 38.289 66.235
H 33.726 56.785 64.851
H 32.723 56.329 65.897
H 27.153 40.84 56.997
H 28.315 41.817 57.007
H 38.1 49.088 61.937
H 27.713 37.177 61.934
H 28.388 35.819 61.865
H 31.267 47.385 67.736
H 32.66 47.749 67.251
H 37.568 50.51 61.918
H 32.239 45.419 67.554
H 31.257 45.358 66.398
H 38.707 48.538 67.324
H 37.394 49.054 67.884
H 29.72 50.691 62.458
H 30.008 49.948 63.75
H 27.349 47.255 56.656
H 28.022 48.615 56.717
H 24.413 54.434 58.878
H 23.836 54.274 60.274
H 38.415 50.12 65.21
H 27.576 46.433 62.974
H 26.07 46.242 62.932
H 39.885 50.056 65.583
H 31.763 51.255 61.062
H 30.962 50.082 60.525
H 35.176 45.493 62.42
H 36.655 45.713 62.155
H 38.415 48.306 63.963
H 37.039 48.383 64.6
H 31.465 47.934 54.47
H 32.929 47.593 54.684
H 35.138 42.941 64.381
H 35.851 44.267 64.18
H 33.878 41.056 67.3
H 31.666 51.382 65.224
H 31.997 49.9 65.214
H 34.21 41.912 66.091
H 26.446 41.846 59.973
H 26.148 41.757 61.459
H 33.187 46.908 56.767
H 31.836 47.579 56.588
H 28.913 44.214 62.181
H 28.363 42.995 62.902
H 31.355 46.868 59.284
H 30.417 47.947 58.773
H 28.129 48.462 53.956
H 29.286 47.487 54.087
H 35.831 50.638 57.749
H 25.971 52.427 59.696
H 26.298 50.944 59.709
H 36.84 52.571 61.492
H 38.211 52.492 60.845
H 36.935 54.568 62.484
H 35.712 55.372 62.079
H 27.259 53.169 55.504
H 26.016 52.488 56.049
H 34.306 49.18 58.879
H 34.027 47.688 58.932
H 34.856 47.953 62.761
H 36.339 47.873 62.444
H 27.235 57.712 57.73
H 27.773 59.119 57.922
H 31.042 42.959 65.968
H 31.97 42.672 67.136
H 29.837 38.983 62.267
H 30.344 38.461 60.934
H 28.247 48.241 59.498
H 28.384 49.752 59.434
H 25.478 43.514 63.519
H 29.444 46.8 56.165
H 30.198 45.487 56.053
H 33.149 55.999 60.135
H 34.18 57.08 60.409
H 25.986 42.087 63.633
H 27.701 56.614 54.3
H 27.911 56.781 55.795
H 37.82 52.338 64.22
H 38.17 52.241 65.694
H 30.347 50.32 53.297
H 29.616 49.225 52.54
H 35.864 53.546 64.169
H 35.22 54.285 65.329
H 26.042 38.697 61.452
H 26.88 39.784 62.101
H 24.615 53.493 62.177
H 26.083 53.811 62.401
H 29.596 52.629 64.764
H 29.13 52.812 66.198
H 33.201 50.367 62.467
H 33.515 43.922 56.783
H 32.69 44.695 55.769
H 29.099 50.414 55.776
H 29.797 49.094 55.5
H 35.203 48.062 54.98
H 35.235 46.559 54.763
H 35.99 53.102 59.499
H 35.028 54.154 58.974
H 30.812 40.577 67.395
H 31.494 40.793 66.056
H 26.04 46.611 54.774
H 24.577 46.555 54.369
H 32.369 44.793 64.268
H 33.219 44.674 63.015
H 28.536 51.852 53.635
H 27.407 50.882 53.334
H 26.523 55.882 61.806
H 27.827 55.499 62.483
H 35.9 51.346 63.646
H 35.932 49.88 63.25
H 33.314 49.683 61.116
H 37.183 54.771 66.607
H 36.274 54.626 67.815
H 34.602 50.689 69.719
H 35.123 51.16 71.066
H 31.001 54.156 63.707
H 31.386 52.71 63.445
H 31.351 44.888 61.536
H 30.41 45.842 62.249
H 28.699 40.261 64.697
H 30.116 39.834 64.355
H 29.616 51.118 57.944
H 30.986 50.647 58.398
H 35.204 49.673 67.583
H 35.3 48.71 66.413
H 26.502 52.793 64.405
H 25.64 51.94 65.319
H 31.552 47.593 52.261
H 23.9 48.569 62.233
H 24.793 47.512 61.606
H 31.055 41.279 61.954
H 29.541 41.323 62.064
H 33.653 52.631 66.98
H 35.149 52.467 67.181
H 23.808 52.42 57.479
H 23.876 51.915 58.909
H 26.978 48.004 65.675
H 26.923 47.972 67.192
