54
xyz format
O 50.752 72.257 50.495
O 49.587 74.158 56.85
O 51.37 72.079 54.307
O 46.719 72.536 55.898
O 50.941 78.844 49.76
O 53.628 73.72 48.648
O 51.26 74.535 48.122
O 51.35 75.601 51.898
O 46.604 71.79 52.932
O 52.317 76.433 49.131
O 49.537 73.242 53.011
O 52.319 76.485 54.067
O 51.514 77.722 47.032
O 48.587 71.379 57.705
O 49.831 75.433 54.553
O 49.99 77.625 54.651
O 54.32 75.359 50.973
O 53.207 72.816 52.667
O 48.954 76.999 48.202
O 49.688 78.273 52.177
H 49.055 72.215 57.829
H 50.63 78.437 52.31
H 49.668 77.595 51.491
H 54.08 72.405 52.63
H 53.147 73.149 53.571
H 54.199 75.697 46.938
H 49.916 72.436 52.638
H 54.526 76.226 51.343
H 54.016 74.851 51.735
H 53.076 76.696 49.667
H 51.69 76.083 49.777
H 52.61 75.848 54.731
H 52.176 77.295 54.572
H 51.25 75.321 47.561
H 51.05 73.816 47.514
H 49.962 75.332 53.602
H 48.872 75.478 54.649
H 49.116 77.965 54.421
H 49.972 77.581 55.615
H 50.689 74.995 51.542
H 51.895 75.04 52.463
H 48.598 73.036 53.098
H 53.298 74.452 49.184
H 51.592 78.51 49.131
H 50.094 78.603 49.363
H 46.711 73.444 56.227
H 48.867 73.882 56.269
H 50.36 74.163 56.272
H 49.606 76.547 48.752
H 48.318 77.346 48.84
H 52.024 71.688 54.9
H 50.726 72.476 54.906
H 45.34 73.587 57.941
H 49.252 74.669 49.843
