378
xyz format
O 36.431 65.411 42.414
O 40.247 67.595 32.417
O 27.281 63.282 40.092
O 37.064 69.457 33.299
O 43.167 63.664 30.895
O 33.676 67.464 34.202
O 36.997 71.202 36.213
O 40.343 65.535 28.373
O 33.547 55.93 43.381
O 41.503 67.511 37.057
O 38.108 54.297 27.379
O 39.268 67.762 44.279
O 31.745 65.226 35.258
O 37.534 56.033 29.941
O 37.603 54.09 36.874
O 35.047 57.531 39.733
O 38.605 65.223 44.081
O 32.516 68.551 39.64
O 42.6 59.874 35.929
O 34.669 53.535 32.647
O 37.424 59.543 39.401
O 32.873 59.85 43.046
O 41.36 64.47 42.569
O 39.974 61.558 41.697
O 34.149 71.105 39.703
O 36.051 66.287 35.211
O 43.266 61.36 31.959
O 36.648 67.56 41.388
O 32.012 59.02 39.058
O 33.823 57.49 36.037
O 40.028 61.029 33.684
O 33.571 60.472 32.065
O 32.05 65.561 43.145
O 39.394 58.119 42.329
O 32.508 60.595 30.112
O 31.974 67.306 45.976
O 42.983 62.232 36.705
O 34.384 57.658 42.083
O 38.091 53.985 32.814
O 41.83 65.049 38.855
O 35.318 54.462 35.57
O 35.206 61.71 44.431
O 36.922 62.85 34.472
O 33.615 62.512 33.947
O 34.706 64.629 41.292
O 31.211 56.956 35.773
O 31.973 67.659 42.066
O 39.124 61.219 37.284
O 34.074 64.267 46.582
O 28.566 60.137 43.225
O 39.563 62.225 31.07
O 35.681 68.425 39.15
O 40.502 58.425 30.405
O 34.821 68.652 36.56
O 35.843 64.144 45.28
O 36.849 64.13 38.33
O 42.512 64.701 36.49
O 31.612 63.976 40.661
O 29.415 64.564 38.189
O 29.251 61.711 40.82
O 41.915 55.924 36.92
O 34.303 62.494 41.642
O 35.879 57.619 36.81
O 38.278 56.39 34.887
O 32.022 63.804 38.5
O 33.204 55.026 41.103
O 36.772 61.67 37.716
O 31.13 55.868 33.737
O 26.658 61.408 43.162
O 34.096 66.866 37.684
O 40.227 57.338 34.477
O 35.277 59.994 30.358
O 35.641 60.734 40.835
O 27.453 65.675 43.042
O 33.687 53.546 30.518
O 34.412 62.958 30.545
O 29.457 54.438 36.791
O 38.169 64.465 40.819
O 40.535 57.907 37.278
O 32.349 54.56 38.524
O 35.826 54.847 38.167
O 31.392 56.378 39.587
O 35.041 64.222 34.011
O 32.397 53.663 28.188
O 35.254 60.288 36.134
O 36.904 54.586 41.793
O 31.361 60.244 34.288
O 31.285 52.849 34.228
O 33.747 62.702 36.677
O 29.291 53.725 39.126
O 40.455 55.642 38.693
O 35.44 54.642 28.067
O 29.41 58.085 34.515
O 29.615 57.402 37.347
O 39.134 55.815 32.179
O 40.224 65.104 34.051
O 38.662 70.096 38.776
O 38.547 65.3 29.963
O 31.295 58.776 31.78
O 36.061 67.482 45.142
O 34.707 55.884 33.208
O 36.981 68.8 36.949
O 27.34 60.318 36.531
O 29.126 52.297 30.21
O 31.187 61.561 44.972
O 31.129 63.323 33.11
O 39.413 66.158 35.805
O 37.305 72.804 37.689
O 35.423 61.272 34.117
O 33.038 56.375 30.754
O 38.37 58.492 36.904
O 42.012 67.128 29.474
O 37.669 56.619 40.494
O 35.059 57.15 28.243
O 29.251 62.415 35.392
O 38.052 59.85 42.629
O 41.973 63.089 34.166
O 26.011 55.067 40.228
O 40.529 69.2 35.079
O 35.275 54.96 31.084
O 31.907 51.609 30.454
O 39.258 63.299 36.579
O 30.718 55.772 29.42
O 38.266 65.462 32.948
O 35.321 64.73 36.865
O 28.691 56.212 38.95
O 41.026 65.701 31.399
O 31.325 60.57 36.467
O 39.422 58.85 32.292
O 26.258 57.448 38.043
O 33.79 61.374 38.43
O 28.058 60.946 39.135
O 38.49 63.281 46.223
O 32.599 53.517 36.145
O 44.457 62.713 34.642
O 30.686 61.382 39.184
O 43.023 69.042 36.623
O 39.213 66.005 38.559
O 31.411 56.074 42.243
O 36.132 57.776 33.006
O 29.996 63.967 43.94
O 40.835 70.15 38.439
O 26.595 57.174 35.885
O 25.994 58.043 40.664
H 38.772 66.554 39.22
H 39.05 65.104 38.864
H 34.764 60.575 34.009
H 35.759 61.41 33.223
H 43.502 69.382 35.857
H 32.141 54.501 27.784
H 33.219 53.433 27.738
H 42.629 68.264 31.667
H 29.644 53.101 30.343
H 35.456 55.846 33.815
H 33.939 55.891 33.793
H 30.393 60.477 39.352
H 31.457 61.483 39.757
H 30.842 62.633 32.5
H 31.678 63.899 32.563
H 37.777 73.34 38.339
H 38.785 66.494 36.458
H 39.439 66.852 35.134
H 37.473 69.055 36.158
H 37.154 67.854 37.031
H 30.821 59.229 31.071
H 31.987 58.287 31.317
H 32.994 60.84 38.32
H 33.472 62.172 38.87
H 38.32 64.363 29.929
H 37.755 65.74 29.629
H 37.713 70.233 38.659
H 38.712 69.317 39.344
H 36.488 66.658 44.875
H 36.498 68.152 44.602
H 28.932 57.254 34.635
H 29.321 58.526 35.369
H 39.747 56.148 39.11
H 34.966 54.698 27.228
H 35.317 53.725 28.34
H 39.603 58.062 34.344
H 30.13 54.135 38.882
H 40.728 57.313 33.652
H 35.003 66.697 37.969
H 33.611 66.974 38.512
H 36.211 60.16 30.536
H 35.26 59.762 29.421
H 31.256 63.303 38.192
H 32.212 64.404 37.769
H 38.722 55.731 34.339
H 37.932 55.877 35.628
H 34.158 54.99 41.243
H 33.749 61.978 41.043
H 36.556 57.518 36.129
H 36.072 56.906 37.432
H 33.671 62.903 42.245
H 29.497 65.504 38.392
H 29.015 64.553 37.311
H 29.434 62.407 41.463
H 28.611 61.145 41.27
H 30.651 64.063 40.675
H 31.776 63.158 41.147
H 36.206 60.265 35.973
H 35.141 59.728 36.912
H 41.675 62.948 33.259
H 42.57 63.845 34.097
H 30.871 61.025 34.002
H 30.929 59.518 33.821
H 33.055 63.03 36.09
H 39.278 63.573 35.654
H 38.316 63.217 36.773
H 34.397 62.319 36.074
H 26.83 61.877 42.336
H 27.09 61.954 43.831
H 36.942 61.558 38.66
H 35.814 61.778 37.667
H 30.595 56.373 33.112
H 31.852 55.524 33.196
H 31.86 53.37 33.654
H 30.585 53.467 34.474
H 36.354 54.959 41.093
H 38.457 60.378 43.328
H 37.718 60.51 42.008
H 33.616 52.858 29.845
H 33.117 54.251 30.186
H 33.497 63.048 30.838
H 34.923 63.048 31.359
H 35.579 64.437 33.239
H 26.496 60.509 36.96
H 27.613 61.172 36.173
H 34.19 64.637 33.82
H 38.257 58.176 37.809
H 29.767 55.065 36.127
H 28.81 53.902 36.316
H 37.64 65.231 40.564
H 38.902 64.849 41.317
H 37.982 59.375 36.918
H 29.503 52.785 39.184
H 30.799 55.829 40.115
H 32.05 56.682 40.224
H 40.753 58.258 36.405
H 40.057 57.091 37.085
H 33.024 54.835 37.891
H 35.253 60.753 39.952
H 36.144 61.557 40.883
H 35.155 54.64 38.829
H 36.597 55.095 38.692
H 35.098 67.984 39.781
H 36.28 68.935 39.71
H 38.57 65.019 32.146
H 37.695 66.167 32.617
H 35.601 64.16 36.137
H 34.38 64.865 36.701
H 32.889 67.809 42.33
H 35.052 68.897 35.655
H 34.041 69.188 36.75
H 31.485 68.352 42.528
H 33.384 64.533 45.961
H 40.114 62.96 30.772
H 38.954 62.081 30.335
H 28.305 59.886 44.12
H 29.344 59.592 43.052
H 35.113 64.064 44.653
H 36.63 64.103 44.723
H 42.936 65.206 35.786
H 36.876 63.692 39.19
H 36.763 65.065 38.551
H 29.046 62.154 34.486
H 30.196 62.615 35.364
H 31.405 64.426 35.679
H 32.254 65.654 35.958
H 37.333 55.72 29.05
H 37.838 56.939 29.803
H 37.038 57.05 41.084
H 37.423 56.942 39.619
H 31.481 57.862 35.968
H 31.623 56.437 36.475
H 39.896 60.674 37.088
H 39.137 61.296 38.247
H 26.115 58.011 35.921
H 26.764 57.047 34.943
H 34.093 65.179 40.788
H 35.244 64.204 40.613
H 36.921 57.769 32.449
H 35.414 57.95 32.385
H 30.446 64.498 44.609
H 29.439 63.372 44.457
H 33.479 62.718 33.014
H 32.852 61.967 34.175
H 36.872 62.404 35.326
H 37.3 63.713 34.686
H 34.999 60.807 44.701
H 36.023 61.91 44.905
H 42.178 64.157 38.975
H 41.138 64.938 38.191
H 35.409 53.807 36.273
H 35.834 55.214 35.889
H 35.143 58.222 41.891
H 33.726 57.929 41.431
H 38.917 58.133 41.49
H 41.092 69.619 35.741
H 40.962 69.411 34.242
H 32.156 66.398 45.705
H 32.633 67.825 45.498
H 42.162 62.267 36.198
H 31.045 54.893 29.65
H 31.481 56.202 29.015
H 35.772 54.471 30.416
H 35.877 55.667 31.346
H 33.332 61.058 29.913
H 32.657 59.705 29.771
H 31.485 66.182 43.621
H 31.607 65.454 42.294
H 32.672 60.473 32.417
H 33.889 59.58 32.252
H 26.379 58.926 40.599
H 31.262 61.334 37.055
H 31.403 59.822 37.072
H 41.006 65.443 30.469
H 41.894 66.11 31.505
H 40.945 64.153 41.756
H 42.299 64.294 42.43
H 28.816 56.714 39.766
H 28.044 55.538 39.193
H 33.926 56.534 36.12
H 33.57 57.614 35.114
H 31.829 58.86 39.992
H 32.58 58.282 38.806
H 36.349 66.518 34.322
H 36.837 65.907 35.623
H 42.439 61.713 31.606
H 43.108 61.313 32.91
H 37.524 67.215 41.601
H 36.205 67.605 42.245
H 40.453 60.436 34.316
H 39.887 61.839 34.19
H 33.397 59.588 43.813
H 41.03 65.325 33.568
H 40.296 59.232 32.442
H 39.956 64.256 33.675
H 38.817 59.525 32.626
H 28.169 61.81 38.719
H 28.383 60.327 38.469
H 38.835 56.732 32.131
H 25.429 57.649 38.496
H 26.92 57.501 38.743
H 28.839 57.029 36.91
H 29.278 58.202 37.768
H 32.095 60.271 43.432
H 37.061 59.047 40.145
H 38.211 59.964 39.769
H 32.292 54.302 35.674
H 39.8 60.892 41.021
H 39.726 62.388 41.27
H 32.56 69.246 38.972
H 32.633 69.025 40.472
H 35.851 56.79 27.825
H 35.227 57.038 29.187
H 34.531 57.256 38.964
H 34.973 58.493 39.727
H 38.182 65.963 43.628
H 39.364 65.017 43.522
H 27.809 63.929 39.608
H 26.673 63.824 40.611
H 37.377 54.828 27.039
H 41.409 66.955 36.273
H 40.942 67.08 37.713
H 33.955 66.659 34.656
H 33.214 67.964 34.886
H 37.652 71.602 35.628
H 36.291 70.928 35.613
H 33.504 56.707 31.532
H 36.674 64.478 42.437
H 35.786 65.498 43.127
H 32.178 56.106 31.099
H 40.538 67.456 33.327
H 39.458 68.143 32.51
H 36.717 68.844 32.64
H 36.406 69.431 34.005
