305
xyz format
O 68.359 43.086 54.523
O 61.102 36.683 55.334
O 63.38 32.816 56.995
O 69.063 34.281 57.54
O 71.236 40.427 49.196
O 60.59 39.059 52.721
O 63.448 36.398 59.761
O 64.17 33.117 48.956
O 69.456 35.353 54.513
O 60.196 35.981 57.618
O 64.14 35.152 56.3
O 75.05 43.422 56.897
O 63.509 35.883 46.965
O 62.098 31.907 51.568
O 65.989 41.157 61.39
O 62.904 31.666 54.133
O 67.296 31.438 55.417
O 72.978 36.736 54.334
O 64.629 31.378 60.664
O 66.14 43.802 53.398
O 74.787 41.464 51.604
O 69.345 41.933 58.581
O 69.07 44.581 57.195
O 69.742 33.516 53.337
O 65.584 36.578 46.605
O 65.216 34.181 61.503
O 74.228 38.59 56.528
O 63.943 37.252 50.03
O 61.029 38.18 50.048
O 63.755 33.909 52.547
O 62.591 35.002 50.5
O 64.067 41.072 56.855
O 67.157 36.481 56.673
O 63.183 34.26 59.274
O 64.053 41.016 60.357
O 70.231 31.588 56.036
O 66.119 29.495 53.873
O 68.805 38.811 66.129
O 66.986 42.563 49.955
O 60.977 37.685 58.77
O 67.957 29.996 50.551
O 65.474 34.816 58.02
O 68.683 34.041 48.925
O 66.274 30.527 58.281
O 68.861 31.524 60.829
O 61.991 41.178 50.57
O 68.392 41.272 55.898
O 66.915 40.92 53.767
O 68.973 30.499 53.348
O 63.251 35.457 62.214
O 60.895 35.423 60.618
O 73.4 37.316 49.901
O 65.478 33.409 63.918
O 64.435 39.502 50.039
O 66.349 33.769 46.959
O 69.784 35.492 51.381
O 65.903 43.125 57.056
O 66.7 32.576 50.147
O 71.021 36.693 56.206
O 66.581 36.905 53.668
O 63.009 38.757 59.777
O 67.153 39.17 51.721
O 76.15 42.245 55.385
O 72.258 39.458 51.406
O 62.748 38.229 57.524
O 68.57 43.342 51.808
O 71.505 31.613 53.708
O 68.528 33.361 62.826
O 66.965 32.37 52.918
O 74.46 36.18 52.49
O 68.2 38.386 55.036
O 69.972 37.71 59.081
O 65.635 38.831 58.909
O 69.376 38.541 61.65
O 66.43 35.696 51.309
O 70.441 37.551 65.37
O 72.893 43.61 51.991
O 59.266 36.379 51.227
O 67.589 36.583 63.648
O 64.654 39.384 52.712
O 70.71 33.893 59.118
O 72.584 34.022 52.243
O 70.68 38.392 52.51
O 62.552 38.645 54.658
O 67.142 37.872 60.19
O 71.309 40.347 64.498
O 71.313 39.745 56.801
O 69.778 41.124 54.197
O 66.476 35.428 49.127
O 64.577 30.162 51.188
O 74.956 38.05 53.538
O 65.466 38.983 56.324
O 63.389 41.099 54.481
O 67.555 37.264 48.467
O 66.154 41.001 58.781
O 69.57 38.454 49.617
O 69.548 31.46 58.123
O 67.077 39.77 48.91
O 62.634 36.921 52.631
O 72.055 41.22 54.258
O 74.722 40.866 57.304
O 71.877 38.432 62.4
O 69.443 41.708 62.433
O 66.282 34.326 55.018
O 67.151 35.459 61.34
O 61.865 32.074 61.152
O 68.231 39.781 60.081
O 70.797 34.651 48.911
O 62.973 37.804 62.188
H 61.663 38.974 54.839
H 62.73 38.946 53.759
H 67.801 35.242 60.661
H 66.44 35.89 60.849
H 69.06 44.009 51.312
H 68.945 42.506 51.501
H 71.217 30.759 53.364
H 71.663 32.139 52.914
H 67.956 37.376 60.038
H 67.142 38.026 61.143
H 66.193 33.58 55.624
H 67.167 34.219 54.649
H 60.12 35.978 51.432
H 68.212 36.816 49.014
H 72.0 43.571 52.357
H 73.363 42.907 52.456
H 69.868 42.483 62.819
H 68.977 42.06 61.665
H 63.153 37.592 56.922
H 62.325 38.865 56.935
H 75.093 40.57 58.145
H 73.935 41.361 57.563
H 72.002 40.262 54.152
H 71.885 41.559 53.37
H 73.793 36.627 51.954
H 75.022 35.743 51.838
H 72.72 40.018 52.041
H 72.652 38.587 51.539
H 65.356 37.907 58.872
H 66.427 38.853 58.359
H 69.896 38.627 58.79
H 70.826 37.429 58.729
H 68.049 38.49 54.088
H 69.145 38.198 55.098
H 62.717 40.61 50.855
H 68.917 31.353 52.903
H 68.888 29.86 52.63
H 64.069 35.631 62.695
H 62.962 34.601 62.555
H 69.947 31.161 58.95
H 68.909 30.767 57.913
H 66.715 38.682 51.012
H 67.491 39.96 51.281
H 67.914 40.443 55.771
H 68.136 41.55 56.786
H 69.264 33.171 62.231
H 66.618 31.568 53.328
H 66.278 40.981 57.824
H 66.063 41.941 58.98
H 66.26 33.017 53.045
H 69.377 38.704 50.529
H 70.269 37.794 49.704
H 67.722 40.549 53.388
H 66.476 34.467 49.042
H 65.565 35.676 48.926
H 76.605 41.853 56.142
H 69.81 40.183 53.986
H 69.685 41.55 53.336
H 76.659 41.935 54.626
H 70.151 33.433 59.758
H 70.809 33.255 58.401
H 66.907 37.586 49.106
H 72.26 34.859 51.888
H 72.709 34.204 53.183
H 64.42 40.158 52.185
H 64.777 38.688 52.055
H 68.243 36.054 63.174
H 67.643 37.448 63.223
H 70.606 38.201 53.454
H 70.428 37.562 52.087
H 69.237 34.867 50.889
H 70.388 35.842 50.715
H 64.854 40.371 50.009
H 64.485 39.191 49.126
H 63.801 38.548 60.288
H 62.36 39.0 60.448
H 65.748 42.647 56.232
H 66.58 43.772 56.822
H 66.609 32.913 47.322
H 66.299 40.936 53.024
H 65.959 33.547 46.105
H 72.67 36.702 50.046
H 73.045 37.948 49.262
H 61.142 34.778 61.292
H 60.454 36.12 61.119
H 65.852 32.467 50.596
H 67.267 32.969 50.822
H 70.246 37.075 56.637
H 71.07 37.164 55.364
H 67.286 36.436 53.204
H 65.786 36.671 53.174
H 70.811 40.434 63.675
H 70.009 37.862 61.387
H 65.82 35.647 58.367
H 66.242 34.232 58.012
H 65.585 31.166 58.058
H 68.302 30.777 61.076
H 68.33 32.003 60.181
H 66.91 31.045 58.789
H 60.048 37.666 59.032
H 61.431 37.246 59.5
H 67.407 41.695 49.926
H 63.578 41.631 53.698
H 64.218 40.633 54.647
H 69.051 33.152 49.011
H 68.406 34.086 48.002
H 67.995 30.894 50.902
H 62.659 34.351 58.469
H 63.741 40.81 59.467
H 71.045 31.123 55.803
H 70.303 32.427 55.564
H 72.177 39.464 57.124
H 71.219 39.28 55.96
H 63.466 34.666 55.807
H 64.202 35.994 55.833
H 61.07 35.574 57.564
H 63.53 33.361 59.221
H 64.389 33.46 51.975
H 64.269 34.124 53.336
H 63.204 35.464 51.085
H 61.949 34.61 51.105
H 64.235 41.736 57.535
H 63.989 40.248 57.353
H 65.349 29.176 53.387
H 66.857 29.313 53.278
H 66.904 36.302 55.758
H 66.54 37.169 56.951
H 64.721 36.984 50.534
H 63.379 37.679 50.688
H 60.586 37.739 49.312
H 60.635 39.061 50.058
H 75.165 38.59 56.759
H 73.847 37.926 57.115
H 66.305 35.962 46.785
H 65.641 37.216 47.328
H 64.674 33.441 61.807
H 65.18 34.112 60.541
H 69.004 40.286 60.364
H 68.176 39.958 59.134
H 63.922 37.815 62.362
H 70.406 35.225 48.241
H 71.683 35.013 49.035
H 75.57 41.95 51.891
H 74.828 40.644 52.111
H 75.694 37.52 53.865
H 74.587 38.447 54.337
H 68.619 42.112 59.192
H 70.098 41.765 59.163
H 68.649 45.181 56.567
H 65.847 39.687 55.784
H 64.728 38.66 55.792
H 66.155 43.108 52.727
H 65.279 44.222 53.274
H 69.085 33.53 52.63
H 70.49 34.0 52.964
H 62.293 31.868 60.312
H 69.443 38.556 62.613
H 74.146 43.549 57.211
H 75.506 44.225 57.18
H 67.686 39.449 48.234
H 66.339 40.13 48.402
H 62.986 36.758 53.515
H 61.678 36.943 52.766
H 72.733 35.864 54.668
H 72.363 36.884 53.605
H 65.158 31.955 60.099
H 66.908 36.49 51.038
H 67.131 35.059 51.495
H 65.888 41.873 62.03
H 66.922 41.197 61.147
H 72.193 38.37 61.489
H 72.516 37.908 62.9
H 61.852 32.648 52.136
H 62.115 32.293 50.683
H 64.737 30.839 51.856
H 68.888 35.479 55.284
H 69.507 36.233 54.119
H 64.297 33.779 49.647
H 63.933 32.319 49.444
H 63.401 36.427 58.797
H 64.334 36.058 59.937
H 69.773 34.854 57.225
H 68.312 34.879 57.64
H 72.075 40.901 49.254
H 71.501 39.506 49.079
H 62.845 32.628 54.099
H 61.991 31.375 54.013
H 67.582 30.553 55.158
H 68.043 31.781 55.924
H 61.31 39.333 52.138
H 68.338 43.926 54.048
H 67.497 43.045 54.956
H 60.784 36.135 54.606
H 62.015 36.395 55.456
H 63.642 32.358 56.187
H 62.857 32.159 57.472
