124
xyz format
O 28.288 44.115 42.157
O 31.442 49.918 38.638
O 27.779 46.239 43.778
O 29.555 46.662 46.322
O 29.172 50.2 48.425
O 31.434 51.37 36.637
O 33.267 49.089 41.3
O 32.099 40.922 43.526
O 33.548 46.777 43.633
O 32.254 53.515 45.469
O 31.749 47.537 40.849
O 32.252 49.193 47.517
O 25.959 43.248 47.027
O 31.602 42.544 45.783
O 30.816 47.124 43.877
O 29.347 42.171 45.413
O 27.725 46.583 48.447
O 33.894 43.538 40.384
O 31.234 43.464 43.251
O 35.034 50.578 40.027
O 29.309 49.506 45.239
O 26.765 48.709 43.978
O 27.948 43.245 48.572
O 30.996 43.925 48.06
O 29.399 52.358 46.08
O 27.318 50.233 41.013
O 34.023 53.09 43.91
O 29.516 50.703 41.081
O 30.592 46.561 48.669
O 32.52 45.173 45.866
O 30.83 45.234 41.651
O 30.927 53.199 40.867
O 30.721 49.255 42.815
O 34.483 52.707 40.128
O 32.8 48.774 45.137
O 32.19 51.182 42.566
O 33.689 45.502 38.67
O 33.872 50.523 36.959
O 26.018 45.269 48.0
O 28.574 44.703 46.284
H 34.426 50.687 44.28
H 31.498 46.231 48.628
H 30.071 45.776 48.881
H 33.49 53.268 43.125
H 33.815 47.679 38.335
H 33.686 49.679 37.39
H 27.783 51.795 44.153
H 30.335 52.209 46.263
H 28.948 51.757 46.686
H 30.213 50.563 40.428
H 29.982 51.086 41.835
H 28.316 43.886 49.193
H 30.041 49.453 45.866
H 29.304 50.434 44.971
H 27.721 48.576 43.969
H 29.392 52.872 43.109
H 26.395 49.146 47.893
H 32.927 54.104 41.17
H 31.205 46.474 44.475
H 30.426 47.777 44.472
H 30.621 45.073 50.97
H 31.79 44.386 50.287
H 30.585 42.954 43.75
H 31.742 43.92 43.934
H 28.245 46.072 52.061
H 33.936 43.348 44.025
H 31.548 48.788 42.642
H 30.901 49.748 43.625
H 34.759 50.573 39.101
H 28.692 42.215 46.121
H 31.149 52.95 41.773
H 31.364 52.526 40.33
H 33.075 43.562 40.895
H 27.49 50.506 41.923
H 29.503 52.785 39.184
H 27.93 46.11 49.262
H 28.47 47.187 48.338
H 30.495 45.408 42.54
H 26.428 43.685 43.892
H 31.776 45.095 41.786
H 31.937 45.279 46.629
H 32.425 41.532 41.439
H 26.6 42.629 46.656
H 25.634 42.797 47.816
H 32.528 42.808 45.852
H 31.118 43.359 45.965
H 32.467 46.457 50.593
H 31.484 53.501 44.886
H 28.443 44.289 45.422
H 31.497 48.593 47.463
H 27.763 44.495 46.764
H 26.492 44.968 50.995
H 30.814 47.356 41.009
H 32.056 46.755 40.374
H 29.5 42.44 41.407
H 33.205 45.976 43.217
H 33.945 46.458 44.453
H 35.235 49.822 42.084
H 30.47 46.917 46.494
H 29.091 47.506 46.25
H 26.318 44.71 48.728
H 25.117 45.508 48.251
H 32.488 41.693 43.956
H 31.222 40.855 43.924
H 33.873 45.615 39.611
H 32.736 45.639 38.605
H 32.606 49.713 45.027
H 33.673 48.672 44.737
H 30.058 43.837 47.85
H 34.705 52.812 41.061
H 33.615 52.284 40.144
H 32.481 51.351 43.471
H 32.977 51.359 42.036
H 32.1 50.622 38.596
H 31.533 49.467 37.79
H 28.468 46.382 44.439
H 27.003 46.003 44.302
H 29.206 49.268 48.175
H 32.043 51.162 35.917
H 30.916 52.108 36.292
H 28.386 45.065 42.017
H 28.785 43.95 42.968
H 33.096 49.687 40.562
H 33.879 48.44 40.931
