263
xyz format
Cl 64.214 44.247 60.337
O 54.575 43.013 67.823
O 63.229 49.027 63.19
O 60.252 42.998 62.523
O 55.378 40.424 69.073
O 60.311 48.424 64.719
O 65.438 44.001 70.604
O 55.757 39.152 67.204
O 64.694 41.658 68.189
O 65.515 50.061 67.201
O 65.984 48.353 72.97
O 63.682 51.245 66.618
O 59.913 34.417 65.395
O 67.252 43.596 62.101
O 68.357 48.068 68.253
O 60.87 45.858 66.347
O 64.93 40.913 70.963
O 61.12 35.495 70.299
O 62.268 49.56 69.406
O 59.521 47.544 70.035
O 58.929 40.688 62.381
O 63.065 48.889 72.287
O 67.902 36.888 68.453
O 59.475 44.985 61.593
O 69.271 43.885 67.427
O 59.769 50.395 70.355
O 61.378 51.59 68.789
O 63.951 44.895 67.329
O 57.282 42.24 61.23
O 68.805 38.811 66.129
O 67.853 48.054 64.624
O 65.077 35.392 65.902
O 56.375 46.639 69.781
O 64.232 40.062 62.331
O 64.688 38.506 65.185
O 60.249 38.508 63.968
O 55.73 44.345 65.835
O 60.895 35.423 60.618
O 65.078 46.072 59.477
O 65.478 33.409 63.918
O 58.777 43.403 65.603
O 56.806 42.436 65.682
O 61.444 47.632 73.521
O 62.869 34.55 68.12
O 63.218 39.463 67.738
O 67.189 45.932 71.068
O 56.881 44.175 67.708
O 65.797 38.013 67.021
O 62.695 41.199 68.982
O 64.287 33.038 66.929
O 61.065 47.323 62.157
O 65.009 47.781 61.968
O 63.746 48.714 65.983
O 61.827 44.232 70.126
O 67.38 33.776 65.297
O 62.04 34.867 65.062
O 58.568 45.13 70.561
O 56.197 39.221 61.485
O 62.853 44.146 62.449
O 57.788 41.35 72.185
O 60.783 41.805 66.739
O 69.376 38.541 61.65
O 62.059 41.298 64.773
O 71.486 42.916 64.245
O 65.934 43.22 65.333
O 70.441 37.551 65.37
O 70.712 46.232 66.163
O 57.834 39.373 65.035
O 67.589 36.583 63.648
O 59.971 48.903 67.52
O 68.013 40.036 68.603
O 68.165 45.241 64.78
O 61.007 36.409 67.457
O 59.362 40.431 69.088
O 67.26 41.036 63.534
O 58.55 37.607 67.065
O 55.738 41.345 62.921
O 61.113 32.967 68.549
O 63.256 47.005 70.675
O 62.493 38.106 65.071
O 66.34 45.882 66.399
O 57.759 47.152 66.821
O 65.422 51.232 71.391
O 69.844 42.63 69.617
O 57.452 37.525 70.293
O 62.226 47.078 67.782
O 58.655 46.414 64.366
O 69.148 41.817 65.804
O 60.214 38.647 70.545
O 65.242 50.684 64.256
O 62.204 51.375 64.503
O 57.812 48.611 72.06
O 61.593 43.859 64.625
O 63.46 46.096 63.813
O 61.245 42.632 60.381
O 60.575 36.57 72.614
O 53.394 41.588 65.588
O 62.973 37.804 62.188
H 68.5 40.288 69.398
H 67.124 39.848 68.929
H 56.529 41.663 63.375
H 57.957 37.187 67.701
H 59.057 38.229 67.601
H 60.416 36.074 66.772
H 61.335 37.24 67.091
H 68.941 44.92 64.304
H 67.5 45.351 64.088
H 61.964 41.694 68.59
H 62.258 40.472 69.442
H 58.095 39.04 64.167
H 58.331 40.196 65.124
H 59.707 41.146 68.539
H 58.559 40.156 68.629
H 67.528 40.222 63.98
H 67.032 41.63 64.259
H 60.702 48.127 62.55
H 70.375 48.29 69.265
H 66.812 46.3 70.259
H 62.05 35.534 64.365
H 62.086 34.031 64.58
H 66.416 45.702 71.598
H 68.211 33.381 65.003
H 66.866 33.021 65.611
H 71.523 46.318 66.68
H 70.014 46.454 66.792
H 62.655 41.812 65.332
H 62.491 41.306 63.91
H 66.208 43.663 66.146
H 65.896 43.935 64.685
H 56.138 44.738 67.962
H 57.652 44.74 67.84
H 66.036 38.947 67.084
H 65.612 37.761 67.934
H 63.074 51.066 64.223
H 61.883 50.667 65.076
H 71.084 37.049 64.854
H 70.878 38.398 65.521
H 65.247 49.905 64.826
H 61.806 47.099 62.734
H 64.729 33.228 66.092
H 57.003 39.215 62.015
H 63.387 32.807 66.666
H 59.434 38.439 70.016
H 60.904 38.795 69.887
H 62.475 44.947 70.163
H 62.046 43.767 69.309
H 58.575 41.017 71.736
H 62.918 44.977 61.962
H 69.263 40.928 65.446
H 69.381 42.393 65.064
H 60.235 41.193 66.23
H 60.737 42.627 66.235
H 62.733 43.484 61.756
H 60.557 39.313 63.532
H 60.415 37.817 63.315
H 57.442 36.584 70.506
H 56.963 37.931 71.019
H 63.603 38.591 67.585
H 63.649 40.022 67.079
H 53.913 41.632 64.775
H 64.584 48.281 66.189
H 63.113 47.986 65.953
H 65.453 47.239 61.304
H 64.342 48.263 61.464
H 61.303 47.177 68.048
H 62.659 46.737 68.574
H 56.039 41.872 65.516
H 57.223 42.033 66.453
H 58.604 44.125 64.987
H 65.809 50.49 71.871
H 58.898 42.636 65.029
H 65.474 46.27 66.221
H 60.141 49.668 66.957
H 66.451 45.995 67.351
H 67.643 37.448 63.223
H 59.196 49.164 68.033
H 60.423 33.577 68.26
H 64.054 47.301 71.13
H 62.623 46.865 71.39
H 55.033 43.985 65.273
H 56.385 44.671 65.207
H 62.674 35.375 68.583
H 62.227 34.534 67.4
H 66.157 32.849 63.522
H 64.693 32.847 63.925
H 60.823 47.288 74.176
H 64.415 40.618 63.098
H 63.268 40.013 62.308
H 64.305 39.34 64.884
H 64.798 37.997 64.373
H 63.039 44.759 67.614
H 64.469 44.706 68.121
H 68.458 38.555 65.265
H 68.113 39.374 66.497
H 67.538 47.394 65.254
H 62.327 38.719 65.798
H 62.859 37.326 65.507
H 59.201 49.747 70.789
H 60.287 50.768 71.079
H 60.548 51.215 68.469
H 61.099 52.35 69.315
H 62.598 37.411 62.985
H 63.922 37.815 62.362
H 68.607 44.393 67.91
H 69.038 44.024 66.501
H 60.399 47.926 69.909
H 59.263 47.268 69.147
H 58.649 41.508 62.806
H 59.503 40.987 61.664
H 63.094 49.766 71.884
H 63.811 48.894 72.9
H 68.181 37.585 67.846
H 67.299 36.35 67.923
H 59.99 45.679 61.163
H 59.221 44.403 60.865
H 64.79 36.308 65.999
H 65.94 35.375 66.335
H 62.141 49.246 68.502
H 63.193 49.358 69.592
H 61.688 36.167 70.695
H 69.153 42.353 69.002
H 69.837 43.593 69.55
H 60.176 36.752 73.474
H 60.976 37.411 72.364
H 60.668 35.967 69.589
H 69.443 38.556 62.613
H 57.998 47.118 64.293
H 63.393 52.078 66.226
H 62.902 50.931 67.092
H 59.352 46.686 63.756
H 63.991 40.857 70.743
H 65.263 41.601 70.374
H 66.744 44.403 62.254
H 67.903 43.597 62.815
H 61.446 44.633 64.068
H 62.011 44.221 65.416
H 67.792 47.369 68.603
H 60.005 33.488 65.149
H 55.803 39.296 66.25
H 56.669 38.954 67.45
H 65.664 43.696 69.717
H 64.548 43.656 70.746
H 61.044 48.466 65.346
H 59.531 48.346 65.283
H 57.648 46.333 66.323
H 59.754 43.491 63.187
H 58.705 47.176 67.014
H 60.771 42.372 63.044
H 65.334 40.935 68.214
H 65.191 42.391 67.803
H 66.301 47.829 73.716
H 66.295 47.865 72.198
H 66.43 50.328 67.356
H 65.069 50.278 68.029
H 60.365 42.471 60.02
H 61.384 41.892 60.986
H 60.43 46.378 65.664
H 60.142 45.517 66.881
H 54.362 42.899 68.757
H 64.326 46.492 63.972
H 63.004 46.196 64.658
H 62.421 49.014 63.717
H 63.048 49.687 62.509
