217
xyz format
O 34.964 69.177 43.22
O 27.281 63.282 40.092
O 28.13 60.544 48.062
O 30.136 64.261 49.929
O 33.547 55.93 43.381
O 29.178 61.196 49.884
O 26.849 60.057 54.334
O 30.798 55.98 50.701
O 30.685 62.111 51.835
O 32.873 59.85 43.046
O 26.463 66.289 46.959
O 29.263 57.353 47.75
O 24.982 60.288 44.773
O 26.283 62.573 46.28
O 24.853 62.174 53.682
O 33.895 62.403 48.551
O 32.05 65.561 43.145
O 29.255 55.539 42.532
O 31.879 55.375 48.019
O 25.847 57.847 47.837
O 31.974 67.306 45.976
O 24.341 60.734 42.301
O 34.384 57.658 42.083
O 27.409 57.141 42.66
O 35.206 61.71 44.431
O 34.706 64.629 41.292
O 29.459 67.221 47.295
O 31.973 67.659 42.066
O 29.931 55.761 44.616
O 24.083 55.899 43.304
O 34.074 64.267 46.582
O 28.566 60.137 43.225
O 28.001 55.325 50.766
O 29.895 70.243 51.165
O 31.681 64.007 47.357
O 31.612 63.976 40.661
O 29.415 64.564 38.189
O 29.251 61.711 40.82
O 26.362 55.899 44.144
O 34.303 62.494 41.642
O 28.74 68.696 48.934
O 26.658 61.408 43.162
O 31.815 57.263 45.075
O 27.453 65.675 43.042
O 27.349 60.726 52.297
O 31.949 61.294 48.233
O 29.75 66.513 51.072
O 32.416 70.089 49.615
O 26.554 55.236 47.178
O 30.982 59.397 51.281
O 32.798 64.958 50.387
O 24.858 59.765 52.328
O 28.553 66.023 53.282
O 28.277 58.144 45.471
O 31.187 61.561 44.972
O 28.05 64.412 46.663
O 32.056 63.298 53.082
O 24.032 62.468 48.26
O 31.017 70.342 47.136
O 27.727 63.301 54.51
O 26.189 66.308 50.019
O 26.172 65.533 53.707
O 26.011 55.067 40.228
O 29.809 57.686 52.617
O 28.119 58.058 51.151
O 28.691 56.212 38.95
O 30.045 68.417 54.438
O 31.771 65.823 54.513
O 26.258 57.448 38.043
O 33.263 70.338 46.724
O 28.058 60.946 39.135
O 34.507 67.204 46.762
O 25.482 63.546 50.171
O 27.915 63.368 51.704
O 30.686 61.382 39.184
O 27.673 64.819 49.37
O 29.996 63.967 43.94
O 24.315 54.869 47.922
O 25.994 58.043 40.664
H 32.406 63.661 52.259
H 31.104 69.565 47.702
H 30.257 70.135 46.578
H 31.399 62.502 44.946
H 30.3 61.535 45.352
H 28.679 65.066 46.992
H 28.06 64.545 45.707
H 30.393 60.477 39.352
H 31.457 61.483 39.757
H 23.917 62.328 49.208
H 24.515 63.302 48.208
H 27.922 57.249 45.543
H 27.568 58.7 45.819
H 30.194 67.042 51.746
H 28.836 66.822 51.104
H 34.318 66.534 46.093
H 34.24 66.785 47.589
H 31.593 59.294 52.022
H 31.561 59.566 50.528
H 28.382 66.109 54.229
H 29.175 65.286 53.228
H 31.938 65.247 50.717
H 32.578 64.417 49.618
H 25.991 56.634 44.649
H 25.826 55.143 44.412
H 32.07 58.101 45.48
H 24.803 55.486 48.482
H 33.749 61.978 41.043
H 29.497 65.504 38.392
H 29.015 64.553 37.311
H 30.68 57.406 52.927
H 29.313 57.834 53.432
H 29.434 62.407 41.463
H 28.611 61.145 41.27
H 30.651 64.063 40.675
H 31.776 63.158 41.147
H 28.771 69.482 48.374
H 26.83 61.877 42.336
H 27.09 61.954 43.831
H 29.66 68.563 49.193
H 26.06 55.935 46.731
H 27.379 55.666 47.433
H 31.576 69.677 49.853
H 32.612 70.661 50.367
H 25.821 55.865 39.719
H 26.195 54.402 39.553
H 31.352 60.967 47.549
H 31.553 62.133 48.501
H 27.438 62.786 55.274
H 28.415 63.876 54.867
H 27.813 66.422 43.537
H 27.881 64.907 43.442
H 28.145 61.271 52.337
H 26.927 60.996 51.471
H 29.174 69.648 51.405
H 30.047 70.755 51.969
H 32.889 67.809 42.33
H 29.601 55.605 45.509
H 29.763 56.7 44.469
H 31.485 68.352 42.528
H 31.93 64.916 47.568
H 34.118 63.308 46.479
H 33.384 64.533 45.961
H 28.305 59.886 44.12
H 29.344 59.592 43.052
H 30.972 64.109 46.71
H 27.664 55.654 51.609
H 28.608 56.018 50.476
H 27.677 58.605 51.812
H 27.996 58.549 50.329
H 30.601 56.925 50.707
H 28.539 67.456 47.118
H 29.961 67.804 46.711
H 26.377 65.455 52.767
H 26.008 64.623 53.983
H 24.471 56.499 42.655
H 34.105 61.673 47.955
H 34.584 62.352 49.226
H 30.446 64.498 44.609
H 29.439 63.372 44.457
H 34.999 60.807 44.701
H 35.143 58.222 41.891
H 33.726 57.929 41.431
H 27.545 57.991 42.225
H 27.007 56.593 41.974
H 25.565 58.412 47.108
H 26.809 57.834 47.758
H 32.156 66.398 45.705
H 32.633 67.825 45.498
H 24.962 60.045 42.57
H 24.467 61.427 42.962
H 31.129 55.958 47.847
H 31.485 66.182 43.621
H 31.607 65.454 42.294
H 29.004 54.751 42.033
H 29.248 56.241 41.869
H 26.379 58.926 40.599
H 25.447 58.09 41.458
H 26.073 65.439 46.72
H 26.753 66.655 46.114
H 26.45 62.792 47.205
H 25.925 61.678 46.317
H 29.492 68.809 53.751
H 30.643 67.838 53.949
H 33.397 59.588 43.813
H 31.281 65.75 53.685
H 28.169 61.81 38.719
H 28.383 60.327 38.469
H 25.663 59.242 52.432
H 25.429 57.649 38.496
H 26.92 57.501 38.743
H 33.502 70.209 47.65
H 33.687 69.597 46.272
H 32.095 60.271 43.432
H 29.339 56.964 48.63
H 29.119 58.291 47.926
H 34.373 68.687 43.805
H 27.809 63.929 39.608
H 26.673 63.824 40.611
H 28.941 60.445 47.547
H 27.523 59.914 47.655
H 31.043 61.398 52.38
H 25.783 65.677 50.626
H 26.638 66.933 50.602
H 29.978 62.481 52.379
H 24.38 59.622 45.128
H 25.858 59.932 44.967
H 24.723 63.006 53.209
H 30.656 63.466 50.101
H 30.256 64.412 48.983
H 28.057 65.647 49.056
H 27.079 64.556 48.656
H 27.048 63.16 52.074
H 25.114 63.424 51.055
H 26.039 62.768 50.046
H 27.929 64.333 51.685
H 29.228 60.523 50.574
H 29.024 62.014 50.372
