364
xyz format
O 61.925 48.975 33.936
O 55.605 54.552 33.093
O 57.564 54.032 32.004
O 56.077 50.987 30.501
O 58.357 42.165 32.213
O 54.182 49.336 31.495
O 55.752 53.306 41.348
O 55.09 53.194 37.529
O 54.774 50.098 37.186
O 45.733 48.509 31.953
O 48.66 49.362 33.595
O 56.128 49.545 27.927
O 56.718 50.371 36.194
O 60.603 53.293 37.665
O 50.528 47.952 30.327
O 46.529 42.063 30.219
O 52.563 51.837 35.898
O 55.942 47.335 32.968
O 57.432 47.613 30.077
O 61.097 47.285 39.771
O 50.579 51.258 36.654
O 48.833 45.132 36.582
O 53.649 54.883 36.971
O 62.061 43.908 37.631
O 52.045 39.375 30.216
O 50.118 37.717 31.113
O 55.723 41.84 36.029
O 57.768 51.798 33.928
O 50.363 40.468 38.283
O 58.569 52.523 28.233
O 50.25 37.275 38.303
O 54.64 43.574 28.561
O 54.477 39.43 31.777
O 56.584 37.734 36.1
O 46.756 45.28 28.776
O 57.742 36.64 38.365
O 60.787 51.273 31.003
O 49.397 39.75 27.915
O 60.727 45.296 32.895
O 51.599 39.451 40.276
O 63.267 47.106 33.72
O 44.636 45.743 30.719
O 49.969 54.723 33.618
O 60.062 44.345 41.674
O 56.982 41.707 39.823
O 54.967 41.777 33.958
O 47.96 41.069 32.132
O 59.668 41.292 39.142
O 47.559 41.166 41.228
O 57.482 43.742 42.228
O 56.906 48.665 42.027
O 53.237 47.776 37.279
O 58.972 44.967 38.96
O 44.294 43.052 29.815
O 51.131 41.219 32.423
O 50.827 43.883 30.833
O 53.405 46.384 31.076
O 62.057 48.702 30.499
O 59.065 53.587 33.812
O 58.902 49.145 28.359
O 59.951 56.297 35.449
O 51.207 52.913 38.078
O 54.735 36.665 40.538
O 51.116 50.463 33.315
O 54.767 42.662 30.575
O 49.416 51.428 30.997
O 52.399 54.986 31.057
O 49.677 47.318 35.392
O 61.668 51.737 35.816
O 60.942 45.956 29.562
O 51.132 54.952 35.903
O 48.183 38.292 34.342
O 48.646 40.269 30.2
O 60.14 41.978 34.969
O 46.137 41.844 36.528
O 46.113 50.098 34.367
O 57.365 45.403 34.892
O 48.282 52.62 32.825
O 57.302 55.255 38.117
O 47.999 38.989 38.43
O 50.811 39.306 35.772
O 51.232 43.383 37.162
O 58.436 47.377 32.045
O 49.447 41.421 34.204
O 46.963 45.185 32.225
O 47.291 39.979 35.984
O 45.346 46.34 35.392
O 60.701 48.478 37.688
O 56.446 50.871 40.283
O 52.624 41.258 36.235
O 47.394 50.357 29.947
O 47.657 43.455 34.18
O 57.225 52.662 37.699
O 51.229 50.341 30.39
O 60.816 46.482 35.409
O 55.716 50.3 33.078
O 60.364 48.822 31.943
O 53.759 44.779 36.904
O 49.847 44.732 33.838
O 59.194 50.643 35.513
O 47.9 42.23 37.959
O 63.094 53.899 32.832
O 44.661 39.923 34.84
O 51.156 42.059 28.588
O 54.064 53.309 35.06
O 56.146 47.272 36.315
O 55.609 38.781 38.286
O 47.91 51.668 39.049
O 46.743 41.184 28.097
O 59.438 46.785 42.027
O 58.176 49.376 31.163
O 50.148 46.313 31.866
O 53.613 47.024 33.713
O 49.132 54.37 36.61
O 49.833 37.065 33.547
O 48.047 50.59 35.994
O 44.806 43.652 32.61
O 52.134 35.937 34.778
O 46.994 38.6 31.771
O 59.719 49.752 39.534
O 52.253 49.144 35.857
O 46.208 40.407 33.329
O 59.652 52.897 39.842
O 52.876 52.59 28.746
O 48.858 46.918 28.19
O 62.582 54.613 34.904
O 58.439 45.375 30.012
O 52.559 49.22 28.088
O 61.838 51.324 39.278
O 57.805 42.605 36.97
O 63.232 47.84 39.281
O 52.591 52.933 32.31
O 58.618 46.359 37.294
O 56.58 44.706 27.996
O 63.671 43.581 35.382
O 51.804 48.349 33.324
H 55.533 39.743 38.265
H 54.9 38.482 37.703
H 56.951 45.537 28.32
H 56.92 47.648 36.752
H 55.849 46.585 36.924
H 51.593 42.395 29.38
H 50.918 41.154 28.824
H 53.645 53.367 34.192
H 58.678 45.644 36.648
H 59.218 47.031 36.947
H 54.824 52.733 34.909
H 51.777 51.145 33.489
H 60.497 48.025 32.471
H 60.185 49.506 32.601
H 50.373 50.713 33.879
H 52.456 48.412 28.606
H 52.64 49.912 28.756
H 54.39 44.496 37.578
H 54.286 44.81 36.096
H 51.686 52.916 31.975
H 56.502 49.988 33.544
H 55.17 50.68 33.778
H 53.099 52.483 31.624
H 51.33 49.833 31.204
H 51.625 51.195 30.602
H 57.268 56.08 38.617
H 57.233 54.572 38.796
H 46.345 42.774 36.374
H 45.915 49.214 34.7
H 45.49 50.214 33.639
H 48.612 38.745 37.725
H 48.572 39.346 39.119
H 51.296 39.825 35.118
H 50.709 38.443 35.35
H 57.569 52.964 36.849
H 57.492 51.735 37.739
H 47.284 44.243 34.593
H 47.0 43.21 33.517
H 59.99 46.227 34.981
H 61.455 45.839 35.076
H 50.649 43.047 36.469
H 60.51 46.007 30.424
H 61.25 51.289 35.07
H 61.375 51.229 36.583
H 51.524 44.238 36.821
H 58.65 46.475 32.313
H 58.093 47.781 32.852
H 50.14 41.675 34.826
H 48.653 41.374 34.751
H 47.736 45.464 31.719
H 46.405 44.749 31.569
H 45.621 41.857 37.343
H 57.811 46.017 34.294
H 56.917 44.788 34.298
H 50.528 47.547 34.998
H 49.212 46.859 34.682
H 47.855 40.472 36.593
H 46.603 39.614 36.554
H 49.01 52.39 33.416
H 44.993 45.627 34.845
H 50.287 43.511 31.541
H 51.717 43.896 31.206
H 52.707 36.655 35.077
H 56.865 49.026 42.921
H 62.289 48.784 29.566
H 62.798 49.116 30.957
H 52.555 45.927 31.089
H 53.538 46.594 30.143
H 57.456 47.877 42.123
H 58.173 45.031 39.498
H 59.501 45.723 39.244
H 53.916 47.26 37.731
H 52.753 48.198 38.0
H 45.014 43.04 31.893
H 44.538 43.074 33.335
H 47.322 38.686 34.153
H 48.728 39.047 34.6
H 51.963 54.573 35.591
H 47.943 40.065 29.57
H 51.567 40.729 33.131
H 51.717 41.972 32.272
H 59.477 41.782 35.643
H 48.814 41.209 30.06
H 59.811 49.149 28.682
H 58.443 49.745 28.959
H 58.859 51.368 36.055
H 58.991 49.856 36.034
H 47.396 41.767 38.64
H 48.634 42.625 38.447
H 55.114 37.355 39.979
H 50.743 52.927 38.925
H 51.204 53.837 37.8
H 49.201 44.623 33.129
H 50.345 43.905 33.824
H 59.941 55.413 35.061
H 54.938 42.835 31.509
H 58.844 53.532 34.75
H 59.828 53.002 33.722
H 53.664 46.791 34.649
H 53.004 46.37 33.347
H 49.718 52.325 31.185
H 49.549 50.962 31.832
H 47.067 40.7 40.539
H 48.015 41.868 40.748
H 59.517 42.169 39.515
H 60.501 41.013 39.542
H 59.744 50.716 39.572
H 59.2 49.505 40.31
H 60.613 45.028 41.273
H 60.141 43.6 41.066
H 50.379 53.98 34.078
H 48.493 40.315 32.415
H 48.556 41.821 32.232
H 54.16 41.795 33.428
H 55.673 41.745 33.3
H 47.777 38.067 31.583
H 46.67 38.849 30.896
H 51.576 49.466 35.249
H 52.97 48.864 35.275
H 63.753 47.876 33.399
H 63.142 47.289 34.659
H 48.536 52.391 38.921
H 49.386 46.896 31.974
H 58.461 50.26 31.426
H 57.243 49.353 31.41
H 50.014 45.92 30.994
H 43.838 46.062 30.279
H 60.879 44.698 32.153
H 61.448 45.934 32.826
H 44.533 46.048 31.63
H 50.739 39.196 40.631
H 52.002 38.611 40.025
H 57.059 42.505 40.36
H 50.121 39.593 27.296
H 56.892 36.373 38.737
H 61.607 51.156 30.506
H 60.101 51.23 30.326
H 57.414 37.873 36.573
H 56.244 36.91 36.47
H 46.669 46.07 29.324
H 46.541 44.558 29.38
H 54.016 38.605 31.582
H 50.981 48.114 32.878
H 52.423 48.501 32.599
H 54.092 44.364 28.644
H 50.974 36.676 38.527
H 49.97 37.626 39.157
H 57.15 40.991 40.448
H 50.79 37.047 33.426
H 49.658 36.298 34.107
H 48.746 55.252 36.686
H 49.016 53.993 37.491
H 47.368 49.932 36.188
H 47.853 51.308 36.61
H 49.862 40.75 37.508
H 63.141 43.774 34.599
H 50.812 39.666 37.987
H 54.954 42.365 36.287
H 55.563 40.982 36.44
H 57.057 52.109 33.354
H 58.388 51.38 33.318
H 45.83 41.287 33.447
H 45.565 39.953 32.77
H 50.037 38.419 31.77
H 61.651 46.72 40.324
H 60.583 47.797 40.408
H 48.822 46.358 28.975
H 46.184 41.467 30.895
H 47.172 42.603 30.695
H 53.073 53.784 39.983
H 55.832 46.495 33.431
H 55.591 47.986 33.589
H 53.483 51.922 29.088
H 56.54 47.509 30.429
H 57.293 47.728 29.129
H 53.422 55.817 37.055
H 53.335 54.495 37.797
H 62.389 44.481 36.926
H 52.596 39.918 29.639
H 56.05 50.338 39.582
H 56.093 50.483 41.093
H 53.379 40.863 36.687
H 51.942 41.295 36.917
H 61.282 48.21 36.965
H 60.556 49.419 37.527
H 47.823 49.939 30.703
H 53.13 51.332 35.302
H 52.026 52.374 35.303
H 58.821 52.836 40.33
H 50.252 50.801 37.439
H 49.947 51.977 36.528
H 57.751 44.791 30.355
H 58.846 44.86 29.305
H 63.749 47.196 39.78
H 62.991 48.502 39.941
H 56.334 50.327 27.4
H 56.476 48.815 27.399
H 58.493 42.296 37.572
H 57.11 42.923 37.56
H 57.491 41.793 32.003
H 58.898 46.42 41.316
H 51.45 47.744 30.522
H 50.468 47.849 29.369
H 59.695 53.099 37.401
H 56.473 51.032 35.534
H 56.839 49.565 35.677
H 48.41 48.755 32.888
H 48.244 48.985 34.38
H 54.451 52.605 37.109
H 55.486 53.668 36.787
H 53.486 49.532 30.855
H 54.326 48.387 31.395
H 49.054 44.705 37.419
H 49.595 44.943 36.021
H 55.118 54.032 41.3
H 56.186 54.101 33.718
H 54.985 55.028 33.659
H 58.037 54.856 32.178
H 57.405 54.055 31.052
H 55.042 49.189 37.006
H 53.813 50.075 37.102
H 62.361 50.531 39.103
H 56.147 51.587 29.748
H 55.732 51.547 31.208
H 61.654 49.027 34.861
H 62.271 49.856 33.748
H 55.772 52.959 40.447
H 46.085 47.803 31.397
