401
xyz format
Cl 39.106 49.969 60.184
O 54.575 43.013 67.823
O 47.762 42.709 62.717
O 48.289 54.675 60.198
O 45.322 43.488 68.492
O 37.593 51.641 71.486
O 47.424 54.104 66.271
O 41.066 44.348 67.211
O 51.025 49.636 71.163
O 41.814 46.814 68.166
O 40.079 48.43 70.027
O 49.199 54.548 65.05
O 48.067 51.742 61.864
O 46.198 44.885 70.629
O 50.085 42.824 68.915
O 50.429 46.887 61.906
O 53.691 45.986 67.672
O 49.422 43.103 75.971
O 52.244 43.936 64.191
O 41.642 47.008 74.741
O 44.69 45.659 69.211
O 40.764 50.231 68.466
O 47.517 49.802 77.261
O 40.484 46.959 63.032
O 46.699 55.348 70.014
O 39.373 48.924 72.787
O 48.289 51.398 67.62
O 51.643 43.428 71.237
O 46.774 49.983 71.37
O 45.731 53.856 60.759
O 45.108 45.201 77.484
O 50.58 46.217 65.016
O 43.274 49.346 66.01
O 47.298 56.666 66.583
O 51.219 52.43 70.538
O 37.448 52.083 65.074
O 47.068 55.584 75.391
O 38.212 46.403 67.42
O 46.156 39.886 71.998
O 54.146 46.555 63.835
O 43.743 50.273 77.163
O 42.424 48.02 61.262
O 51.724 53.542 64.725
O 42.588 50.596 60.018
O 50.654 50.674 67.209
O 52.012 41.385 68.688
O 43.351 53.627 60.992
O 49.944 52.038 65.237
O 44.582 51.93 66.294
O 42.721 45.412 66.232
O 42.331 51.399 63.601
O 45.791 57.047 72.962
O 47.172 40.967 68.31
O 44.901 48.673 62.946
O 42.532 51.14 70.219
O 38.207 46.359 70.377
O 48.891 40.778 69.726
O 39.298 50.135 64.821
O 38.283 51.259 74.688
O 45.306 56.67 62.387
O 37.791 47.788 64.487
O 41.03 51.908 71.811
O 50.409 44.516 61.86
O 49.151 47.639 66.853
O 45.084 44.18 65.307
O 50.197 49.745 63.746
O 39.651 55.792 66.746
O 43.497 40.364 66.479
O 52.245 51.887 61.515
O 51.928 47.178 70.185
O 39.999 54.215 73.409
O 54.178 49.153 69.305
O 47.634 38.818 73.778
O 41.008 43.753 65.09
O 52.916 55.211 65.598
O 50.022 54.357 61.744
O 43.846 53.612 67.873
O 47.252 42.258 65.355
O 52.045 49.715 73.938
O 39.658 54.91 70.832
O 49.968 48.301 76.975
O 49.498 55.815 69.244
O 43.889 52.92 77.026
O 44.837 41.826 64.612
O 43.627 58.729 63.446
O 46.166 50.465 65.749
O 43.705 55.211 72.213
O 46.858 53.389 72.654
O 47.377 48.498 61.554
O 46.351 41.228 76.558
O 41.55 43.194 70.5
O 51.36 54.265 68.284
O 45.484 55.421 68.155
O 45.254 50.635 75.202
O 43.747 45.497 75.141
O 45.91 45.331 62.631
O 41.46 54.421 67.434
O 51.214 45.017 66.751
O 48.644 51.879 74.636
O 50.285 42.34 73.235
O 42.871 48.179 72.138
O 53.821 50.34 72.797
O 47.559 41.7 72.876
O 44.71 49.266 68.374
O 46.216 45.517 66.637
O 41.984 50.858 74.789
O 50.783 51.519 76.896
O 48.296 44.489 73.168
O 38.245 44.847 65.382
O 52.312 48.899 61.152
O 39.178 42.533 69.52
O 46.355 43.944 74.643
O 46.948 48.523 73.007
O 45.016 57.813 65.766
O 37.94 49.073 67.089
O 45.674 46.127 73.378
O 39.733 52.288 62.804
O 43.87 51.972 72.863
O 41.594 51.597 66.938
O 43.662 53.147 64.699
O 40.748 49.866 63.123
O 45.143 55.064 64.304
O 48.947 49.484 73.465
O 48.31 49.359 69.064
O 40.805 46.606 71.031
O 46.904 52.403 76.822
O 48.719 45.149 76.367
O 42.631 53.482 71.005
O 41.943 42.159 66.751
O 44.827 51.62 69.107
O 54.572 51.969 70.214
O 41.748 55.727 63.732
O 50.516 53.01 74.369
O 36.398 50.531 63.789
O 53.678 52.437 73.681
O 50.585 56.881 63.867
O 49.111 46.466 74.649
O 53.589 53.425 63.084
O 53.187 49.53 64.323
O 46.766 48.107 66.076
O 44.902 53.694 74.853
O 44.961 53.241 62.831
O 45.115 50.715 61.782
O 45.983 47.686 70.461
O 48.494 43.335 70.36
O 48.067 45.836 64.366
O 43.75 46.683 63.049
O 53.394 41.588 65.588
O 49.132 50.328 60.552
O 39.914 52.873 75.823
O 40.244 46.565 66.366
O 46.676 54.87 62.737
O 43.461 55.677 69.217
O 44.09 43.149 77.083
H 43.362 45.812 62.898
H 43.822 46.739 64.01
H 44.875 57.855 66.72
H 45.843 58.294 65.635
H 46.521 49.057 73.689
H 47.452 47.871 73.509
H 50.09 51.203 76.303
H 48.881 44.933 72.541
H 47.413 44.654 72.815
H 47.776 44.976 64.038
H 47.389 46.445 64.046
H 54.539 50.737 72.289
H 53.283 49.899 72.128
H 50.168 43.298 73.254
H 50.225 42.121 72.297
H 43.33 47.334 72.046
H 42.494 48.331 71.263
H 47.036 43.262 74.581
H 45.547 43.485 74.382
H 46.925 47.624 66.897
H 46.174 47.529 65.58
H 47.343 39.736 73.844
H 51.369 45.407 67.62
H 51.777 44.233 66.747
H 47.931 52.021 74.001
H 48.544 52.609 75.26
H 51.373 56.572 64.331
H 41.487 54.352 66.472
H 41.95 55.232 67.619
H 50.306 57.651 64.378
H 41.024 43.678 69.851
H 46.695 47.905 61.894
H 38.008 44.174 64.731
H 38.236 45.669 64.876
H 45.053 55.486 67.293
H 45.827 54.519 68.172
H 48.188 48.174 61.965
H 47.273 53.004 71.872
H 47.334 54.219 72.781
H 43.3 56.069 72.036
H 44.055 55.302 73.108
H 42.013 55.195 62.971
H 41.492 55.071 64.392
H 49.672 44.386 61.25
H 44.537 52.277 76.713
H 48.914 46.892 66.289
H 48.932 48.411 66.317
H 50.118 53.175 73.505
H 45.072 41.989 65.534
H 51.406 52.703 74.157
H 44.086 42.412 64.459
H 43.31 53.857 64.148
H 40.173 43.823 64.61
H 41.581 43.269 64.482
H 45.942 39.231 69.182
H 51.768 50.587 73.63
H 51.545 49.106 73.381
H 48.635 55.477 68.976
H 40.37 55.562 70.798
H 42.309 42.538 67.56
H 41.1 41.785 67.034
H 49.136 47.996 76.592
H 50.641 47.842 76.457
H 44.421 44.038 65.995
H 44.869 45.054 64.958
H 43.574 53.887 66.988
H 43.073 53.145 68.215
H 46.493 52.761 77.619
H 46.547 52.954 76.114
H 47.755 45.171 76.325
H 49.563 53.632 62.186
H 46.901 42.986 64.827
H 48.918 45.503 77.243
H 42.89 52.83 65.185
H 40.525 53.866 72.678
H 51.075 47.623 70.266
H 46.648 45.261 67.461
H 45.376 45.896 66.926
H 51.81 46.593 69.426
H 39.563 54.988 73.028
H 47.431 49.422 68.671
H 48.904 49.399 68.304
H 47.129 42.489 72.524
H 48.025 41.333 72.115
H 42.204 50.373 75.594
H 41.092 50.557 74.576
H 43.818 49.004 68.115
H 45.271 48.58 67.991
H 41.254 49.545 62.366
H 41.226 49.514 63.884
H 51.466 52.035 62.065
H 53.34 48.746 69.558
H 45.295 47.009 73.475
H 46.322 46.075 74.092
H 49.564 50.11 63.115
H 50.865 49.33 63.186
H 45.029 55.997 64.522
H 45.41 54.664 65.141
H 38.1 49.088 61.937
H 41.188 51.759 66.077
H 44.493 52.47 72.319
H 43.178 51.714 72.242
H 41.473 45.916 70.939
H 40.554 46.559 71.962
H 41.149 52.222 67.523
H 44.192 40.68 67.069
H 38.707 48.538 67.324
H 37.394 49.054 67.884
H 45.613 51.075 69.241
H 45.137 52.517 69.281
H 49.419 41.194 70.419
H 48.249 40.248 70.214
H 40.488 51.49 71.131
H 40.614 51.632 72.637
H 42.444 51.441 60.462
H 38.415 50.12 65.21
H 39.885 50.056 65.583
H 50.08 50.274 66.544
H 51.122 49.921 67.591
H 38.415 48.306 63.963
H 37.039 48.383 64.6
H 43.285 46.192 66.309
H 42.561 45.339 65.282
H 42.124 51.624 69.49
H 43.066 50.469 69.777
H 44.903 57.508 62.127
H 45.323 56.16 61.568
H 39.01 51.069 74.081
H 42.129 52.192 63.088
H 42.9 50.885 63.013
H 47.269 40.328 67.592
H 47.312 41.819 67.879
H 43.69 54.437 61.394
H 43.011 53.921 60.138
H 51.593 50.26 70.694
H 50.145 50.026 71.087
H 51.067 53.562 64.018
H 51.225 53.806 65.508
H 50.703 51.567 64.871
H 39.499 51.489 62.316
H 39.952 51.961 63.686
H 49.283 51.987 64.536
H 40.504 52.611 75.105
H 46.666 39.3 71.425
H 45.643 40.422 71.38
H 43.374 47.853 61.225
H 42.159 48.042 60.334
H 53.184 46.524 63.759
H 44.269 49.477 77.306
H 42.942 50.114 77.677
H 38.897 46.186 68.064
H 37.403 46.427 67.946
H 40.153 47.475 66.059
H 40.303 46.052 65.55
H 44.123 55.641 69.92
H 47.304 54.178 62.981
H 37.82 52.338 64.22
H 47.239 55.623 62.516
H 44.671 45.276 75.315
H 43.702 46.445 75.314
H 53.833 50.178 64.013
H 38.17 52.241 65.694
H 42.625 55.755 69.693
H 44.818 43.117 76.45
H 43.529 53.636 70.686
H 42.078 53.693 70.242
H 47.955 57.038 65.981
H 46.642 56.275 65.992
H 50.464 52.513 71.135
H 51.946 52.831 71.031
H 45.253 52.047 66.979
H 43.806 51.628 66.783
H 44.073 48.918 63.377
H 45.4 48.229 63.644
H 49.938 50.655 60.972
H 49.362 49.429 60.285
H 51.461 46.596 65.125
H 50.693 45.575 64.304
H 43.36 49.982 65.29
H 42.46 48.87 65.8
H 39.676 49.677 72.265
H 45.712 44.983 71.457
H 47.01 45.385 70.779
H 49.34 42.5 68.394
H 50.423 43.564 68.395
H 51.456 43.786 70.36
H 42.425 54.373 74.257
H 48.43 44.059 69.726
H 45.274 47.919 71.072
H 46.749 47.562 71.035
H 47.586 43.016 70.438
H 39.648 46.477 63.022
H 46.543 54.758 70.762
H 46.909 56.194 70.429
H 40.451 47.46 63.857
H 48.266 50.015 76.691
H 41.372 49.514 68.247
H 40.098 50.188 67.769
H 45.257 53.927 59.921
H 45.879 52.908 60.86
H 47.347 51.462 67.82
H 48.339 51.613 66.68
H 45.83 50.05 71.177
H 47.189 50.49 70.662
H 46.569 45.711 62.036
H 45.238 44.98 62.034
H 46.103 50.895 74.824
H 44.683 50.527 74.431
H 45.851 49.843 65.082
H 46.756 51.05 65.257
H 52.396 44.498 63.421
H 52.892 44.248 64.834
H 35.9 51.346 63.646
H 35.932 49.88 63.25
H 51.159 47.028 61.29
H 53.338 45.909 66.777
H 53.952 46.913 67.736
H 49.758 45.813 74.356
H 49.573 47.308 74.544
H 50.16 43.52 75.51
H 40.648 49.131 70.368
H 39.189 48.794 70.116
H 45.632 52.801 63.368
H 44.301 52.553 62.681
H 46.242 43.545 68.778
H 45.354 42.884 67.739
H 48.068 53.818 60.583
H 40.17 44.339 67.57
H 41.609 44.628 67.959
H 42.432 46.919 68.9
H 47.852 51.612 62.796
H 47.324 51.338 61.399
H 49.159 54.654 64.091
H 49.361 55.443 65.373
H 42.046 47.534 67.566
H 49.415 48.874 72.882
H 49.613 50.149 73.683
H 45.528 49.99 61.297
H 45.596 50.734 62.619
H 44.733 46.602 69.01
H 43.961 45.34 68.664
H 42.189 47.502 74.117
H 38.137 51.622 70.689
H 47.002 53.359 66.717
H 47.867 54.578 66.986
H 44.953 52.762 74.608
H 45.521 54.124 74.249
