229
xyz format
O 69.831 48.448 45.987
O 74.857 41.91 41.833
O 71.236 40.427 49.196
O 72.701 40.453 37.467
O 73.451 42.217 35.634
O 71.921 50.145 46.021
O 72.564 43.314 37.78
O 68.132 44.456 39.404
O 70.887 45.059 49.576
O 70.952 45.473 40.043
O 71.902 37.543 42.603
O 72.754 38.695 44.273
O 68.807 50.74 45.586
O 76.559 40.556 43.807
O 72.217 46.232 42.651
O 68.83 44.092 41.94
O 68.506 46.737 47.887
O 73.858 46.883 49.56
O 69.998 38.521 46.452
O 69.679 46.657 34.673
O 71.55 42.045 41.691
O 74.299 42.512 49.231
O 77.402 45.196 48.195
O 68.857 42.968 45.345
O 75.722 43.93 41.154
O 70.173 46.186 45.534
O 73.702 51.787 42.779
O 71.488 52.678 41.931
O 70.108 53.36 39.458
O 69.825 43.099 38.317
O 69.466 49.221 48.582
O 72.318 38.561 47.268
O 75.769 51.269 43.95
O 75.344 40.312 46.613
O 68.37 46.646 41.621
O 72.63 42.195 44.045
O 73.252 44.143 46.298
O 68.556 48.274 43.101
O 73.251 53.982 43.039
O 72.137 46.081 33.254
O 76.358 46.786 39.045
O 74.426 43.695 39.391
O 74.328 51.162 38.153
O 67.928 44.615 47.791
O 71.943 43.874 48.046
O 72.746 39.699 40.29
O 70.372 42.151 35.518
O 68.57 43.342 51.808
O 69.876 40.911 44.022
O 75.517 46.397 47.702
O 74.923 38.278 45.443
O 70.151 37.013 44.08
O 77.2 42.696 46.561
O 71.249 43.865 43.486
O 71.555 48.52 44.573
O 74.359 48.141 43.669
O 70.24 45.853 51.53
O 73.983 46.165 39.976
O 70.437 48.094 41.294
O 72.648 50.152 35.389
O 71.048 48.164 38.908
O 68.599 50.251 38.54
O 72.325 48.476 33.692
O 73.904 48.505 39.58
O 70.683 50.986 36.535
O 77.267 43.918 42.762
O 74.619 38.452 40.942
O 70.384 41.215 47.306
O 73.845 36.116 44.6
O 73.779 48.14 35.829
O 71.557 44.209 35.465
O 71.952 52.018 39.092
O 76.695 48.033 50.154
O 69.449 41.964 49.151
O 71.009 45.974 37.319
O 71.976 49.716 41.266
O 78.252 47.606 46.734
O 76.871 52.568 39.797
O 76.751 47.587 41.916
O 75.367 45.411 43.859
O 75.293 42.702 45.464
H 69.06 44.009 51.312
H 77.292 44.866 42.942
H 76.997 43.531 43.604
H 75.325 43.618 45.768
H 74.648 42.722 44.746
H 73.104 48.619 33.14
H 71.626 48.281 33.056
H 67.939 50.061 39.219
H 69.428 50.296 39.032
H 69.734 48.755 41.256
H 70.561 47.945 42.24
H 73.196 50.234 36.179
H 72.001 49.477 35.627
H 77.377 46.856 41.989
H 76.697 47.933 42.816
H 73.282 48.068 38.985
H 73.765 49.444 39.407
H 69.922 51.233 37.075
H 71.44 51.267 37.063
H 69.988 41.552 36.17
H 70.107 41.769 34.672
H 71.198 49.022 39.324
H 70.341 48.338 38.273
H 71.542 50.578 41.266
H 72.096 49.52 42.203
H 75.047 38.878 44.697
H 75.735 37.755 45.453
H 74.964 45.681 48.038
H 75.905 46.781 48.498
H 71.578 46.203 38.064
H 70.13 46.249 37.608
H 69.437 36.386 43.907
H 70.917 36.449 44.241
H 77.883 43.161 47.059
H 76.722 42.199 47.237
H 72.032 48.049 43.877
H 70.945 49.088 44.088
H 70.542 43.312 43.842
H 71.656 44.25 44.271
H 73.531 40.26 40.319
H 72.182 40.059 40.986
H 77.533 47.888 50.611
H 76.25 48.696 50.696
H 73.03 42.589 43.259
H 72.969 41.291 44.045
H 68.948 48.078 43.961
H 68.549 49.239 43.066
H 73.58 54.732 43.551
H 72.865 54.392 42.255
H 73.797 51.776 37.63
H 74.889 50.728 37.497
H 69.448 40.53 44.799
H 70.802 40.989 44.285
H 70.941 41.247 46.518
H 75.251 39.12 41.238
H 69.633 40.672 47.034
H 74.071 38.295 41.721
H 74.118 48.08 36.73
H 73.031 47.53 35.823
H 73.416 44.686 45.517
H 72.897 43.321 45.935
H 72.206 43.377 48.83
H 71.387 43.254 47.557
H 72.746 52.346 39.532
H 72.024 51.059 39.174
H 77.452 47.736 47.259
H 73.924 42.873 39.452
H 74.639 43.765 38.452
H 76.031 47.681 39.202
H 76.789 46.551 39.875
H 72.504 46.213 34.137
H 74.113 36.637 43.833
H 73.367 36.749 45.151
H 74.526 40.825 46.623
H 75.466 40.057 47.536
H 76.311 51.716 43.288
H 75.245 51.981 44.336
H 67.849 46.221 42.313
H 69.244 46.246 41.713
H 69.23 42.651 48.509
H 70.21 42.326 49.622
H 72.538 37.67 46.971
H 73.148 39.046 47.173
H 70.226 53.454 38.504
H 70.874 53.813 39.83
H 69.516 43.688 37.618
H 69.179 42.382 38.316
H 70.546 52.757 41.733
H 71.504 52.297 42.818
H 73.659 51.524 41.852
H 73.275 51.058 43.245
H 71.06 46.53 45.37
H 69.984 45.656 44.751
H 75.788 44.839 40.836
H 76.375 43.454 40.625
H 68.568 42.226 45.891
H 70.627 44.329 35.695
H 71.563 44.257 34.501
H 78.35 45.31 48.334
H 77.185 44.418 48.724
H 74.059 41.827 48.594
H 74.59 43.247 48.677
H 70.174 44.494 49.253
H 70.63 45.943 49.285
H 70.602 44.833 40.674
H 72.548 44.271 37.654
H 71.789 43.006 37.293
H 71.444 46.094 40.595
H 67.972 45.094 40.11
H 72.277 42.266 41.096
H 70.822 41.831 41.093
H 68.535 46.485 48.818
H 69.389 46.52 47.563
H 69.445 46.251 35.517
H 74.575 46.654 40.561
H 73.581 45.506 40.555
H 69.542 46.328 51.998
H 70.928 46.519 51.406
H 74.021 47.327 43.275
H 73.985 48.837 43.115
H 72.911 39.309 45.001
H 73.093 39.163 43.5
H 69.015 50.741 44.643
H 76.152 40.139 43.037
H 75.807 40.905 44.303
H 71.542 38.227 42.024
H 71.922 36.756 42.044
H 70.42 48.277 46.732
H 68.949 48.327 46.359
H 72.309 49.888 46.867
H 71.002 50.341 46.24
H 72.62 41.726 35.673
H 74.006 41.78 36.292
H 74.512 47.335 50.108
H 73.653 46.083 50.059
H 72.075 40.901 49.254
H 73.391 40.298 38.124
H 72.903 39.819 36.768
H 68.807 44.28 42.886
H 75.288 45.596 44.803
H 74.582 44.886 43.662
H 69.396 43.313 41.874
H 71.313 45.977 42.874
H 72.692 45.392 42.626
H 70.622 39.044 45.934
H 76.042 52.081 39.711
H 74.382 41.179 42.247
H 75.416 42.251 42.542
