134
xyz format
O 32.33 43.493 36.27
O 39.522 44.361 34.858
O 34.33 47.058 35.839
O 35.8 40.266 38.185
O 34.909 40.162 40.192
O 37.329 43.272 36.635
O 36.424 39.783 33.249
O 38.961 38.536 35.998
O 37.747 40.213 34.957
O 40.644 44.475 37.494
O 35.692 41.76 34.177
O 36.405 46.299 37.519
O 35.244 44.44 37.319
O 43.966 42.991 35.457
O 35.47 37.49 31.572
O 44.16 44.06 38.098
O 42.857 41.054 38.169
O 41.846 41.941 31.692
O 34.695 40.461 31.599
O 38.483 38.741 32.313
O 40.838 40.131 41.614
O 40.324 42.635 36.016
O 38.251 41.413 37.661
O 39.528 47.063 40.557
O 41.28 38.824 37.499
O 36.516 44.034 34.174
O 42.205 43.697 34.264
O 38.04 44.595 39.198
O 33.187 42.709 33.562
O 42.39 45.371 38.656
O 39.52 41.949 40.861
O 34.01 39.061 36.96
O 35.6 37.071 36.932
O 33.465 40.527 35.041
O 38.189 41.608 43.127
O 40.346 41.032 38.222
O 35.865 45.491 31.816
O 40.099 40.717 33.761
O 38.443 43.813 32.62
O 41.915 43.483 39.942
O 39.247 47.14 34.961
O 42.65 40.602 34.256
O 33.689 45.502 38.67
O 40.71 45.32 41.849
H 38.939 44.363 39.461
H 37.713 43.796 38.768
H 40.624 38.31 37.986
H 42.116 38.58 37.913
H 35.196 48.297 38.203
H 40.529 41.777 38.809
H 40.191 40.296 38.827
H 36.187 37.673 36.456
H 35.808 37.235 37.86
H 38.213 40.449 37.7
H 33.732 40.652 34.122
H 37.475 41.694 38.161
H 39.907 46.938 39.678
H 40.031 47.803 40.92
H 38.719 41.813 40.338
H 39.548 42.905 40.992
H 33.569 38.245 37.226
H 33.398 39.754 37.237
H 34.055 43.126 33.635
H 38.769 47.408 35.757
H 41.758 46.071 38.864
H 42.969 45.348 39.428
H 39.152 47.897 34.371
H 42.851 40.006 33.524
H 37.532 43.206 30.359
H 42.361 41.65 37.594
H 43.325 40.478 37.552
H 33.516 42.147 38.722
H 35.723 44.247 34.681
H 36.182 43.88 33.281
H 40.574 41.721 35.834
H 39.373 42.586 36.174
H 41.967 43.302 33.416
H 39.101 43.692 31.924
H 38.05 44.671 32.418
H 41.511 41.387 30.976
H 38.163 42.44 42.638
H 37.725 40.989 42.55
H 42.733 44.467 34.018
H 41.197 40.45 40.777
H 39.943 39.851 41.387
H 38.343 38.266 33.141
H 38.145 38.135 31.641
H 34.552 41.302 32.05
H 38.565 47.928 38.243
H 38.058 37.253 38.12
H 34.802 38.519 34.971
H 35.782 38.201 30.998
H 41.792 46.543 35.751
H 43.853 42.287 36.108
H 43.932 43.127 38.195
H 43.706 43.789 35.935
H 36.273 47.394 39.895
H 37.444 46.469 40.178
H 40.581 40.135 33.16
H 39.691 41.366 33.174
H 34.913 43.577 37.04
H 34.736 45.064 36.786
H 37.092 45.621 37.498
H 36.845 47.081 37.164
H 37.426 39.846 40.688
H 43.923 41.163 40.131
H 35.667 41.239 34.99
H 36.634 41.845 33.988
H 39.768 44.549 37.095
H 41.243 44.502 36.738
H 39.211 38.641 43.074
H 41.733 42.664 40.42
H 41.048 43.756 39.617
H 35.021 39.206 40.262
H 34.964 46.949 35.119
H 38.388 40.667 35.518
H 37.176 39.754 35.585
H 38.465 37.708 36.006
H 39.879 38.252 35.902
H 33.873 45.615 39.611
H 36.036 39.422 37.781
H 35.35 40.742 37.476
H 37.16 42.566 35.999
H 37.606 44.015 36.085
H 35.811 39.058 33.079
H 36.715 40.05 32.368
H 39.076 45.038 34.334
H 39.977 43.824 34.197
H 33.304 45.87 34.112
H 32.307 43.099 37.15
H 32.673 44.382 36.425
H 39.952 45.044 41.319
H 41.459 45.215 41.249
H 38.322 47.216 32.434
