306
xyz format
O 54.575 43.013 67.823
O 59.509 53.567 70.493
O 58.228 51.797 74.53
O 58.119 54.41 60.805
O 56.527 45.794 74.468
O 60.311 48.424 64.719
O 51.025 49.636 71.163
O 56.277 43.541 70.46
O 49.199 54.548 65.05
O 63.682 51.245 66.618
O 50.085 42.824 68.915
O 53.691 45.986 67.672
O 52.244 43.936 64.191
O 60.87 45.858 66.347
O 56.041 56.892 75.006
O 47.517 49.802 77.261
O 56.871 54.921 68.371
O 57.393 50.847 72.057
O 48.289 51.398 67.62
O 51.643 43.428 71.237
O 46.774 49.983 71.37
O 50.58 46.217 65.016
O 62.268 49.56 69.406
O 59.521 47.544 70.035
O 59.514 53.361 75.42
O 59.315 59.568 71.552
O 63.065 48.889 72.287
O 51.219 52.43 70.538
O 55.974 50.296 69.876
O 56.347 56.773 69.443
O 54.745 47.562 72.214
O 54.146 46.555 63.835
O 59.769 50.395 70.355
O 61.378 51.59 68.789
O 51.724 53.542 64.725
O 53.87 53.66 68.672
O 50.654 50.674 67.209
O 52.012 41.385 68.688
O 52.78 57.819 67.129
O 49.944 52.038 65.237
O 56.375 46.639 69.781
O 55.016 54.74 74.581
O 56.402 51.536 63.405
O 58.954 55.719 71.991
O 60.088 50.102 73.471
O 53.887 51.634 67.558
O 52.723 54.884 75.119
O 60.257 52.488 65.709
O 49.151 47.639 66.853
O 55.73 44.345 65.835
O 62.059 55.315 65.918
O 62.542 46.234 75.718
O 61.444 47.632 73.521
O 60.761 57.636 74.462
O 51.928 47.178 70.185
O 54.178 49.153 69.305
O 54.925 60.006 67.785
O 56.881 44.175 67.708
O 54.662 56.543 64.089
O 55.544 47.004 66.219
O 52.347 55.403 73.0
O 60.328 50.152 63.318
O 52.916 55.211 65.598
O 52.045 49.715 73.938
O 49.968 48.301 76.975
O 49.498 55.815 69.244
O 54.692 45.403 77.15
O 58.568 45.13 70.561
O 51.36 54.265 68.284
O 58.218 51.392 64.638
O 59.26 56.624 70.009
O 51.214 45.017 66.751
O 59.672 53.905 63.461
O 48.644 51.879 74.636
O 61.479 55.336 74.924
O 58.291 55.897 65.975
O 53.821 50.34 72.797
O 59.248 44.871 75.995
O 56.714 49.376 62.964
O 59.971 48.903 67.52
O 44.71 49.266 68.374
O 54.797 52.536 60.356
O 57.868 52.088 68.687
O 58.266 52.377 61.636
O 50.783 51.519 76.896
O 56.364 54.83 63.474
O 55.106 54.612 70.907
O 46.948 48.523 73.007
O 63.256 47.005 70.675
O 48.947 49.484 73.465
O 58.977 48.314 76.715
O 63.215 53.304 68.294
O 48.31 49.359 69.064
O 57.759 47.152 66.821
O 44.827 51.62 69.107
O 54.572 51.969 70.214
O 50.516 53.01 74.369
O 62.226 47.078 67.782
O 57.144 58.857 72.231
O 58.655 46.414 64.366
O 53.678 52.437 73.681
O 50.585 56.881 63.867
O 62.204 51.375 64.503
O 49.111 46.466 74.649
O 57.812 48.611 72.06
O 59.477 54.624 67.64
O 53.589 53.425 63.084
O 56.832 46.309 62.245
O 53.187 49.53 64.323
O 46.766 48.107 66.076
O 56.405 50.712 66.119
O 52.977 50.092 77.192
O 62.105 55.706 69.222
O 45.983 47.686 70.461
O 61.067 53.359 73.111
O 53.953 44.795 70.772
O 53.394 41.588 65.588
O 59.636 45.376 73.29
O 58.454 57.81 67.415
O 62.08 57.686 71.165
H 53.717 56.416 63.94
H 54.834 56.055 64.904
H 46.521 49.057 73.689
H 47.452 47.871 73.509
H 53.207 45.391 70.636
H 54.389 44.773 69.91
H 50.09 51.203 76.303
H 61.296 52.978 73.968
H 61.081 52.601 72.513
H 51.475 51.827 76.296
H 61.247 55.79 68.788
H 54.539 50.737 72.289
H 53.283 49.899 72.128
H 59.186 45.698 75.5
H 59.956 45.036 76.629
H 57.063 55.246 63.993
H 54.436 55.2 70.535
H 55.914 55.138 70.879
H 55.89 54.289 64.118
H 55.233 47.918 66.211
H 55.767 46.83 65.296
H 56.53 51.468 66.706
H 56.297 49.967 66.724
H 59.461 57.353 69.409
H 59.131 55.871 69.42
H 46.925 47.624 66.897
H 51.369 45.407 67.62
H 51.777 44.233 66.747
H 58.938 53.767 64.072
H 47.931 52.021 74.001
H 48.544 52.609 75.26
H 56.138 44.738 67.962
H 57.652 44.74 67.84
H 51.373 56.572 64.331
H 59.214 56.161 66.07
H 57.892 56.63 65.489
H 60.68 55.175 74.407
H 58.307 45.966 70.967
H 58.69 44.539 71.314
H 53.592 52.949 74.495
H 53.645 53.106 72.985
H 50.824 54.875 67.762
H 51.861 53.775 67.62
H 55.61 59.365 68.012
H 47.273 53.004 71.872
H 58.016 52.131 65.226
H 58.423 50.668 65.243
H 57.531 57.983 72.369
H 56.279 58.667 71.848
H 48.914 46.892 66.289
H 48.932 48.411 66.317
H 50.118 53.175 73.505
H 51.406 52.703 74.157
H 54.004 51.955 66.655
H 54.752 51.773 67.964
H 59.912 49.591 74.272
H 60.348 49.433 72.825
H 59.622 55.961 72.644
H 58.123 55.784 72.478
H 54.238 52.482 70.96
H 53.808 51.454 69.928
H 51.768 50.587 73.63
H 51.545 49.106 73.381
H 49.599 55.493 70.149
H 53.56 54.808 66.194
H 48.635 55.477 68.976
H 52.279 55.623 66.194
H 60.182 51.021 63.711
H 59.444 49.871 63.05
H 60.029 51.764 66.305
H 61.095 52.816 66.057
H 61.303 47.177 68.048
H 52.857 55.181 76.028
H 51.785 54.661 75.086
H 51.68 54.719 72.863
H 52.259 55.969 72.223
H 51.075 47.623 70.266
H 51.81 46.593 69.426
H 47.431 49.422 68.671
H 48.904 49.399 68.304
H 57.204 52.096 69.388
H 58.384 51.293 68.87
H 58.366 51.542 62.11
H 57.503 52.228 61.064
H 54.943 51.804 60.97
H 60.141 49.668 66.957
H 43.818 49.004 68.115
H 56.355 49.734 62.143
H 57.311 48.677 62.668
H 59.196 49.164 68.033
H 54.019 49.465 68.406
H 53.34 48.746 69.558
H 61.335 55.016 66.482
H 55.033 43.985 65.273
H 56.385 44.671 65.207
H 61.705 45.793 75.528
H 60.823 47.288 74.176
H 62.219 47.871 74.044
H 55.49 51.645 63.106
H 56.771 52.426 63.342
H 54.093 54.561 68.406
H 53.216 53.783 69.372
H 55.803 54.328 74.202
H 54.49 54.982 73.809
H 57.104 46.618 69.149
H 55.592 46.508 69.231
H 52.619 57.117 67.772
H 52.026 58.411 67.243
H 51.593 50.26 70.694
H 50.145 50.026 71.087
H 56.548 44.393 70.096
H 56.366 42.934 69.715
H 51.067 53.562 64.018
H 51.225 53.806 65.508
H 59.201 49.747 70.789
H 60.287 50.768 71.079
H 60.548 51.215 68.469
H 61.099 52.35 69.315
H 53.184 46.524 63.759
H 54.396 45.632 63.962
H 55.495 47.489 71.61
H 54.021 47.855 71.646
H 56.608 57.143 70.296
H 55.385 56.856 69.442
H 57.545 57.758 67.735
H 58.774 58.649 67.769
H 53.833 50.178 64.013
H 55.874 49.9 70.751
H 56.701 49.799 69.481
H 61.258 57.255 71.429
H 60.399 47.926 69.909
H 59.263 47.268 69.147
H 58.823 53.884 74.995
H 59.89 53.966 76.072
H 50.464 52.513 71.135
H 51.946 52.831 71.031
H 59.174 58.723 71.107
H 60.467 44.943 73.059
H 62.141 49.246 68.502
H 63.193 49.358 69.592
H 59.62 46.157 72.723
H 51.461 46.596 65.125
H 50.693 45.575 64.304
H 57.481 55.567 67.994
H 57.453 54.248 68.745
H 57.484 51.647 71.524
H 56.681 51.061 72.673
H 57.998 47.118 64.293
H 62.902 50.931 67.092
H 50.423 43.564 68.395
H 51.456 43.786 70.36
H 52.561 43.136 71.174
H 48.266 50.015 76.691
H 53.735 53.905 63.909
H 47.347 51.462 67.82
H 48.339 51.613 66.68
H 47.189 50.49 70.662
H 52.396 44.498 63.421
H 52.892 44.248 64.834
H 57.462 48.38 71.191
H 57.563 47.861 72.614
H 59.286 54.093 66.857
H 59.66 53.968 68.323
H 53.338 45.909 66.777
H 53.952 46.913 67.736
H 49.573 47.308 74.544
H 63.808 53.811 67.725
H 62.391 53.27 67.792
H 53.208 50.869 77.715
H 52.804 49.412 77.855
H 55.729 45.252 74.448
H 56.341 46.5 73.836
H 61.044 48.466 65.346
H 59.531 48.346 65.283
H 57.648 46.333 66.323
H 58.705 47.176 67.014
H 49.415 48.874 72.882
H 49.613 50.149 73.683
H 56.61 56.379 74.418
H 55.413 57.314 74.406
H 54.362 42.899 68.757
H 54.12 43.83 67.582
H 58.294 52.192 73.652
H 58.091 50.859 74.349
H 59.305 52.73 70.928
H 60.101 54.01 71.115
