170
xyz format
Cl 59.885 43.869 52.84
O 63.452 44.871 47.636
O 56.678 37.691 53.472
O 66.491 42.037 56.435
O 58.501 43.491 49.858
O 59.203 37.335 52.53
O 60.196 42.183 54.91
O 68.203 44.648 56.136
O 62.167 37.286 54.674
O 61.011 39.849 54.197
O 56.307 40.289 53.62
O 60.536 46.067 53.953
O 61.759 34.542 55.886
O 55.686 44.258 51.242
O 55.793 39.771 56.812
O 61.148 37.104 48.26
O 63.674 45.377 57.484
O 62.839 43.941 54.415
O 60.128 41.337 45.018
O 55.354 42.066 56.25
O 57.857 42.732 51.939
O 59.437 40.037 52.201
O 63.447 38.334 45.686
O 60.94 43.598 56.729
O 65.961 43.339 58.659
O 62.649 39.389 50.4
O 58.203 32.813 49.572
O 61.195 41.912 47.531
O 64.012 42.4 50.471
O 63.833 35.664 49.518
O 60.622 40.045 57.197
O 62.659 41.287 57.283
O 57.8 33.884 47.689
O 62.202 42.433 45.659
O 59.466 47.215 55.924
O 61.921 47.188 50.562
O 57.981 41.894 57.086
O 64.714 38.536 51.168
O 66.053 38.892 54.588
O 66.598 40.223 48.499
O 60.47 49.471 55.962
O 59.891 38.709 49.087
O 59.311 47.651 52.07
O 61.07 42.015 50.673
O 59.274 35.675 49.938
O 57.814 34.522 52.201
O 59.575 35.274 54.041
O 61.647 37.069 51.41
O 61.552 34.082 49.321
O 57.686 44.236 55.435
O 57.587 40.139 58.619
O 56.331 42.015 48.334
O 59.011 37.253 58.319
O 62.356 44.466 50.867
O 64.676 46.4 52.085
O 63.812 41.584 59.161
O 55.309 42.266 52.929
H 57.0 32.412 52.606
H 61.204 50.048 56.208
H 60.173 49.827 55.115
H 59.773 47.548 56.777
H 58.552 37.369 59.16
H 58.264 41.447 56.279
H 58.47 42.726 57.072
H 59.608 46.262 55.986
H 59.944 37.234 58.567
H 64.212 40.744 58.904
H 63.849 41.57 60.126
H 60.413 42.452 51.229
H 61.528 41.422 51.283
H 65.631 38.76 51.368
H 66.983 41.069 48.76
H 67.352 39.721 48.165
H 64.412 38.076 51.961
H 57.312 34.731 52.998
H 65.916 39.783 54.243
H 66.464 38.422 53.852
H 57.489 35.158 51.552
H 61.318 36.669 50.596
H 62.031 36.326 51.892
H 63.938 46.728 52.614
H 64.394 45.516 51.819
H 58.609 47.202 52.557
H 58.732 33.811 47.449
H 63.004 42.441 46.196
H 62.113 43.349 45.367
H 59.679 48.268 52.715
H 63.259 42.339 49.87
H 64.773 42.227 49.903
H 59.062 37.38 46.189
H 62.316 41.227 56.383
H 61.985 41.796 57.751
H 60.297 39.504 56.467
H 61.255 39.469 57.645
H 58.947 38.549 48.964
H 60.115 39.324 48.378
H 64.008 35.021 50.216
H 63.414 36.399 49.984
H 57.744 33.522 55.966
H 57.601 33.48 49.924
H 58.732 32.554 50.337
H 61.06 41.851 48.485
H 61.191 40.992 47.239
H 55.477 42.811 53.708
H 61.873 43.755 56.533
H 60.582 44.485 56.86
H 66.417 42.786 59.305
H 65.531 44.015 59.198
H 59.694 39.317 51.611
H 59.095 40.713 51.603
H 60.65 43.272 59.874
H 59.161 42.981 59.94
H 59.541 35.727 49.012
H 62.694 40.202 49.881
H 61.957 38.877 49.962
H 59.741 34.897 50.268
H 55.232 41.514 55.468
H 55.348 42.965 55.9
H 57.728 43.688 51.909
H 57.734 42.513 52.871
H 62.495 43.702 51.441
H 62.239 45.198 51.486
H 62.239 43.886 53.66
H 63.206 44.831 54.351
H 64.101 44.838 56.806
H 63.178 44.736 58.008
H 62.053 37.401 48.106
H 60.916 36.642 47.445
H 63.513 38.146 46.631
H 62.964 39.168 45.651
H 55.951 38.855 57.071
H 54.834 39.862 56.864
H 61.015 33.967 48.528
H 62.401 33.69 49.083
H 55.706 39.752 54.15
H 56.368 39.809 52.785
H 65.667 46.266 60.221
H 60.843 45.83 53.069
H 62.53 47.235 49.814
H 61.109 47.585 50.222
H 54.611 41.664 53.217
H 61.637 49.492 51.576
H 61.591 37.583 55.39
H 61.552 36.958 54.006
H 61.227 39.383 53.38
H 61.863 39.934 54.644
H 60.638 42.019 54.068
H 59.446 42.741 54.671
H 57.276 43.537 54.911
H 58.247 44.699 54.801
H 61.255 46.604 54.309
H 67.102 42.183 57.168
H 65.655 41.833 56.871
H 53.738 40.223 51.803
H 62.79 44.769 46.941
H 63.093 44.36 48.372
H 59.37 43.783 49.555
H 58.57 42.528 49.858
H 56.348 37.022 54.085
H 57.295 38.207 54.007
H 59.416 37.139 51.609
H 58.509 36.7 52.745
H 57.829 39.773 57.759
H 54.821 43.829 51.253
H 55.748 44.672 52.112
H 62.458 35.067 55.477
H 61.297 35.176 56.449
H 60.351 34.781 53.749
H 59.636 35.247 55.004
H 58.353 39.944 59.174
