88
xyz format
Na 46.336 56.344 34.969
O 45.023 54.088 36.793
O 42.6 59.874 35.929
O 50.579 51.258 36.654
O 44.851 52.129 39.126
O 48.924 50.386 40.746
O 46.576 56.266 38.022
O 48.247 55.485 32.451
O 49.969 54.723 33.618
O 41.915 55.924 36.92
O 38.278 56.39 34.887
O 40.227 57.338 34.477
O 40.535 57.907 37.278
O 51.207 52.913 38.078
O 39.748 54.056 36.206
O 51.132 54.952 35.903
O 46.923 54.191 35.632
O 48.282 52.62 32.825
O 40.455 55.642 38.693
O 43.822 55.229 35.077
O 45.371 53.799 33.656
O 47.91 51.668 39.049
O 38.37 58.492 36.904
O 46.129 57.247 32.393
O 49.132 54.37 36.61
O 48.047 50.59 35.994
O 43.431 54.516 38.25
O 47.215 54.53 39.914
O 41.843 53.022 34.695
H 50.568 56.014 38.786
H 49.175 55.581 41.552
H 43.45 54.072 32.251
H 41.775 55.301 41.13
H 43.471 54.553 34.484
H 44.172 55.9 34.478
H 45.181 52.905 33.346
H 45.892 54.185 32.94
H 39.747 56.148 39.11
H 41.26 56.066 39.016
H 47.59 54.415 34.97
H 46.692 53.277 35.423
H 43.773 58.237 34.915
H 45.09 58.034 34.185
H 47.557 52.831 33.426
H 49.01 52.39 33.416
H 47.607 57.156 40.645
H 39.603 58.062 34.344
H 40.728 57.313 33.652
H 37.932 55.877 35.628
H 42.414 56.625 36.483
H 42.009 55.17 36.325
H 40.204 53.212 36.315
H 40.143 54.429 35.408
H 50.985 55.7 35.311
H 38.871 54.372 40.072
H 47.015 57.312 32.772
H 45.985 56.297 32.307
H 50.743 52.927 38.925
H 38.257 58.176 37.809
H 37.982 59.375 36.918
H 40.753 58.258 36.405
H 40.057 57.091 37.085
H 50.379 53.98 34.078
H 47.494 51.871 39.896
H 48.536 52.391 38.921
H 39.896 60.674 37.088
H 45.734 58.568 38.186
H 47.12 56.892 38.516
H 45.99 55.892 38.693
H 49.862 50.579 40.627
H 48.836 50.254 41.698
H 42.414 55.966 33.156
H 48.746 55.252 36.686
H 49.016 53.993 37.491
H 47.368 49.932 36.188
H 47.853 51.308 36.61
H 46.869 54.091 40.701
H 48.17 54.41 39.984
H 42.647 54.285 38.764
H 43.509 55.471 38.366
H 44.456 52.035 38.25
H 44.765 53.072 39.316
H 50.252 50.801 37.439
H 49.947 51.977 36.528
H 45.669 53.765 37.434
H 45.086 55.048 36.869
H 41.189 58.081 40.964
H 42.917 59.302 36.639
