109
xyz format
O 48.932 74.673 45.769
O 49.082 73.724 49.746
O 43.198 71.925 49.376
O 44.064 70.738 47.13
O 42.36 74.43 51.431
O 45.392 75.422 45.818
O 49.004 75.83 43.481
O 42.549 75.651 53.252
O 50.941 78.844 49.76
O 52.391 73.404 45.204
O 40.433 75.629 51.747
O 48.912 72.1 44.547
O 51.26 74.535 48.122
O 40.987 73.689 47.57
O 52.317 76.433 49.131
O 45.913 75.626 50.034
O 46.061 73.681 54.138
O 44.778 74.834 55.99
O 51.514 77.722 47.032
O 43.137 74.945 48.592
O 42.982 73.392 53.7
O 46.99 75.288 48.146
O 38.92 76.07 49.131
O 44.074 77.278 46.493
O 45.492 72.766 46.761
O 44.864 75.995 53.24
O 41.049 76.021 56.058
O 44.975 72.911 43.91
O 46.46 73.561 50.56
O 41.787 76.941 48.916
O 48.296 77.728 46.186
O 48.954 76.999 48.202
O 46.357 78.554 52.067
O 49.688 78.273 52.177
O 43.266 77.536 50.451
H 46.283 73.282 46.563
H 44.852 73.066 46.104
H 45.561 71.49 48.575
H 45.131 72.903 48.929
H 50.63 78.437 52.31
H 49.668 77.595 51.491
H 43.114 77.202 46.55
H 44.309 77.8 47.27
H 46.995 77.883 51.796
H 45.776 78.085 52.679
H 47.287 75.485 47.249
H 47.197 74.352 48.255
H 39.239 75.232 49.489
H 39.003 76.682 49.872
H 46.791 71.289 45.776
H 45.428 73.171 43.099
H 44.248 73.543 43.979
H 46.812 77.374 42.921
H 43.106 71.532 51.947
H 50.702 78.027 46.608
H 51.876 77.085 46.402
H 45.375 75.335 55.421
H 51.69 76.083 49.777
H 44.189 74.387 55.368
H 45.257 73.338 53.729
H 46.608 73.942 53.387
H 48.519 72.564 45.297
H 49.333 72.804 44.037
H 51.25 75.321 47.561
H 51.05 73.816 47.514
H 45.903 76.458 50.523
H 45.186 75.72 49.407
H 41.244 73.182 48.35
H 41.093 74.607 47.849
H 45.821 75.997 53.37
H 44.707 75.207 52.706
H 51.854 74.186 45.385
H 41.434 76.781 55.604
H 41.775 75.684 56.597
H 51.592 78.51 49.131
H 50.094 78.603 49.363
H 42.841 76.003 54.102
H 42.577 76.418 52.665
H 48.139 75.691 43.886
H 45.874 76.255 45.748
H 45.782 74.873 45.126
H 39.772 74.94 51.603
H 40.153 76.046 52.572
H 42.071 73.541 51.674
H 43.081 74.275 50.809
H 43.903 77.183 51.085
H 42.548 77.863 51.007
H 49.606 76.547 48.752
H 48.318 77.346 48.84
H 43.526 75.571 47.969
H 43.363 74.083 48.222
H 42.115 73.644 54.043
H 44.864 70.622 46.602
H 43.353 70.702 46.479
H 45.608 73.496 51.01
H 47.104 73.494 51.277
H 43.388 77.179 56.542
H 42.762 71.265 48.823
H 42.484 72.273 49.924
H 47.504 77.953 45.683
H 49.18 73.57 48.798
H 49.252 74.669 49.843
H 48.494 76.825 45.909
H 40.053 72.667 50.93
H 49.303 74.846 46.644
H 49.707 74.641 45.194
H 42.106 77.715 48.437
H 41.079 77.291 49.472
H 42.481 72.545 44.829
