229
xyz format
O 46.791 61.308 68.338
O 55.968 59.682 62.992
O 52.342 61.133 68.723
O 58.796 59.374 64.961
O 55.515 65.421 64.893
O 56.1 64.089 69.08
O 52.85 63.112 63.59
O 56.041 56.892 75.006
O 57.164 67.559 68.051
O 48.699 60.73 73.193
O 57.344 71.035 68.34
O 60.909 67.098 67.833
O 61.224 67.401 63.609
O 57.996 62.756 72.8
O 59.315 59.568 71.552
O 56.806 65.979 70.41
O 63.319 59.946 67.882
O 62.184 60.764 71.62
O 59.054 65.661 65.039
O 56.347 56.773 69.443
O 62.87 59.15 73.204
O 59.342 70.725 66.173
O 60.838 65.916 69.691
O 52.78 57.819 67.129
O 53.677 64.195 67.324
O 57.848 68.567 65.353
O 56.971 65.614 66.749
O 56.551 62.57 64.886
O 59.414 68.975 68.099
O 55.016 54.74 74.581
O 55.715 59.118 75.927
O 58.954 55.719 71.991
O 64.364 61.958 70.047
O 47.057 65.904 68.424
O 54.183 62.051 70.321
O 61.481 62.579 66.845
O 50.248 60.15 67.523
O 54.925 60.006 67.785
O 54.662 56.543 64.089
O 52.916 55.211 65.598
O 46.598 60.076 71.351
O 54.666 67.197 63.153
O 60.418 62.155 72.505
O 59.336 67.61 69.825
O 56.04 65.471 60.968
O 51.36 54.265 68.284
O 53.56 66.679 68.589
O 44.738 63.208 68.548
O 58.174 58.5 75.385
O 55.027 68.219 70.958
O 62.029 62.718 69.551
O 52.026 64.899 71.153
O 57.734 62.056 70.046
O 59.26 56.624 70.009
O 51.398 61.435 71.409
O 58.291 55.897 65.975
O 54.649 69.424 67.89
O 55.395 58.188 65.856
O 58.262 65.909 72.617
O 60.908 65.06 71.969
O 54.031 61.468 65.908
O 51.159 60.212 73.222
O 53.778 58.748 63.227
O 56.364 54.83 63.474
O 53.651 66.875 65.295
O 54.29 59.603 71.774
O 49.121 61.069 69.859
O 58.313 64.255 69.655
O 46.993 63.383 71.966
O 57.144 58.857 72.231
O 55.033 62.941 73.36
O 58.791 66.438 62.945
O 60.544 60.771 65.385
O 56.957 60.557 66.723
O 58.118 55.763 75.911
O 48.404 63.435 69.29
O 60.517 60.802 70.185
O 62.754 63.941 71.446
O 59.188 61.6 68.093
O 58.454 57.81 67.415
O 62.08 57.686 71.165
H 53.972 60.508 71.883
H 52.734 66.987 65.575
H 54.149 67.425 65.912
H 54.331 59.265 72.677
H 53.717 56.416 63.94
H 60.765 60.61 69.273
H 60.007 61.619 70.117
H 54.834 56.055 64.904
H 53.767 69.815 67.938
H 55.134 70.025 67.311
H 51.476 59.531 73.829
H 50.865 60.921 73.807
H 53.729 59.712 63.219
H 56.07 57.841 65.259
H 54.717 58.532 65.261
H 59.461 57.353 69.409
H 59.131 55.871 69.42
H 57.06 61.458 70.391
H 57.393 62.312 69.18
H 58.521 56.391 76.523
H 57.679 55.128 76.491
H 60.06 61.316 64.752
H 61.469 60.991 65.217
H 57.709 60.843 66.19
H 56.236 60.492 66.085
H 52.008 62.149 71.633
H 51.93 60.841 70.865
H 57.892 56.63 65.489
H 55.61 59.365 68.012
H 55.16 60.785 68.304
H 55.163 62.128 72.856
H 55.644 62.852 74.101
H 54.133 67.289 68.108
H 54.013 66.558 69.433
H 57.531 57.983 72.369
H 56.279 58.667 71.848
H 64.888 62.586 69.535
H 65.023 61.354 70.412
H 61.118 61.948 73.137
H 59.787 61.434 72.618
H 47.447 66.6 67.881
H 47.816 65.51 68.873
H 46.302 64.028 71.767
H 58.123 55.784 72.478
H 58.653 60.802 68.194
H 59.541 61.528 67.198
H 53.56 54.808 66.194
H 52.279 55.623 66.194
H 54.647 68.0 63.688
H 45.841 60.001 71.945
H 47.193 59.377 71.648
H 53.738 66.938 63.097
H 58.743 66.85 69.774
H 59.645 67.599 70.739
H 50.401 59.529 68.246
H 50.229 61.011 67.959
H 62.402 62.354 66.66
H 61.187 63.022 66.039
H 55.074 62.366 70.123
H 53.617 62.596 69.76
H 60.314 65.808 71.83
H 60.312 64.305 72.047
H 53.116 61.725 65.74
H 54.534 62.268 65.71
H 60.001 58.167 74.194
H 57.952 66.693 72.146
H 58.196 65.205 71.959
H 47.726 63.65 71.397
H 55.76 58.813 76.841
H 55.803 54.328 74.202
H 54.49 54.982 73.809
H 56.131 59.989 75.955
H 56.645 63.529 64.834
H 57.38 62.238 64.52
H 60.125 69.121 67.462
H 59.556 69.661 68.762
H 52.881 63.885 66.875
H 54.28 64.407 66.601
H 57.431 68.095 64.621
H 57.958 69.464 65.015
H 52.619 57.117 67.772
H 52.026 58.411 67.243
H 57.431 65.266 67.523
H 61.784 65.986 69.867
H 60.71 64.981 69.492
H 56.054 65.69 67.042
H 49.458 61.794 70.4
H 48.72 60.471 70.502
H 60.03 70.511 65.531
H 59.695 71.492 66.641
H 63.815 60.55 68.449
H 62.593 59.649 68.444
H 56.608 57.143 70.296
H 57.545 57.758 67.735
H 58.774 58.649 67.769
H 59.979 65.771 65.29
H 58.617 66.427 65.431
H 61.258 57.255 71.429
H 62.219 59.88 71.233
H 63.111 61.026 71.68
H 61.967 67.83 63.167
H 56.409 66.776 70.037
H 56.227 65.76 71.15
H 58.911 63.894 70.322
H 58.793 64.133 68.827
H 60.988 66.68 63.012
H 57.141 63.05 72.464
H 59.174 58.723 71.107
H 63.467 63.314 71.624
H 63.205 64.691 71.04
H 58.297 63.497 73.341
H 58.654 60.149 71.156
H 61.87 67.106 67.741
H 60.635 66.331 67.315
H 56.761 70.383 68.748
H 57.204 70.908 67.394
H 54.803 65.234 64.269
H 56.266 65.635 64.325
H 55.381 64.665 69.368
H 55.838 63.822 68.19
H 48.302 61.289 72.514
H 49.035 59.972 72.698
H 52.309 64.108 70.678
H 52.63 65.584 70.84
H 62.339 62.131 68.849
H 62.394 63.578 69.308
H 54.436 68.828 71.417
H 54.933 68.466 70.029
H 57.799 58.226 74.539
H 58.231 59.461 75.311
H 58.904 67.373 63.154
H 58.471 66.443 62.035
H 53.454 63.496 64.238
H 52.442 63.882 63.174
H 58.999 58.527 65.378
H 59.295 59.347 64.135
H 46.461 61.494 67.45
H 46.198 60.619 68.663
H 52.395 61.348 67.784
H 53.046 60.486 68.851
H 56.61 56.379 74.418
H 55.413 57.314 74.406
H 56.407 67.997 67.641
H 57.841 67.579 67.363
H 47.556 63.321 68.843
H 49.006 63.688 68.579
H 55.971 59.639 62.028
H 56.11 58.767 63.263
