142
xyz format
Na 47.489 37.29 62.212
O 47.762 42.709 62.717
O 40.835 39.486 66.723
O 39.204 41.383 60.672
O 47.782 37.364 66.119
O 41.967 35.9 58.181
O 44.277 36.009 68.583
O 40.595 39.112 59.971
O 40.793 37.207 69.212
O 39.899 36.73 64.839
O 41.77 39.637 69.633
O 42.721 45.412 66.232
O 43.783 41.766 57.34
O 47.172 40.967 68.31
O 41.643 43.515 61.298
O 50.461 40.554 64.247
O 45.084 44.18 65.307
O 44.171 35.509 60.377
O 47.968 41.509 59.92
O 43.497 40.364 66.479
O 42.353 36.063 66.932
O 45.496 40.102 58.895
O 45.25 38.928 69.783
O 47.252 42.258 65.355
O 44.837 41.826 64.612
O 49.193 35.31 61.363
O 42.267 41.582 63.243
O 38.109 40.259 65.886
O 46.216 45.517 66.637
O 42.649 37.545 64.368
O 48.289 35.566 64.494
O 37.958 37.179 61.732
O 42.12 39.148 62.0
O 44.969 37.1 62.414
O 44.277 43.052 60.919
O 45.207 35.375 56.94
O 44.737 35.929 65.741
O 45.865 40.33 61.551
O 45.988 33.491 68.871
O 45.196 38.262 66.439
O 41.943 42.159 66.751
O 44.481 39.194 63.317
O 47.348 39.235 63.286
O 43.377 43.717 58.569
O 47.192 36.49 59.657
O 50.201 38.684 61.455
O 42.502 38.243 59.304
H 44.024 42.132 60.772
H 45.103 43.143 60.428
H 37.955 37.869 61.058
H 38.768 36.685 61.552
H 47.776 44.976 64.038
H 47.872 35.259 65.308
H 48.046 34.895 63.844
H 41.532 41.635 62.619
H 43.049 41.635 62.68
H 42.595 39.779 61.443
H 41.235 39.526 62.069
H 45.245 36.179 62.327
H 44.616 37.317 61.542
H 45.359 39.357 58.297
H 45.637 40.85 58.301
H 49.672 44.386 61.25
H 45.513 38.357 55.799
H 45.072 41.989 65.534
H 44.086 42.412 64.459
H 43.561 38.249 56.929
H 41.581 43.269 64.482
H 45.942 39.231 69.182
H 44.552 38.618 69.192
H 42.309 42.538 67.56
H 41.1 41.785 67.034
H 44.421 44.038 65.995
H 44.869 45.054 64.958
H 48.034 42.636 65.776
H 46.901 42.986 64.827
H 46.648 45.261 67.461
H 45.376 45.896 66.926
H 38.678 40.603 65.187
H 38.12 39.305 65.742
H 45.05 35.113 60.411
H 44.181 36.018 59.556
H 42.492 38.443 64.05
H 42.161 36.992 63.745
H 45.413 35.775 66.413
H 45.173 36.512 65.107
H 48.691 41.07 60.387
H 47.557 40.797 59.414
H 45.662 36.1 57.386
H 44.192 40.68 67.069
H 43.0 39.74 67.023
H 42.204 36.869 66.423
H 41.973 35.369 66.38
H 41.386 42.999 60.524
H 42.007 44.326 60.922
H 50.837 40.251 63.411
H 49.553 40.791 64.018
H 43.285 46.192 66.309
H 42.561 45.339 65.282
H 47.269 40.328 67.592
H 47.312 41.819 67.879
H 42.318 39.135 69.017
H 41.298 40.259 69.065
H 42.618 39.181 59.111
H 43.044 38.102 60.091
H 45.832 38.767 66.961
H 44.469 38.102 67.054
H 49.526 38.172 60.992
H 49.77 39.531 61.624
H 47.035 37.138 58.959
H 40.504 37.421 65.136
H 41.21 36.493 58.099
H 42.723 36.461 57.965
H 40.193 36.496 68.955
H 38.164 39.002 62.945
H 47.797 35.702 67.91
H 44.052 39.967 63.705
H 44.709 38.651 64.082
H 48.236 35.426 61.313
H 49.452 35.86 62.113
H 45.742 40.543 55.683
H 44.381 35.112 68.241
H 43.726 35.893 69.367
H 47.207 37.603 65.381
H 48.108 38.213 66.44
H 39.731 41.798 61.366
H 38.385 41.137 61.122
H 45.354 42.884 67.739
H 40.106 38.855 66.757
H 40.878 39.737 65.792
H 43.554 44.337 59.288
H 47.158 41.964 62.824
H 42.992 42.952 59.015
H 47.467 43.128 61.899
H 45.897 32.649 68.407
H 46.329 34.09 68.195
H 45.911 41.003 60.86
H 45.156 39.746 61.255
H 40.341 39.909 59.488
H 39.814 38.905 60.499
H 47.713 39.466 62.423
H 48.074 38.776 63.727
