233
xyz format
O 59.583 55.722 38.457
O 55.752 53.306 41.348
O 62.842 59.32 50.441
O 59.892 64.597 44.045
O 54.453 56.755 39.842
O 62.267 63.912 49.325
O 62.752 58.048 44.383
O 60.951 62.205 43.16
O 60.603 53.293 37.665
O 57.793 65.457 45.373
O 61.539 55.57 41.633
O 52.703 53.557 40.845
O 65.141 55.078 45.493
O 65.816 54.329 48.2
O 62.79 61.89 41.071
O 63.446 63.312 46.768
O 65.525 52.671 44.585
O 55.795 60.641 40.337
O 61.746 48.45 48.04
O 62.799 56.683 39.336
O 62.787 52.349 46.174
O 57.659 64.519 48.088
O 60.875 56.202 50.356
O 60.733 58.5 38.045
O 61.67 60.589 49.077
O 67.53 55.478 44.629
O 55.779 60.703 52.103
O 63.355 58.652 38.526
O 59.399 49.094 44.669
O 60.014 61.846 50.729
O 56.906 48.665 42.027
O 63.951 57.903 46.767
O 59.342 57.664 49.762
O 54.237 59.335 38.115
O 58.264 59.554 45.095
O 63.897 50.046 47.79
O 57.548 52.303 44.476
O 61.369 48.486 42.344
O 59.425 57.438 41.472
O 57.741 58.74 36.33
O 64.402 61.363 50.707
O 57.776 62.291 50.856
O 62.31 52.908 43.54
O 59.547 53.745 45.963
O 59.739 56.869 45.804
O 62.898 54.962 51.608
O 57.302 55.255 38.117
O 61.818 53.825 48.639
O 55.711 66.633 47.31
O 54.624 64.417 45.167
O 56.446 50.871 40.283
O 57.216 55.613 46.616
O 57.233 58.595 38.722
O 57.225 52.662 37.699
O 57.528 54.975 41.331
O 58.972 60.969 41.817
O 62.618 64.824 43.263
O 55.293 63.072 41.956
O 61.48 51.258 49.088
O 57.568 62.218 45.647
O 58.034 60.286 47.16
O 64.109 55.729 48.859
O 58.134 55.782 52.161
O 55.5 60.524 43.901
O 63.845 62.107 44.969
O 60.41 58.431 47.998
O 58.316 54.111 48.936
O 61.716 55.792 45.973
O 56.998 55.032 44.209
O 60.976 59.705 44.48
O 59.429 55.082 42.667
O 54.216 54.975 43.071
O 66.894 57.467 45.327
O 59.719 49.752 39.534
O 62.888 60.417 46.224
O 59.652 52.897 39.842
O 60.461 57.639 43.872
O 56.121 58.474 44.4
O 64.72 61.502 47.32
O 63.8 55.418 37.834
O 56.23 60.142 49.067
O 59.887 50.759 47.083
O 62.766 59.39 42.403
O 60.246 52.807 42.008
O 59.295 50.375 42.726
H 64.068 51.625 43.212
H 54.418 62.882 41.595
H 62.155 64.302 43.93
H 60.765 50.376 47.203
H 59.906 51.096 46.178
H 57.268 56.08 38.617
H 57.233 54.572 38.796
H 62.5 53.147 48.548
H 60.993 53.336 48.529
H 56.493 59.211 38.8
H 57.863 58.909 39.382
H 61.811 47.628 42.321
H 56.197 66.382 48.105
H 55.161 64.224 45.945
H 57.569 52.964 36.849
H 64.782 60.642 47.755
H 64.858 62.132 48.038
H 57.875 61.335 50.763
H 56.94 57.967 44.337
H 56.174 58.89 45.269
H 62.996 55.156 50.668
H 56.808 55.354 40.812
H 58.306 55.107 40.775
H 53.33 61.77 39.504
H 58.999 56.547 45.275
H 59.686 56.347 46.614
H 58.753 58.083 41.217
H 60.022 57.418 40.714
H 58.313 58.165 36.854
H 56.854 58.406 36.509
H 60.83 62.184 50.338
H 60.021 60.909 50.498
H 59.944 53.127 45.335
H 58.711 53.988 45.547
H 63.225 57.679 47.362
H 64.643 58.221 47.36
H 59.303 55.934 43.102
H 60.184 54.698 43.131
H 60.886 63.121 40.519
H 66.606 59.638 49.222
H 66.576 59.367 47.728
H 64.026 62.832 44.358
H 54.479 60.094 38.66
H 59.768 58.458 50.109
H 58.543 58.0 49.337
H 59.232 63.991 41.857
H 53.358 59.364 41.048
H 55.793 60.689 42.997
H 55.969 61.19 44.419
H 59.913 61.028 41.609
H 58.883 60.102 42.232
H 63.663 61.358 44.388
H 58.565 60.433 44.833
H 59.068 59.12 45.406
H 62.806 53.46 44.157
H 59.652 58.4 47.402
H 61.169 58.461 47.402
H 58.232 51.655 44.266
H 56.945 52.252 43.725
H 63.651 50.978 47.854
H 62.068 52.136 44.067
H 57.539 59.499 47.421
H 58.553 60.5 47.945
H 59.744 50.716 39.572
H 61.219 60.522 48.226
H 62.54 60.938 48.848
H 67.005 54.794 44.195
H 53.716 54.235 43.438
H 53.656 55.295 42.352
H 65.818 59.183 42.333
H 60.931 60.318 45.224
H 60.478 60.151 43.784
H 55.739 61.186 51.269
H 56.524 60.1 51.984
H 60.208 48.851 44.202
H 58.804 48.354 44.498
H 61.597 51.7 49.938
H 58.17 62.629 46.28
H 56.844 62.853 45.574
H 64.615 56.175 48.167
H 63.699 54.986 48.4
H 57.307 51.463 48.213
H 60.867 57.826 38.723
H 60.964 59.324 38.491
H 60.803 55.315 50.729
H 61.123 56.749 51.111
H 61.866 52.299 46.461
H 63.056 53.242 46.421
H 57.031 64.0 47.57
H 57.31 64.471 48.987
H 62.126 55.729 46.845
H 62.006 54.987 45.525
H 57.204 55.861 43.757
H 57.525 54.376 43.735
H 61.031 57.578 43.095
H 59.684 58.112 43.55
H 63.526 61.396 41.454
H 62.055 61.266 41.1
H 62.01 54.729 41.698
H 60.854 55.398 40.975
H 53.073 53.784 39.983
H 51.796 53.884 40.799
H 62.497 55.796 39.566
H 63.282 56.971 40.12
H 56.506 60.386 40.938
H 55.074 60.891 40.927
H 56.737 56.448 46.539
H 56.55 54.996 46.943
H 65.448 53.984 47.377
H 64.823 52.659 45.248
H 62.532 63.604 46.657
H 59.713 53.832 39.609
H 58.821 52.836 40.33
H 62.635 61.268 46.604
H 62.893 59.82 46.982
H 65.298 55.949 45.878
H 64.193 55.076 45.309
H 62.516 60.142 42.954
H 63.651 59.163 42.713
H 60.536 55.62 38.575
H 59.426 55.398 37.562
H 62.288 57.799 45.192
H 63.679 57.865 44.584
H 58.264 64.795 45.895
H 57.045 64.969 45.006
H 59.695 53.099 37.401
H 60.972 53.748 36.898
H 58.83 53.645 48.265
H 57.561 53.53 49.091
H 60.173 62.444 43.68
H 58.769 55.771 51.434
H 58.583 49.756 48.871
H 61.659 62.161 43.814
H 54.799 56.23 40.574
H 54.346 56.113 39.129
H 60.955 52.271 41.631
H 60.194 52.508 42.924
H 60.22 50.359 42.451
H 58.973 49.494 42.499
H 55.118 54.032 41.3
H 64.002 54.485 37.98
H 55.772 52.959 40.447
H 63.675 58.836 50.381
H 62.238 58.689 50.85
H 60.181 64.318 44.923
H 56.685 59.743 49.819
H 55.298 60.112 49.32
H 62.001 63.183 48.75
