56
xyz format
O 69.063 34.281 57.54
O 69.456 35.353 54.513
O 67.296 31.438 55.417
O 69.742 33.516 53.337
O 65.216 34.181 61.503
O 67.157 36.481 56.673
O 70.231 31.588 56.036
O 65.474 34.816 58.02
O 66.274 30.527 58.281
O 68.861 31.524 60.829
O 66.284 29.119 61.082
O 68.973 30.499 53.348
O 65.478 33.409 63.918
O 71.021 36.693 56.206
O 71.505 31.613 53.708
O 68.528 33.361 62.826
O 67.38 33.776 65.297
O 70.71 33.893 59.118
O 69.548 31.46 58.123
O 67.151 35.459 61.34
H 67.801 35.242 60.661
H 71.217 30.759 53.364
H 71.663 32.139 52.914
H 66.193 33.58 55.624
H 67.167 34.219 54.649
H 68.211 33.381 65.003
H 68.917 31.353 52.903
H 69.947 31.161 58.95
H 68.909 30.767 57.913
H 66.309 29.958 60.605
H 67.794 33.551 62.229
H 69.264 33.171 62.231
H 66.618 31.568 53.328
H 70.151 33.433 59.758
H 70.809 33.255 58.401
H 72.709 34.204 53.183
H 68.243 36.054 63.174
H 70.246 37.075 56.637
H 66.157 32.849 63.522
H 65.82 35.647 58.367
H 66.242 34.232 58.012
H 68.302 30.777 61.076
H 68.33 32.003 60.181
H 66.91 31.045 58.789
H 71.045 31.123 55.803
H 70.303 32.427 55.564
H 66.904 36.302 55.758
H 66.54 37.169 56.951
H 70.49 34.0 52.964
H 70.375 30.71 51.249
H 71.745 31.263 50.898
H 68.888 35.479 55.284
H 69.773 34.854 57.225
H 68.312 34.879 57.64
H 67.582 30.553 55.158
H 68.043 31.781 55.924
