116
xyz format
O 59.509 53.567 70.493
O 58.796 59.374 64.961
O 64.423 56.929 66.829
O 56.871 54.921 68.371
O 59.315 59.568 71.552
O 63.319 59.946 67.882
O 56.347 56.773 69.443
O 61.378 51.59 68.789
O 53.87 53.66 68.672
O 64.113 56.623 64.676
O 58.954 55.719 71.991
O 59.051 56.579 63.042
O 60.257 52.488 65.709
O 62.059 55.315 65.918
O 54.662 56.543 64.089
O 61.329 57.219 66.991
O 58.218 51.392 64.638
O 59.26 56.624 70.009
O 59.672 53.905 63.461
O 58.291 55.897 65.975
O 55.395 58.188 65.856
O 57.868 52.088 68.687
O 58.266 52.377 61.636
O 59.831 58.823 61.169
O 56.364 54.83 63.474
O 55.106 54.612 70.907
O 54.29 59.603 71.774
O 63.215 53.304 68.294
O 57.144 58.857 72.231
O 60.544 60.771 65.385
O 56.957 60.557 66.723
O 62.204 51.375 64.503
O 59.477 54.624 67.64
O 62.105 55.706 69.222
O 60.517 60.802 70.185
O 59.188 61.6 68.093
O 58.454 57.81 67.415
O 62.08 57.686 71.165
H 54.331 59.265 72.677
H 54.834 56.055 64.904
H 61.081 52.601 72.513
H 60.56 58.213 61.339
H 62.719 56.111 68.596
H 61.247 55.79 68.788
H 57.063 55.246 63.993
H 54.436 55.2 70.535
H 55.914 55.138 70.879
H 55.89 54.289 64.118
H 56.07 57.841 65.259
H 59.461 57.353 69.409
H 59.131 55.871 69.42
H 57.709 60.843 66.19
H 60.424 54.079 64.041
H 58.938 53.767 64.072
H 61.883 50.667 65.076
H 59.214 56.161 66.07
H 57.892 56.63 65.489
H 55.61 59.365 68.012
H 58.217 56.565 60.373
H 61.466 58.1 67.362
H 61.037 57.394 66.088
H 58.016 52.131 65.226
H 58.423 50.668 65.243
H 57.531 57.983 72.369
H 56.279 58.667 71.848
H 59.201 56.028 63.82
H 58.645 57.378 63.401
H 59.622 55.961 72.644
H 58.123 55.784 72.478
H 54.238 52.482 70.96
H 58.653 60.802 68.194
H 60.182 51.021 63.711
H 60.029 51.764 66.305
H 61.095 52.816 66.057
H 52.259 55.969 72.223
H 57.204 52.096 69.388
H 62.814 55.358 66.518
H 61.335 55.016 66.482
H 56.771 52.426 63.342
H 54.093 54.561 68.406
H 53.216 53.783 69.372
H 63.613 57.432 64.843
H 60.287 50.768 71.079
H 60.548 51.215 68.469
H 61.099 52.35 69.315
H 62.593 59.649 68.444
H 56.608 57.143 70.296
H 55.385 56.856 69.442
H 57.545 57.758 67.735
H 58.774 58.649 67.769
H 55.874 49.9 70.751
H 61.258 57.255 71.429
H 59.174 58.723 71.107
H 58.654 60.149 71.156
H 57.481 55.567 67.994
H 57.453 54.248 68.745
H 57.484 51.647 71.524
H 63.393 52.078 66.226
H 62.902 50.931 67.092
H 63.928 57.532 67.396
H 64.937 56.399 67.451
H 57.799 58.226 74.539
H 59.286 54.093 66.857
H 59.66 53.968 68.323
H 58.999 58.527 65.378
H 59.295 59.347 64.135
H 63.808 53.811 67.725
H 62.391 53.27 67.792
H 60.844 52.588 62.139
H 58.88 54.477 61.395
H 57.362 54.424 61.404
H 56.61 56.379 74.418
H 61.184 57.37 63.276
H 59.305 52.73 70.928
H 60.101 54.01 71.115
H 56.11 58.767 63.263
