460
xyz format
O 67.443 45.63 45.603
O 68.359 43.086 54.523
O 69.831 48.448 45.987
O 74.857 41.91 41.833
O 64.275 48.624 42.465
O 63.784 46.708 48.397
O 64.909 40.94 43.163
O 67.345 48.817 50.344
O 71.236 40.427 49.196
O 66.077 51.943 48.352
O 72.701 40.453 37.467
O 65.304 43.889 46.505
O 70.084 34.179 42.561
O 66.687 42.664 35.601
O 62.194 42.612 47.902
O 62.081 40.221 36.613
O 62.173 44.389 42.685
O 73.451 42.217 35.634
O 63.103 48.738 45.302
O 67.561 37.754 41.403
O 71.921 50.145 46.021
O 72.564 43.314 37.78
O 68.132 44.456 39.404
O 70.887 45.059 49.576
O 70.952 45.473 40.043
O 63.509 35.883 46.965
O 71.902 37.543 42.603
O 66.393 42.618 45.076
O 72.754 38.695 44.273
O 68.807 50.74 45.586
O 61.473 44.715 48.2
O 67.316 36.873 45.045
O 66.266 39.062 38.048
O 65.525 52.671 44.585
O 76.559 40.556 43.807
O 72.217 46.232 42.651
O 68.83 44.092 41.94
O 68.506 46.737 47.887
O 63.502 41.26 46.724
O 69.998 38.521 46.452
O 62.061 43.908 37.631
O 69.679 46.657 34.673
O 65.778 46.918 42.973
O 64.222 45.19 42.549
O 66.673 43.966 42.372
O 61.746 48.45 48.04
O 71.55 42.045 41.691
O 66.14 43.802 53.398
O 67.857 40.342 36.176
O 74.299 42.512 49.231
O 59.735 44.46 49.947
O 74.787 41.464 51.604
O 65.915 35.229 38.306
O 77.402 45.196 48.195
O 68.857 42.968 45.345
O 62.508 37.306 37.731
O 65.584 36.578 46.605
O 75.722 43.93 41.154
O 70.173 46.186 45.534
O 62.906 39.422 43.925
O 66.572 35.879 42.058
O 73.702 51.787 42.779
O 62.426 43.614 45.743
O 63.943 37.252 50.03
O 59.052 40.635 45.899
O 61.117 37.571 41.945
O 69.825 43.099 38.317
O 62.966 35.992 41.161
O 66.814 46.949 52.976
O 69.466 49.221 48.582
O 66.986 42.563 49.955
O 60.062 44.345 41.674
O 72.318 38.561 47.268
O 75.344 40.312 46.613
O 59.668 41.292 39.142
O 68.683 34.041 48.925
O 68.37 46.646 41.621
O 72.63 42.195 44.045
O 61.991 41.178 50.57
O 73.252 44.143 46.298
O 63.531 43.32 52.289
O 66.915 40.92 53.767
O 68.556 48.274 43.101
O 73.4 37.316 49.901
O 64.221 38.518 40.79
O 76.358 46.786 39.045
O 64.435 39.502 50.039
O 66.349 33.769 46.959
O 63.897 50.046 47.79
O 74.426 43.695 39.391
O 69.046 35.921 46.022
O 67.153 39.17 51.721
O 67.928 44.615 47.791
O 71.943 43.874 48.046
O 72.746 39.699 40.29
O 72.258 39.458 51.406
O 70.372 42.151 35.518
O 68.57 43.342 51.808
O 69.876 40.911 44.022
O 67.536 33.841 41.727
O 75.517 46.397 47.702
O 64.586 43.393 49.489
O 74.923 38.278 45.443
O 70.151 37.013 44.08
O 77.2 42.696 46.561
O 71.249 43.865 43.486
O 65.53 42.804 37.469
O 71.555 48.52 44.573
O 74.359 48.141 43.669
O 65.993 48.457 40.905
O 59.805 41.423 48.572
O 70.24 45.853 51.53
O 58.55 44.819 46.721
O 73.983 46.165 39.976
O 69.867 37.018 41.266
O 63.815 45.919 53.122
O 67.926 40.622 43.046
O 67.39 45.465 35.564
O 70.437 48.094 41.294
O 61.358 35.36 43.722
O 71.048 48.164 38.908
O 64.654 39.384 52.712
O 66.21 44.838 51.374
O 64.679 37.913 45.103
O 60.695 40.219 43.778
O 68.599 50.251 38.54
O 59.949 43.914 44.681
O 73.904 48.505 39.58
O 70.683 50.986 36.535
O 70.421 51.212 48.57
O 63.68 50.758 43.388
O 77.267 43.918 42.762
O 66.182 51.454 42.628
O 61.644 42.892 39.623
O 69.778 41.124 54.197
O 66.476 35.428 49.127
O 64.148 40.605 39.335
O 74.619 38.452 40.942
O 70.384 41.215 47.306
O 61.191 37.962 45.881
O 73.845 36.116 44.6
O 66.353 46.773 48.338
O 67.555 37.264 48.467
O 73.779 48.14 35.829
O 71.557 44.209 35.465
O 71.952 52.018 39.092
O 65.226 47.043 46.374
O 69.449 41.964 49.151
O 65.066 40.585 34.809
O 69.57 38.454 49.617
O 67.213 49.441 44.803
O 67.077 39.77 48.91
O 64.673 34.846 43.952
O 65.652 39.855 45.902
O 64.33 43.585 40.127
O 68.423 36.015 39.495
O 72.581 34.149 46.699
O 71.009 45.974 37.319
O 58.394 41.651 42.138
O 62.357 41.464 42.486
O 64.177 47.751 50.972
O 71.976 49.716 41.266
O 63.232 47.84 39.281
O 59.68 39.323 41.176
O 76.751 47.587 41.916
O 75.367 45.411 43.859
O 60.832 46.359 45.268
O 75.293 42.702 45.464
O 63.671 43.581 35.382
O 70.797 34.651 48.911
H 69.06 44.009 51.312
H 68.945 42.506 51.501
H 61.772 46.577 45.259
H 60.514 46.676 44.414
H 77.292 44.866 42.942
H 76.997 43.531 43.604
H 75.325 43.618 45.768
H 74.648 42.722 44.746
H 59.73 44.599 44.038
H 67.939 50.061 39.219
H 69.428 50.296 39.032
H 59.645 43.1 44.261
H 61.248 40.821 44.291
H 60.665 39.419 44.317
H 62.149 35.668 44.182
H 69.734 48.755 41.256
H 70.561 47.945 42.24
H 68.212 36.816 49.014
H 77.377 46.856 41.989
H 76.697 47.933 42.816
H 60.243 39.954 41.641
H 73.282 48.068 38.985
H 73.765 49.444 39.407
H 69.988 41.552 36.17
H 70.107 41.769 34.672
H 71.198 49.022 39.324
H 70.341 48.338 38.273
H 71.542 50.578 41.266
H 72.096 49.52 42.203
H 71.287 51.36 48.169
H 61.452 41.697 42.244
H 62.793 41.322 41.637
H 66.705 44.851 35.855
H 75.047 38.878 44.697
H 75.735 37.755 45.453
H 64.5 42.452 49.293
H 64.494 44.506 39.89
H 74.964 45.681 48.038
H 64.941 43.766 48.672
H 64.317 43.129 39.276
H 71.578 46.203 38.064
H 70.13 46.249 37.608
H 67.212 40.133 43.472
H 67.73 40.542 42.104
H 72.72 40.018 52.041
H 72.652 38.587 51.539
H 66.195 43.02 38.135
H 65.203 43.666 37.183
H 69.437 36.386 43.907
H 70.917 36.449 44.241
H 77.883 43.161 47.059
H 76.722 42.199 47.237
H 72.032 48.049 43.877
H 70.945 49.088 44.088
H 70.542 43.312 43.842
H 71.656 44.25 44.271
H 73.531 40.26 40.319
H 72.182 40.059 40.986
H 67.075 48.516 45.041
H 66.596 49.919 45.37
H 62.717 40.61 50.855
H 62.168 42.016 51.016
H 73.03 42.589 43.259
H 72.969 41.291 44.045
H 68.948 48.078 43.961
H 68.549 49.239 43.066
H 66.715 38.682 51.012
H 67.491 39.96 51.281
H 69.448 40.53 44.799
H 70.802 40.989 44.285
H 70.941 41.247 46.518
H 75.251 39.12 41.238
H 69.633 40.672 47.034
H 74.071 38.295 41.721
H 73.031 47.53 35.823
H 69.377 38.704 50.529
H 70.269 37.794 49.704
H 64.206 43.101 51.635
H 62.937 43.916 51.816
H 65.636 47.891 46.584
H 65.12 47.07 45.415
H 73.416 44.686 45.517
H 72.897 43.321 45.935
H 66.476 34.467 49.042
H 65.565 35.676 48.926
H 64.219 38.462 39.826
H 63.285 38.577 41.019
H 69.685 41.55 53.336
H 72.206 43.377 48.83
H 71.387 43.254 47.557
H 63.966 37.594 44.535
H 65.423 38.021 44.498
H 66.907 37.586 49.106
H 72.024 51.059 39.174
H 64.42 40.158 52.185
H 64.777 38.688 52.055
H 66.986 44.584 50.859
H 65.523 44.965 50.708
H 64.854 40.371 50.009
H 64.485 39.191 49.126
H 73.924 42.873 39.452
H 74.639 43.765 38.452
H 66.609 32.913 47.322
H 66.299 40.936 53.024
H 65.959 33.547 46.105
H 76.031 47.681 39.202
H 76.789 46.551 39.875
H 69.458 35.081 46.261
H 68.719 36.264 46.863
H 72.67 36.702 50.046
H 73.045 37.948 49.262
H 67.88 43.892 47.153
H 67.267 44.382 48.453
H 64.837 50.073 47.571
H 60.562 37.0 42.491
H 61.67 38.034 42.586
H 60.613 45.028 41.273
H 60.141 43.6 41.066
H 74.113 36.637 43.833
H 73.367 36.749 45.151
H 61.892 37.759 45.249
H 64.431 40.987 35.414
H 66.295 42.461 50.622
H 67.407 41.695 49.926
H 61.572 38.657 46.431
H 74.526 40.825 46.623
H 75.466 40.057 47.536
H 68.406 34.086 48.002
H 67.849 46.221 42.313
H 69.244 46.246 41.713
H 69.23 42.651 48.509
H 70.21 42.326 49.622
H 72.538 37.67 46.971
H 73.148 39.046 47.173
H 66.29 50.784 43.315
H 66.857 51.225 41.977
H 62.79 36.147 42.097
H 63.85 36.359 41.03
H 66.563 47.803 53.349
H 66.301 46.896 52.16
H 70.874 34.714 42.709
H 69.403 34.83 42.352
H 69.732 48.338 48.869
H 68.506 49.158 48.507
H 62.27 42.329 39.149
H 62.153 43.688 39.818
H 69.516 43.688 37.618
H 69.179 42.382 38.316
H 64.721 36.984 50.534
H 63.379 37.679 50.688
H 61.781 42.897 45.714
H 61.894 44.407 45.599
H 65.874 35.601 41.452
H 66.15 36.56 42.597
H 63.609 39.764 44.492
H 63.292 39.45 43.04
H 71.06 46.53 45.37
H 69.984 45.656 44.751
H 66.305 35.962 46.785
H 65.641 37.216 47.328
H 75.788 44.839 40.836
H 76.375 43.454 40.625
H 68.507 42.758 44.47
H 68.568 42.226 45.891
H 70.406 35.225 48.241
H 59.813 43.731 49.319
H 70.627 44.329 35.695
H 71.563 44.257 34.501
H 75.57 41.95 51.891
H 74.828 40.644 52.111
H 65.913 46.087 48.857
H 77.185 44.418 48.724
H 66.261 47.565 48.881
H 63.261 40.438 39.677
H 64.584 41.086 40.05
H 66.155 43.108 52.727
H 65.279 44.222 53.274
H 66.915 40.527 36.071
H 63.242 42.805 35.763
H 63.141 43.774 34.599
H 74.059 41.827 48.594
H 74.59 43.247 48.677
H 70.174 44.494 49.253
H 70.63 45.943 49.285
H 63.962 45.689 41.765
H 64.512 44.34 42.195
H 70.602 44.833 40.674
H 67.686 39.449 48.234
H 66.339 40.13 48.402
H 72.548 44.271 37.654
H 71.789 43.006 37.293
H 71.444 46.094 40.595
H 64.376 35.671 43.548
H 67.972 45.094 40.11
H 68.236 43.618 39.872
H 66.558 39.828 46.234
H 65.137 39.448 46.611
H 72.277 42.266 41.096
H 70.822 41.831 41.093
H 61.371 48.078 47.232
H 61.621 47.75 48.693
H 66.602 44.13 43.32
H 66.314 43.076 42.265
H 68.535 46.485 48.818
H 69.389 46.52 47.563
H 66.066 46.248 43.605
H 66.372 47.661 43.139
H 69.445 46.251 35.517
H 74.575 46.654 40.561
H 73.581 45.506 40.555
H 70.171 36.215 40.825
H 69.576 37.583 40.538
H 64.667 47.081 50.478
H 63.263 47.444 50.93
H 65.426 48.856 40.233
H 66.176 49.185 41.511
H 60.517 40.788 48.719
H 60.105 41.931 47.808
H 69.542 46.328 51.998
H 70.928 46.519 51.406
H 59.497 44.631 46.733
H 74.021 47.327 43.275
H 73.985 48.837 43.115
H 59.27 41.912 42.447
H 64.111 45.758 52.218
H 66.443 42.006 44.331
H 72.911 39.309 45.001
H 73.093 39.163 43.5
H 69.201 51.56 45.909
H 69.015 50.741 44.643
H 61.528 45.592 47.8
H 61.845 44.842 49.082
H 76.152 40.139 43.037
H 75.807 40.905 44.303
H 67.525 37.412 44.272
H 66.901 36.086 44.671
H 66.397 40.013 38.147
H 66.221 38.741 38.958
H 66.377 42.039 45.848
H 62.848 35.635 46.306
H 63.928 35.044 47.195
H 71.542 38.227 42.024
H 71.922 36.756 42.044
H 62.966 39.946 36.885
H 63.749 47.196 39.78
H 62.429 41.917 48.529
H 62.988 43.16 47.859
H 67.112 42.849 34.754
H 67.395 42.789 36.245
H 70.42 48.277 46.732
H 68.949 48.327 46.359
H 65.315 40.484 42.415
H 64.614 41.779 42.788
H 67.306 48.652 51.294
H 66.6 49.41 50.183
H 72.309 49.888 46.867
H 71.002 50.341 46.24
H 63.274 48.61 46.244
H 62.142 48.826 45.255
H 67.134 38.421 41.956
H 66.918 37.594 40.7
H 62.477 43.573 43.101
H 61.974 44.967 43.432
H 62.793 40.988 46.128
H 64.219 41.511 46.128
H 73.653 46.083 50.059
H 72.075 40.901 49.254
H 71.501 39.506 49.079
H 73.391 40.298 38.124
H 72.903 39.819 36.768
H 68.807 44.28 42.886
H 75.288 45.596 44.803
H 74.582 44.886 43.662
H 69.396 43.313 41.874
H 71.313 45.977 42.874
H 72.692 45.392 42.626
H 70.622 39.044 45.934
H 69.139 38.753 46.079
H 63.637 48.505 43.18
H 64.095 47.884 41.872
H 67.938 46.44 45.779
H 67.8 45.321 44.761
H 68.338 43.926 54.048
H 67.497 43.045 54.956
H 74.382 41.179 42.247
H 75.416 42.251 42.542
H 63.766 45.75 48.52
H 63.349 46.838 47.545
H 65.69 44.741 46.743
H 64.681 44.108 45.8
