128
xyz format
O 58.854 25.863 38.608
O 50.95 28.337 43.547
O 53.805 22.386 44.661
O 55.185 25.407 42.795
O 62.03 26.854 49.778
O 49.805 28.0 47.394
O 60.264 31.615 47.188
O 50.034 26.616 50.135
O 51.808 28.999 46.82
O 60.551 33.734 49.626
O 64.024 32.977 44.916
O 51.48 32.473 41.063
O 55.794 25.778 50.403
O 50.48 34.18 45.073
O 58.427 26.082 47.382
O 56.685 35.957 49.083
O 58.4 34.241 47.166
O 51.711 31.118 44.052
O 59.234 28.691 48.974
O 52.252 26.546 47.882
O 61.435 34.115 47.557
O 55.123 28.446 40.186
O 55.289 33.409 42.936
O 55.036 26.209 47.893
O 51.592 21.91 48.687
O 63.587 31.934 46.821
O 55.014 28.877 45.193
O 53.489 32.314 44.844
O 53.799 31.697 38.314
O 58.732 32.014 45.041
O 55.254 30.614 43.803
O 56.932 33.895 50.321
O 55.6 28.51 49.681
O 54.877 29.222 37.498
O 52.97 23.888 49.165
O 56.573 27.325 45.185
O 55.195 26.889 52.277
O 52.751 26.909 50.263
O 55.208 24.706 45.187
O 61.704 28.221 44.85
O 59.597 30.668 50.29
O 57.955 28.652 46.267
O 57.554 27.156 41.065
O 61.724 31.721 45.545
O 58.877 30.145 43.394
O 55.361 32.467 39.741
O 62.579 30.466 49.483
O 64.499 30.83 44.951
H 58.527 32.469 45.868
H 59.141 31.189 45.329
H 53.294 33.171 44.446
H 53.085 32.371 45.719
H 57.996 26.376 41.424
H 57.504 27.758 41.817
H 51.435 32.043 44.034
H 52.404 31.073 43.382
H 64.53 31.997 47.018
H 63.232 31.423 47.56
H 49.937 30.48 42.488
H 54.472 29.544 45.633
H 54.378 28.197 44.938
H 55.982 32.894 42.504
H 55.441 33.255 43.877
H 62.05 33.523 47.106
H 53.851 30.793 38.648
H 55.181 27.783 40.886
H 55.637 29.187 40.53
H 55.28 27.767 51.883
H 55.034 27.071 53.211
H 56.505 26.442 44.802
H 56.844 27.877 44.441
H 58.743 26.851 47.874
H 58.032 26.465 46.589
H 51.429 26.447 47.387
H 52.933 26.28 47.251
H 62.976 29.752 48.968
H 62.531 30.104 50.377
H 51.43 34.243 44.913
H 57.637 29.862 51.186
H 62.518 29.586 46.372
H 55.064 29.792 36.742
H 55.588 29.423 38.12
H 58.743 28.365 49.739
H 57.448 34.359 47.28
H 58.66 33.719 47.934
H 60.158 28.594 49.237
H 57.272 28.008 38.108
H 58.564 27.059 51.704
H 54.746 31.224 43.254
H 55.881 30.217 43.185
H 52.682 24.639 49.699
H 53.595 24.276 48.54
H 56.346 26.086 49.673
H 55.001 25.444 49.966
H 51.703 31.559 41.281
H 60.032 35.849 47.915
H 56.493 28.385 50.024
H 56.012 32.904 40.305
H 55.369 31.552 40.048
H 60.062 32.924 49.433
H 63.709 30.727 44.405
H 52.035 28.241 46.267
H 50.587 26.26 49.429
H 60.959 31.65 47.857
H 59.449 31.678 47.702
H 58.959 30.146 42.432
H 58.003 29.767 43.55
H 55.935 24.57 45.808
H 54.446 24.865 45.757
H 53.584 26.932 50.751
H 55.583 26.116 42.276
H 54.574 25.868 43.383
H 53.286 21.74 45.156
H 54.522 22.615 45.265
H 61.581 31.117 44.805
H 61.554 32.592 45.166
H 51.447 22.684 48.129
H 62.461 28.615 44.398
H 60.412 30.714 49.774
H 58.901 30.765 49.628
H 55.412 25.324 47.808
H 61.052 28.933 44.868
H 55.101 26.572 47.001
H 58.157 26.247 39.155
H 57.971 24.126 49.868
H 51.367 28.795 42.807
H 57.833 29.594 46.094
H 58.808 28.453 45.863
