126
xyz format
O 63.38 32.816 56.995
O 62.767 29.328 54.957
O 64.17 33.117 48.956
O 69.456 35.353 54.513
O 64.14 35.152 56.3
O 62.639 28.236 52.425
O 62.098 31.907 51.568
O 62.904 31.666 54.133
O 67.296 31.438 55.417
O 62.03 26.854 49.778
O 69.742 33.516 53.337
O 60.551 33.734 49.626
O 63.755 33.909 52.547
O 62.591 35.002 50.5
O 67.157 36.481 56.673
O 70.231 31.588 56.036
O 66.119 29.495 53.873
O 67.957 29.996 50.551
O 65.474 34.816 58.02
O 68.683 34.041 48.925
O 68.973 30.499 53.348
O 69.784 35.492 51.381
O 66.7 32.576 50.147
O 66.581 36.905 53.668
O 71.505 31.613 53.708
O 66.965 32.37 52.918
O 63.146 26.079 54.305
O 60.027 29.357 52.167
O 71.148 30.531 50.699
O 66.43 35.696 51.309
O 68.274 30.779 47.532
O 63.587 31.934 46.821
O 59.054 26.879 52.516
O 64.562 27.664 48.159
O 59.477 32.586 51.539
O 66.476 35.428 49.127
O 64.577 30.162 51.188
O 65.962 30.659 49.346
O 59.597 30.668 50.29
O 66.282 34.326 55.018
O 63.326 29.334 46.836
O 62.579 30.466 49.483
H 71.217 30.759 53.364
H 71.663 32.139 52.914
H 66.193 33.58 55.624
H 67.167 34.219 54.649
H 64.53 31.997 47.018
H 63.232 31.423 47.56
H 64.315 27.829 49.077
H 59.555 28.983 52.921
H 60.694 29.925 52.572
H 68.92 31.495 47.57
H 68.793 29.991 47.737
H 65.06 28.452 47.909
H 61.699 30.685 56.321
H 61.99 34.581 48.194
H 66.339 31.044 48.545
H 65.102 30.328 49.058
H 68.917 31.353 52.903
H 68.888 29.86 52.63
H 62.976 29.752 48.968
H 62.531 30.104 50.377
H 66.618 31.568 53.328
H 57.637 29.862 51.186
H 66.26 33.017 53.045
H 62.518 29.586 46.372
H 66.476 34.467 49.042
H 65.565 35.676 48.926
H 58.743 28.365 49.739
H 60.158 28.594 49.237
H 58.564 27.059 51.704
H 69.237 34.867 50.889
H 66.609 32.913 47.322
H 65.852 32.467 50.596
H 67.267 32.969 50.822
H 67.286 36.436 53.204
H 65.786 36.671 53.174
H 66.242 34.232 58.012
H 69.051 33.152 49.011
H 68.724 29.945 49.967
H 67.995 30.894 50.902
H 71.045 31.123 55.803
H 70.303 32.427 55.564
H 58.905 33.112 52.112
H 59.791 31.879 52.116
H 63.466 34.666 55.807
H 64.202 35.994 55.833
H 64.389 33.46 51.975
H 64.269 34.124 53.336
H 63.204 35.464 51.085
H 61.949 34.61 51.105
H 65.349 29.176 53.387
H 66.857 29.313 53.278
H 66.904 36.302 55.758
H 66.336 30.644 46.381
H 60.062 32.924 49.433
H 57.289 29.652 53.348
H 60.959 31.65 47.857
H 69.085 33.53 52.63
H 70.49 34.0 52.964
H 62.763 26.389 47.663
H 62.986 36.758 53.515
H 60.412 30.714 49.774
H 70.375 30.71 51.249
H 71.745 31.263 50.898
H 67.131 35.059 51.495
H 62.027 28.409 51.698
H 63.51 28.323 52.018
H 63.928 35.044 47.195
H 61.852 32.648 52.136
H 62.115 32.293 50.683
H 64.737 30.839 51.856
H 65.365 29.607 51.23
H 68.888 35.479 55.284
H 69.507 36.233 54.119
H 64.297 33.779 49.647
H 63.933 32.319 49.444
H 62.845 32.628 54.099
H 61.991 31.375 54.013
H 67.582 30.553 55.158
H 68.043 31.781 55.924
H 61.127 26.825 50.118
H 62.175 27.79 49.592
H 63.642 32.358 56.187
H 62.981 28.725 55.679
H 63.628 29.658 54.671
