173
xyz format
O 57.597 59.338 57.539
O 56.971 56.456 61.233
O 53.002 55.234 64.948
O 53.917 56.456 60.752
O 57.683 59.812 64.423
O 52.742 58.402 61.113
O 58.673 53.894 65.016
O 56.811 62.889 63.154
O 58.789 60.565 59.902
O 50.162 51.271 64.117
O 53.377 50.61 68.82
O 50.273 56.49 65.264
O 55.685 61.72 59.188
O 50.681 58.873 68.478
O 46.658 55.775 68.277
O 59.031 58.313 61.513
O 62.618 56.531 63.984
O 47.762 55.844 60.986
O 52.018 58.647 64.896
O 50.232 54.354 70.041
O 57.718 56.898 58.626
O 53.947 61.025 65.406
O 58.04 61.06 61.915
O 50.958 56.351 60.074
O 55.52 58.809 59.409
O 52.598 57.597 66.74
O 60.84 55.037 65.817
O 55.733 57.99 66.767
O 52.387 52.503 68.297
O 50.187 50.649 68.236
O 57.376 56.165 67.525
O 51.03 54.17 64.199
O 54.921 60.251 61.477
O 51.598 63.565 62.036
O 59.125 58.062 65.249
O 52.653 48.776 64.577
O 55.101 56.665 63.93
O 46.335 53.033 66.722
O 57.436 55.951 63.873
O 48.129 54.732 66.158
O 48.519 59.3 62.15
O 54.676 62.598 61.772
O 47.127 53.685 69.884
O 50.746 56.652 63.12
O 49.471 54.415 62.271
O 54.385 50.812 64.679
O 53.503 61.001 62.995
O 50.688 55.217 67.009
O 47.085 56.056 64.099
O 51.004 59.33 59.061
O 57.091 64.482 58.226
O 53.829 62.213 57.458
O 53.091 53.181 62.031
O 54.694 55.288 67.547
O 53.123 53.116 64.344
H 52.129 53.133 62.085
H 53.251 53.64 61.197
H 46.336 53.907 67.131
H 57.215 63.908 57.46
H 46.039 53.203 65.819
H 54.688 57.534 63.852
H 54.74 56.172 63.182
H 54.862 63.5 62.062
H 53.745 62.626 61.52
H 57.04 55.174 64.286
H 50.709 53.372 63.76
H 50.387 54.317 64.904
H 57.327 56.644 64.537
H 60.896 61.274 61.43
H 51.321 64.048 61.247
H 52.31 64.107 62.398
H 54.201 60.561 60.913
H 55.709 60.383 60.936
H 49.066 60.042 62.438
H 48.628 58.648 62.854
H 53.496 48.777 64.106
H 52.069 49.287 64.002
H 53.739 64.564 60.48
H 48.672 54.344 66.856
H 48.254 54.134 65.411
H 53.816 60.174 63.381
H 52.645 60.768 62.619
H 58.999 56.021 57.068
H 55.066 57.341 66.513
H 55.517 58.193 67.685
H 51.849 50.859 66.798
H 58.666 61.308 62.607
H 57.345 60.59 62.392
H 55.78 59.535 58.829
H 55.209 58.128 58.799
H 52.356 56.733 67.096
H 53.062 58.024 67.47
H 56.289 49.89 64.065
H 60.331 54.442 66.382
H 60.843 54.591 64.96
H 49.892 51.369 67.664
H 50.293 51.071 69.098
H 57.642 57.08 67.372
H 56.875 55.937 66.733
H 52.76 53.365 68.076
H 51.772 52.697 69.016
H 47.975 51.77 65.995
H 51.263 56.97 59.399
H 50.005 56.303 59.927
H 54.713 60.46 65.568
H 53.483 61.031 66.252
H 56.805 56.66 58.421
H 51.012 54.683 69.576
H 49.806 53.777 69.395
H 58.019 56.181 59.198
H 51.203 59.034 64.551
H 52.562 58.519 64.109
H 50.546 57.573 62.911
H 50.746 56.216 62.259
H 56.523 52.441 63.347
H 55.545 62.594 59.572
H 55.856 61.904 58.256
H 47.66 54.478 69.748
H 51.459 59.356 68.173
H 49.229 54.859 63.093
H 48.426 56.229 61.571
H 50.511 58.241 67.769
H 47.257 56.607 60.678
H 48.646 54.008 61.978
H 47.777 53.006 70.101
H 58.978 57.789 60.705
H 59.606 59.05 61.272
H 54.344 62.033 56.662
H 46.214 56.092 69.074
H 47.492 56.263 68.271
H 53.704 61.341 57.853
H 52.28 57.682 61.561
H 53.38 58.708 61.769
H 52.655 53.066 65.188
H 54.031 53.32 64.598
H 50.215 57.311 65.769
H 49.35 56.245 65.12
H 53.926 55.233 68.129
H 55.322 54.667 67.937
H 52.644 50.453 69.429
H 53.284 49.907 68.165
H 51.121 51.263 64.226
H 49.829 51.122 65.01
H 56.887 59.671 64.95
H 58.147 60.517 64.891
H 54.629 57.099 60.862
H 54.378 55.609 60.706
H 54.485 51.203 65.556
H 53.451 50.946 64.473
H 58.094 60.85 59.295
H 52.26 50.244 62.014
H 51.037 50.991 61.509
H 56.728 63.626 63.771
H 56.103 62.288 63.418
H 57.933 53.29 65.153
H 58.845 53.835 64.068
H 58.387 50.551 65.762
H 59.206 57.152 65.562
H 59.475 58.588 65.979
H 47.291 58.074 66.196
H 52.314 61.907 59.461
H 50.923 54.36 67.388
H 50.315 55.702 67.755
H 46.505 56.009 64.869
H 47.144 55.139 63.8
H 57.258 57.074 61.916
H 56.33 55.894 61.688
H 47.384 55.696 58.678
H 50.295 58.805 58.668
H 52.863 55.369 64.002
H 53.358 56.079 65.25
H 58.396 58.973 57.938
H 57.067 58.557 57.334
