38
xyz format
O 61.028 40.557 73.524
O 61.12 35.495 70.299
O 57.535 36.731 73.386
O 62.869 34.55 68.12
O 57.788 41.35 72.185
O 61.007 36.409 67.457
O 59.362 40.431 69.088
O 58.55 37.607 67.065
O 61.113 32.967 68.549
O 57.452 37.525 70.293
O 60.214 38.647 70.545
O 60.575 36.57 72.614
H 59.057 38.229 67.601
H 60.416 36.074 66.772
H 61.335 37.24 67.091
H 61.964 41.694 68.59
H 62.258 40.472 69.442
H 59.707 41.146 68.539
H 58.559 40.156 68.629
H 59.434 38.439 70.016
H 60.904 38.795 69.887
H 58.575 41.017 71.736
H 57.205 41.612 71.461
H 57.442 36.584 70.506
H 56.963 37.931 71.019
H 61.112 32.281 67.87
H 60.423 33.577 68.26
H 62.674 35.375 68.583
H 62.227 34.534 67.4
H 58.004 36.522 74.204
H 58.14 36.438 72.693
H 61.688 36.167 70.695
H 60.176 36.752 73.474
H 60.976 37.411 72.364
H 60.668 35.967 69.589
H 61.473 41.366 73.806
H 60.669 40.195 74.344
H 56.669 38.954 67.45
