577
xyz format
Na 46.336 56.344 34.969
O 36.431 65.411 42.414
O 48.637 63.626 27.633
O 40.247 67.595 32.417
O 44.251 57.008 30.865
O 39.117 70.614 42.097
O 40.46 71.051 32.715
O 43.167 63.664 30.895
O 40.343 65.535 28.373
O 41.949 71.846 45.23
O 47.057 60.214 27.955
O 41.412 59.904 45.339
O 48.972 71.83 41.053
O 42.55 60.666 40.761
O 45.023 54.088 36.793
O 41.503 67.511 37.057
O 43.898 59.337 44.775
O 41.578 68.754 43.816
O 39.268 67.762 44.279
O 40.043 73.587 37.153
O 49.496 57.744 28.383
O 38.605 65.223 44.081
O 42.061 72.853 36.667
O 41.677 58.091 41.798
O 42.6 59.874 35.929
O 37.424 59.543 39.401
O 50.118 59.605 35.868
O 47.572 65.923 41.657
O 41.36 64.47 42.569
O 39.974 61.558 41.697
O 44.851 52.129 39.126
O 46.047 61.631 35.735
O 44.064 70.738 47.13
O 47.835 65.519 32.386
O 36.051 66.287 35.211
O 48.459 67.826 37.322
O 47.46 69.791 41.186
O 43.266 61.36 31.959
O 36.648 67.56 41.388
O 40.028 61.029 33.684
O 44.215 68.372 39.428
O 48.723 61.078 40.356
O 53.349 65.643 36.061
O 50.45 60.463 41.983
O 50.403 59.846 32.747
O 52.378 67.52 35.425
O 47.823 59.757 44.75
O 39.394 58.119 42.329
O 46.858 63.734 30.549
O 52.739 68.798 43.274
O 42.983 62.232 36.705
O 45.669 62.484 44.645
O 41.971 55.703 32.339
O 41.83 65.049 38.855
O 46.791 61.459 46.866
O 49.133 66.643 45.444
O 36.922 62.85 34.472
O 33.615 62.512 33.947
O 34.706 64.629 41.292
O 44.504 70.149 44.291
O 47.059 58.37 29.734
O 46.576 56.266 38.022
O 49.874 57.374 30.519
O 45.743 68.597 37.768
O 48.387 53.642 30.03
O 40.219 71.619 35.461
O 42.018 63.872 45.28
O 48.247 55.485 32.451
O 39.124 61.219 37.284
O 45.453 62.692 38.486
O 50.964 58.471 40.09
O 49.969 54.723 33.618
O 40.58 66.22 48.573
O 46.178 62.324 32.096
O 39.563 62.225 31.07
O 45.906 73.678 35.492
O 40.502 58.425 30.405
O 43.316 64.901 49.42
O 35.843 64.144 45.28
O 36.849 64.13 38.33
O 42.512 64.701 36.49
O 41.915 55.924 36.92
O 48.52 64.216 44.431
O 38.278 56.39 34.887
O 36.772 61.67 37.716
O 48.235 71.452 38.647
O 40.227 57.338 34.477
O 47.869 57.755 41.356
O 48.9 62.315 31.863
O 43.851 58.259 29.088
O 38.169 64.465 40.819
O 40.535 57.907 37.278
O 45.646 66.102 46.816
O 35.041 64.222 34.011
O 41.24 62.051 28.177
O 48.397 65.069 39.805
O 49.416 51.428 30.997
O 52.165 58.072 35.945
O 48.328 69.737 43.505
O 39.495 59.998 27.26
O 45.506 59.699 32.804
O 48.706 59.716 30.628
O 49.989 55.99 41.873
O 50.844 62.099 37.121
O 45.271 60.546 42.993
O 45.524 62.925 28.119
O 35.254 60.288 36.134
O 46.897 71.322 34.432
O 39.748 54.056 36.206
O 51.132 54.952 35.903
O 50.361 62.177 28.747
O 54.31 68.004 40.168
O 33.747 62.702 36.677
O 44.469 54.002 29.164
O 45.055 71.826 36.919
O 46.113 50.098 34.367
O 48.895 63.842 41.633
O 44.15 58.19 34.028
O 46.679 73.192 38.953
O 46.923 54.191 35.632
O 48.282 52.62 32.825
O 40.455 55.642 38.693
O 45.415 62.181 41.486
O 51.483 70.953 41.956
O 47.284 70.715 45.176
O 47.638 64.081 34.602
O 39.134 55.815 32.179
O 40.224 65.104 34.051
O 46.539 55.3 29.686
O 38.662 70.096 38.776
O 38.547 65.3 29.963
O 42.724 55.002 30.394
O 42.843 53.455 32.678
O 43.822 55.229 35.077
O 36.061 67.482 45.142
O 45.371 53.799 33.656
O 51.696 65.656 40.213
O 45.857 68.714 34.18
O 45.801 64.68 44.688
O 51.139 69.684 39.343
O 45.012 65.452 37.908
O 47.516 66.958 35.533
O 36.981 68.8 36.949
O 44.197 62.054 47.458
O 47.192 56.643 28.071
O 44.177 64.688 41.352
O 50.899 67.52 41.25
O 51.332 56.014 38.196
O 47.592 70.041 36.215
O 50.905 62.574 44.425
O 39.413 66.158 35.805
O 43.197 60.591 29.351
O 52.03 62.043 33.772
O 40.528 62.488 46.463
O 51.839 62.809 41.651
O 45.492 72.766 46.761
O 43.908 72.08 41.848
O 50.103 65.286 32.566
O 35.423 61.272 34.117
O 38.37 58.492 36.904
O 47.327 67.341 30.963
O 42.012 67.128 29.474
O 43.051 65.884 44.539
O 45.625 57.874 45.407
O 47.96 60.817 42.826
O 47.759 65.644 47.534
O 52.464 67.473 38.615
O 38.052 59.85 42.629
O 46.129 57.247 32.393
O 50.159 65.868 36.503
O 49.132 54.37 36.61
O 41.973 63.089 34.166
O 40.529 69.2 35.079
O 49.105 66.613 29.887
O 48.047 50.59 35.994
O 39.258 63.299 36.579
O 38.266 65.462 32.948
O 40.496 68.562 45.922
O 46.269 67.635 39.724
O 35.321 64.73 36.865
O 48.454 60.024 37.289
O 42.028 61.824 43.179
O 44.655 67.068 42.12
O 47.816 63.835 36.781
O 52.727 62.421 39.125
O 43.431 54.516 38.25
O 42.133 66.588 46.963
O 41.026 65.701 31.399
O 39.422 58.85 32.292
O 47.215 54.53 39.914
O 41.942 55.608 42.03
O 44.975 72.911 43.91
O 46.74 54.581 27.217
O 38.49 63.281 46.223
O 41.782 73.087 39.81
O 45.643 59.188 41.251
O 44.457 62.713 34.642
O 43.115 70.201 40.65
O 49.821 63.232 39.043
O 46.348 51.833 31.199
O 42.048 69.033 31.63
O 43.023 69.042 36.623
O 41.843 53.022 34.695
O 39.213 66.005 38.559
O 36.132 57.776 33.006
O 41.381 71.369 42.682
O 42.38 58.904 26.848
O 51.146 64.523 34.918
O 45.127 59.031 38.776
O 40.835 70.15 38.439
H 38.772 66.554 39.22
H 51.513 67.819 40.568
H 50.166 67.142 40.749
H 43.08 72.324 41.417
H 39.05 65.104 38.864
H 34.764 60.575 34.009
H 44.348 60.781 43.151
H 35.759 61.41 33.223
H 45.619 60.375 43.877
H 41.15 53.047 34.023
H 50.006 64.449 33.037
H 50.101 65.947 33.269
H 44.567 72.175 41.149
H 43.502 69.382 35.857
H 42.828 69.833 37.141
H 52.089 63.519 42.254
H 52.386 62.065 41.933
H 46.012 63.738 27.935
H 47.127 69.197 36.155
H 46.954 70.625 36.644
H 46.171 62.228 27.957
H 42.629 68.264 31.667
H 50.568 56.014 38.786
H 41.722 52.163 35.118
H 43.814 69.959 41.27
H 45.613 64.91 37.381
H 44.774 66.175 37.315
H 49.247 63.066 38.285
H 50.569 63.711 38.665
H 42.302 69.994 41.128
H 47.569 67.43 34.693
H 48.259 66.343 35.498
H 42.513 60.266 29.951
H 43.138 61.551 29.435
H 52.767 61.874 34.372
H 51.275 62.16 34.363
H 51.764 62.316 44.068
H 50.472 63.017 43.684
H 38.785 66.494 36.458
H 39.439 66.852 35.134
H 37.473 69.055 36.158
H 37.154 67.854 37.031
H 45.156 58.413 40.944
H 46.34 59.297 40.592
H 41.431 62.378 46.784
H 40.582 62.226 45.535
H 40.697 62.613 27.609
H 40.671 61.877 28.937
H 46.791 71.289 45.776
H 50.982 70.301 41.45
H 47.518 69.956 45.725
H 50.001 56.851 41.436
H 49.175 55.581 41.552
H 43.45 54.072 32.251
H 51.624 62.05 36.554
H 38.693 64.204 46.029
H 42.234 53.207 31.971
H 45.428 73.171 43.099
H 44.248 73.543 43.979
H 41.775 55.301 41.13
H 42.885 55.445 42.156
H 48.489 66.03 29.426
H 50.107 62.084 36.498
H 38.409 62.876 45.351
H 43.471 54.553 34.484
H 44.172 55.9 34.478
H 45.181 52.905 33.346
H 45.892 54.185 32.94
H 45.103 69.201 33.826
H 49.462 67.17 29.184
H 38.32 64.363 29.929
H 37.755 65.74 29.629
H 41.815 54.677 30.39
H 42.686 55.798 29.85
H 45.809 55.929 29.748
H 46.826 55.191 30.601
H 37.713 70.233 38.659
H 38.712 69.317 39.344
H 51.609 64.733 40.483
H 51.324 65.669 39.322
H 44.837 59.828 32.121
H 36.488 66.658 44.875
H 46.297 59.453 32.307
H 45.462 68.12 34.831
H 44.73 61.839 40.898
H 39.747 56.148 39.11
H 46.097 62.501 40.882
H 41.26 56.066 39.016
H 48.285 60.189 29.899
H 49.543 60.183 30.751
H 50.925 70.229 38.575
H 52.101 69.607 39.307
H 47.589 69.124 43.409
H 47.59 54.415 34.97
H 46.692 53.277 35.423
H 51.855 62.024 39.248
H 53.33 61.77 39.504
H 43.773 58.237 34.915
H 48.935 69.476 42.801
H 45.09 58.034 34.185
H 48.701 63.202 40.938
H 49.857 63.923 41.608
H 44.136 67.75 42.563
H 45.271 66.769 42.8
H 47.557 52.831 33.426
H 49.01 52.39 33.416
H 48.35 58.456 40.9
H 47.607 57.156 40.645
H 39.603 58.062 34.344
H 40.728 57.313 33.652
H 42.603 61.857 43.954
H 48.795 70.729 38.338
H 47.752 71.067 39.389
H 41.232 61.384 43.503
H 47.758 64.65 39.215
H 38.722 55.731 34.339
H 37.932 55.877 35.628
H 49.086 65.387 39.208
H 47.114 67.989 39.419
H 38.918 57.525 44.417
H 48.326 63.327 44.11
H 48.61 64.737 43.624
H 42.414 56.625 36.483
H 42.009 55.17 36.325
H 46.141 66.848 39.179
H 35.141 59.728 36.912
H 53.739 67.569 40.814
H 41.675 62.948 33.259
H 42.57 63.845 34.097
H 49.904 61.344 28.917
H 49.906 62.809 29.318
H 46.679 71.867 33.666
H 47.859 71.372 34.483
H 39.278 63.573 35.654
H 38.316 63.217 36.773
H 40.143 54.429 35.408
H 44.655 72.699 37.014
H 44.369 71.306 36.482
H 34.397 62.319 36.074
H 50.985 55.7 35.311
H 36.942 61.558 38.66
H 35.814 61.778 37.667
H 38.457 60.378 43.328
H 37.718 60.51 42.008
H 46.335 65.206 44.08
H 46.427 64.417 45.374
H 48.511 62.111 31.003
H 49.721 62.772 31.641
H 44.485 62.926 47.161
H 43.388 57.548 28.627
H 44.327 58.717 28.384
H 47.015 57.312 32.772
H 45.985 56.297 32.307
H 47.995 56.14 28.255
H 48.05 65.095 46.796
H 43.6 64.392 40.637
H 45.06 64.441 41.052
H 47.433 57.19 27.313
H 45.461 57.822 44.457
H 46.027 58.744 45.522
H 35.579 64.437 33.239
H 34.19 64.637 33.82
H 38.257 58.176 37.809
H 37.64 65.231 40.564
H 38.902 64.849 41.317
H 37.982 59.375 36.918
H 42.496 66.034 43.763
H 40.753 58.258 36.405
H 40.057 57.091 37.085
H 43.921 65.695 44.165
H 44.978 65.415 46.708
H 45.549 66.643 46.023
H 47.159 67.831 31.778
H 46.449 67.058 30.68
H 51.911 57.313 36.485
H 52.664 58.63 36.555
H 38.57 65.019 32.146
H 40.259 68.211 46.79
H 41.12 69.27 46.123
H 37.695 66.167 32.617
H 48.614 59.083 37.436
H 47.679 60.212 37.833
H 35.601 64.16 36.137
H 39.584 58.228 30.182
H 40.84 57.588 30.746
H 50.535 54.855 32.847
H 50.379 53.98 34.078
H 40.114 62.96 30.772
H 38.954 62.081 30.335
H 36.63 64.103 44.723
H 42.936 65.206 35.786
H 43.246 64.447 37.064
H 36.876 63.692 39.19
H 36.763 65.065 38.551
H 41.638 67.651 28.754
H 42.69 66.594 29.041
H 42.962 63.672 45.304
H 41.921 64.593 45.916
H 48.721 56.157 31.944
H 48.452 54.663 31.989
H 45.905 61.889 38.775
H 44.918 62.398 37.739
H 50.058 57.37 27.694
H 49.453 58.683 28.159
H 39.591 72.739 37.248
H 50.611 65.296 37.137
H 50.352 66.759 36.821
H 39.896 60.674 37.088
H 39.137 61.296 38.247
H 51.193 58.913 39.263
H 50.371 58.184 30.353
H 50.553 56.687 30.536
H 45.193 68.508 36.98
H 45.575 69.5 38.064
H 45.734 58.568 38.186
H 47.12 56.892 38.516
H 45.99 55.892 38.693
H 44.485 59.432 38.177
H 44.455 69.756 43.411
H 45.255 70.753 44.23
H 35.244 64.204 40.613
H 36.921 57.769 32.449
H 40.767 71.632 43.379
H 42.185 71.135 43.161
H 46.243 58.371 30.251
H 47.538 57.601 30.065
H 51.832 65.092 34.548
H 36.872 62.404 35.326
H 51.6 64.044 35.623
H 37.3 63.713 34.686
H 42.427 59.517 27.592
H 48.293 66.398 45.037
H 49.639 65.821 45.439
H 42.178 64.157 38.975
H 41.138 64.938 38.191
H 46.187 61.091 47.524
H 46.813 62.401 47.075
H 42.414 55.966 33.156
H 41.198 55.213 32.645
H 39.742 57.22 42.38
H 38.917 58.133 41.49
H 41.092 69.619 35.741
H 40.962 69.411 34.242
H 42.162 62.267 36.198
H 42.698 62.388 37.614
H 48.591 54.439 29.524
H 47.55 53.341 29.656
H 46.469 61.675 32.748
H 45.41 61.908 31.684
H 48.746 55.252 36.686
H 49.016 53.993 37.491
H 47.853 51.308 36.61
H 46.531 64.534 30.117
H 46.937 63.1 29.826
H 51.954 68.773 42.712
H 40.874 70.877 37.805
H 40.677 69.374 37.888
H 50.095 60.603 33.261
H 51.326 60.057 32.56
H 53.049 67.83 36.046
H 51.631 68.111 35.581
H 48.217 58.876 44.774
H 48.025 60.122 45.621
H 48.974 60.57 39.575
H 47.761 61.126 40.299
H 46.56 62.143 44.787
H 45.618 62.604 43.689
H 50.027 61.291 42.24
H 49.718 59.836 41.935
H 46.714 66.132 41.267
H 48.122 66.68 41.421
H 50.638 59.48 36.671
H 50.617 60.265 35.372
H 41.006 65.443 30.469
H 48.073 65.328 31.47
H 46.885 65.688 32.346
H 41.894 66.11 31.505
H 40.945 64.153 41.756
H 42.299 64.294 42.43
H 47.246 63.437 37.45
H 47.825 64.771 37.015
H 43.077 66.458 47.116
H 36.837 65.907 35.623
H 42.439 61.713 31.606
H 43.108 61.313 32.91
H 37.524 67.215 41.601
H 42.101 67.072 46.129
H 40.453 60.436 34.316
H 39.887 61.839 34.19
H 46.015 52.735 31.29
H 46.391 51.511 32.108
H 43.791 67.872 40.137
H 43.476 68.783 38.964
H 46.869 54.091 40.701
H 41.03 65.325 33.568
H 40.296 59.232 32.442
H 39.956 64.256 33.675
H 38.817 59.525 32.626
H 48.17 54.41 39.984
H 40.86 72.82 39.71
H 41.074 71.758 35.034
H 39.647 71.328 34.741
H 39.471 55.637 31.293
H 38.835 56.732 32.131
H 48.028 63.81 33.762
H 47.103 64.85 34.368
H 44.864 70.622 46.602
H 43.353 70.702 46.479
H 42.647 54.285 38.764
H 43.509 55.471 38.366
H 37.061 59.047 40.145
H 38.211 59.964 39.769
H 39.8 60.892 41.021
H 39.726 62.388 41.27
H 46.03 61.192 34.875
H 46.45 62.488 35.548
H 47.668 61.693 42.543
H 47.443 60.215 42.276
H 41.793 60.139 40.475
H 43.312 60.15 40.469
H 40.302 70.196 32.295
H 41.415 71.062 32.859
H 52.864 66.723 38.157
H 51.924 67.895 37.935
H 42.734 73.109 36.023
H 42.519 72.224 37.239
H 38.182 65.963 43.628
H 39.364 65.017 43.522
H 43.898 56.461 31.578
H 44.254 57.898 31.239
H 44.494 62.86 33.688
H 44.554 63.598 35.014
H 42.08 68.207 43.199
H 41.003 69.276 43.244
H 39.099 68.189 43.43
H 40.04 67.209 44.108
H 43.953 59.514 45.723
H 43.284 58.593 44.717
H 45.669 53.765 37.434
H 45.086 55.048 36.869
H 41.409 66.955 36.273
H 40.942 67.08 37.713
H 42.582 58.294 41.531
H 41.189 58.081 40.964
H 43.392 60.348 35.645
H 42.917 59.302 36.639
H 48.373 67.045 37.882
H 48.688 68.529 37.943
H 39.483 65.381 27.961
H 40.729 64.652 28.435
H 46.852 69.057 41.337
H 48.205 69.381 40.728
H 36.674 64.478 42.437
H 35.786 65.498 43.127
H 48.311 62.723 27.738
H 48.337 64.073 28.434
H 40.538 67.456 33.327
H 39.458 68.143 32.51
H 42.364 63.905 31.373
H 42.919 63.762 29.967
H 42.481 72.545 44.829
H 47.409 59.36 27.676
H 46.127 60.03 28.137
H 49.881 72.145 40.971
H 48.891 71.604 41.988
H 42.022 60.569 45.68
H 40.637 59.988 45.909
