139
xyz format
O 71.236 40.427 49.196
O 64.17 33.117 48.956
O 69.456 35.353 54.513
O 67.561 37.754 41.403
O 63.509 35.883 46.965
O 66.393 42.618 45.076
O 67.316 36.873 45.045
O 63.502 41.26 46.724
O 69.998 38.521 46.452
O 65.584 36.578 46.605
O 60.551 33.734 49.626
O 62.906 39.422 43.925
O 66.572 35.879 42.058
O 63.943 37.252 50.03
O 61.029 38.18 50.048
O 63.755 33.909 52.547
O 62.591 35.002 50.5
O 66.986 42.563 49.955
O 68.683 34.041 48.925
O 61.991 41.178 50.57
O 66.915 40.92 53.767
O 64.435 39.502 50.039
O 66.349 33.769 46.959
O 69.784 35.492 51.381
O 66.7 32.576 50.147
O 66.581 36.905 53.668
O 69.046 35.921 46.022
O 67.153 39.17 51.721
O 68.2 38.386 55.036
O 70.151 37.013 44.08
O 66.43 35.696 51.309
O 64.654 39.384 52.712
O 64.679 37.913 45.103
O 70.68 38.392 52.51
O 62.552 38.645 54.658
O 66.476 35.428 49.127
O 63.389 41.099 54.481
O 67.555 37.264 48.467
O 69.57 38.454 49.617
O 67.077 39.77 48.91
O 64.673 34.846 43.952
O 65.652 39.855 45.902
O 62.634 36.921 52.631
O 66.282 34.326 55.018
O 61.075 41.491 53.069
H 62.73 38.946 53.759
H 68.945 42.506 51.501
H 67.167 34.219 54.649
H 60.12 35.978 51.432
H 68.212 36.816 49.014
H 64.5 42.452 49.293
H 67.212 40.133 43.472
H 61.99 34.581 48.194
H 69.437 36.386 43.907
H 70.917 36.449 44.241
H 68.049 38.49 54.088
H 62.717 40.61 50.855
H 62.168 42.016 51.016
H 66.715 38.682 51.012
H 67.491 39.96 51.281
H 67.387 33.932 42.676
H 69.633 40.672 47.034
H 66.26 33.017 53.045
H 69.377 38.704 50.529
H 70.269 37.794 49.704
H 67.722 40.549 53.388
H 66.476 34.467 49.042
H 65.565 35.676 48.926
H 63.966 37.594 44.535
H 65.423 38.021 44.498
H 66.907 37.586 49.106
H 64.42 40.158 52.185
H 64.777 38.688 52.055
H 70.428 37.562 52.087
H 69.237 34.867 50.889
H 70.388 35.842 50.715
H 64.854 40.371 50.009
H 64.485 39.191 49.126
H 66.609 32.913 47.322
H 66.299 40.936 53.024
H 65.959 33.547 46.105
H 69.458 35.081 46.261
H 68.719 36.264 46.863
H 65.852 32.467 50.596
H 67.267 32.969 50.822
H 67.286 36.436 53.204
H 65.786 36.671 53.174
H 61.892 37.759 45.249
H 66.295 42.461 50.622
H 67.407 41.695 49.926
H 63.578 41.631 53.698
H 64.218 40.633 54.647
H 69.051 33.152 49.011
H 68.406 34.086 48.002
H 64.389 33.46 51.975
H 64.269 34.124 53.336
H 63.204 35.464 51.085
H 61.949 34.61 51.105
H 66.904 36.302 55.758
H 64.721 36.984 50.534
H 63.379 37.679 50.688
H 60.635 39.061 50.058
H 65.874 35.601 41.452
H 66.15 36.56 42.597
H 63.609 39.764 44.492
H 63.292 39.45 43.04
H 59.86 34.4 49.73
H 66.305 35.962 46.785
H 65.641 37.216 47.328
H 70.406 35.225 48.241
H 69.085 33.53 52.63
H 67.686 39.449 48.234
H 66.339 40.13 48.402
H 62.986 36.758 53.515
H 61.678 36.943 52.766
H 65.402 34.563 43.387
H 64.376 35.671 43.548
H 66.558 39.828 46.234
H 65.137 39.448 46.611
H 66.908 36.49 51.038
H 67.131 35.059 51.495
H 66.443 42.006 44.331
H 67.525 37.412 44.272
H 66.901 36.086 44.671
H 66.377 42.039 45.848
H 62.848 35.635 46.306
H 63.928 35.044 47.195
H 61.852 32.648 52.136
H 62.115 32.293 50.683
H 62.429 41.917 48.529
H 68.888 35.479 55.284
H 69.507 36.233 54.119
H 64.297 33.779 49.647
H 67.134 38.421 41.956
H 62.793 40.988 46.128
H 64.219 41.511 46.128
H 71.501 39.506 49.079
H 69.139 38.753 46.079
H 61.31 39.333 52.138
