578
xyz format
Cl 49.805 59.587 40.283
Na 49.158 57.533 43.258
Na 48.975 68.159 49.288
O 43.446 66.895 46.21
O 43.506 68.356 54.798
O 60.258 62.351 44.827
O 62.669 64.641 48.644
O 40.06 61.435 36.36
O 46.844 56.48 58.52
O 50.149 57.256 40.863
O 46.663 66.699 59.117
O 47.152 60.681 37.912
O 41.103 62.508 44.769
O 51.763 62.637 59.15
O 50.47 62.273 34.128
O 57.836 66.776 57.42
O 54.656 65.65 55.468
O 56.88 62.65 46.852
O 47.757 62.177 54.129
O 55.237 65.945 49.209
O 44.185 65.414 55.893
O 59.283 64.93 55.352
O 37.755 62.105 46.953
O 43.235 65.462 39.177
O 48.091 62.166 39.349
O 49.958 69.481 45.21
O 43.263 64.222 46.716
O 47.601 65.066 41.564
O 56.127 63.086 50.754
O 41.774 61.694 60.902
O 38.707 66.183 47.045
O 48.734 61.187 51.678
O 59.718 61.058 50.618
O 53.054 65.434 49.159
O 46.3 66.934 39.445
O 44.902 64.683 36.718
O 52.742 58.402 61.113
O 43.669 65.302 42.072
O 61.478 65.599 53.914
O 46.315 56.326 41.713
O 46.624 59.971 41.169
O 59.636 59.017 43.739
O 40.968 65.539 56.943
O 40.171 65.209 50.172
O 60.166 63.13 48.356
O 44.779 56.05 37.172
O 54.225 63.192 48.462
O 45.378 56.933 35.248
O 50.067 66.008 41.409
O 52.705 67.968 42.491
O 53.983 66.103 58.313
O 51.715 62.138 47.925
O 54.194 67.435 53.377
O 51.431 57.695 38.576
O 55.964 67.813 55.471
O 39.156 57.735 51.869
O 51.057 59.988 54.169
O 43.249 60.23 49.49
O 42.154 56.081 49.342
O 55.685 61.72 59.188
O 57.155 56.071 41.002
O 43.199 59.069 52.856
O 56.427 63.137 40.493
O 54.942 60.278 47.478
O 38.965 66.823 53.141
O 52.951 68.264 51.353
O 42.118 66.791 44.111
O 58.919 59.385 53.12
O 56.829 66.6 52.685
O 50.022 63.738 63.642
O 54.161 65.286 39.883
O 50.568 63.632 46.754
O 42.476 63.403 52.692
O 46.741 61.867 59.206
O 45.974 59.007 58.176
O 52.682 60.277 56.078
O 50.49 54.316 40.718
O 50.753 63.371 38.302
O 49.302 66.993 58.485
O 39.626 61.927 41.175
O 50.246 63.7 41.125
O 40.015 62.522 39.093
O 37.167 62.634 53.935
O 59.798 65.921 47.72
O 42.506 62.982 40.486
O 53.533 68.491 47.56
O 50.958 56.351 60.074
O 54.225 69.155 55.369
O 48.758 68.417 56.898
O 45.817 65.168 60.873
O 44.089 68.264 49.773
O 37.486 64.982 49.031
O 58.609 62.957 53.449
O 53.832 61.261 50.667
O 55.626 59.976 54.841
O 59.147 61.043 41.328
O 47.071 61.295 47.107
O 49.282 60.521 34.746
O 55.358 66.545 45.928
O 38.521 63.858 59.186
O 52.448 59.746 45.008
O 46.121 66.47 43.367
O 53.52 59.597 40.198
O 44.057 59.178 38.089
O 57.98 62.374 44.277
O 44.002 62.785 44.306
O 47.157 66.243 46.088
O 55.234 68.281 44.089
O 52.194 65.175 44.089
O 56.812 58.267 39.371
O 48.767 64.791 54.479
O 46.686 68.67 43.678
O 49.752 61.001 56.662
O 59.155 59.939 46.995
O 48.447 67.983 40.305
O 52.3 56.561 42.273
O 51.384 65.905 46.534
O 50.282 63.021 43.639
O 47.088 62.789 36.705
O 44.797 67.402 57.67
O 56.995 60.866 50.041
O 54.921 60.251 61.477
O 50.842 65.591 50.41
O 51.598 63.565 62.036
O 57.844 65.99 60.131
O 61.57 60.496 48.121
O 41.092 67.564 52.382
O 54.091 63.572 42.554
O 55.208 66.305 43.115
O 49.49 62.198 59.974
O 54.695 60.819 42.748
O 41.744 67.989 47.641
O 39.622 62.98 55.82
O 59.313 65.383 52.483
O 42.318 62.905 58.41
O 53.767 55.163 43.946
O 41.805 65.784 53.786
O 40.971 57.859 43.256
O 51.575 60.853 41.984
O 43.132 65.754 58.639
O 58.989 67.951 54.153
O 55.855 60.512 44.673
O 47.913 59.223 59.191
O 48.726 62.739 49.232
O 56.304 59.22 52.234
O 51.049 66.632 52.327
O 43.031 60.31 55.824
O 45.391 66.611 47.344
O 49.07 65.975 48.178
O 39.742 60.3 45.758
O 51.733 68.105 40.521
O 53.115 65.211 60.127
O 51.241 68.028 58.383
O 48.519 59.3 62.15
O 56.698 64.159 44.293
O 53.933 64.557 51.097
O 39.903 62.408 52.407
O 54.676 62.598 61.772
O 52.211 66.337 54.469
O 45.599 69.227 53.604
O 58.229 57.499 51.061
O 38.981 64.24 53.934
O 59.512 62.897 39.624
O 52.478 58.49 52.256
O 43.585 58.357 41.564
O 45.599 63.473 38.878
O 52.574 68.808 44.657
O 51.306 68.996 53.875
O 49.045 58.845 54.698
O 48.538 64.776 51.042
O 44.274 54.36 40.268
O 46.157 67.02 54.495
O 46.581 64.699 56.404
O 55.79 63.701 54.656
O 49.197 67.084 44.141
O 55.888 69.28 49.439
O 47.81 62.611 41.64
O 54.476 64.974 47.2
O 42.239 62.926 37.499
O 40.401 59.478 49.978
O 50.306 65.29 55.968
O 42.449 60.17 39.247
O 45.712 60.726 43.639
O 46.503 65.648 51.363
O 51.004 59.33 59.061
O 38.775 64.348 45.338
O 50.523 65.137 58.612
O 50.882 62.885 52.609
O 58.375 66.588 49.387
O 56.557 58.711 42.218
O 47.016 59.508 33.893
O 58.576 64.084 50.867
O 57.091 64.482 58.226
O 59.784 67.921 51.948
O 51.344 68.651 48.692
O 53.829 62.213 57.458
O 43.161 65.48 50.217
O 57.32 65.178 46.323
O 37.222 65.602 51.125
O 39.863 60.972 59.542
O 40.291 60.584 57.416
O 46.651 55.972 38.963
O 42.88 56.96 38.906
O 45.279 62.692 49.255
O 44.76 60.202 35.605
O 50.686 49.697 48.558
O 53.93 51.905 51.539
O 50.19 53.992 53.244
O 47.135 64.545 47.548
N 51.761 52.453 51.079
N 52.84 50.036 49.228
N 52.353 53.934 53.978
C 51.406 53.938 52.972
C 51.894 53.827 51.502
C 51.361 54.801 49.194
C 53.356 49.113 51.453
C 51.055 54.819 50.684
C 51.898 49.739 48.263
C 52.523 50.115 50.631
C 52.916 48.985 52.897
C 50.386 53.922 48.435
C 51.302 56.212 48.639
C 52.412 49.441 46.828
C 52.791 51.562 51.129
H 56.449 65.135 57.922
H 57.215 63.908 57.46
H 55.485 59.917 45.338
H 56.439 61.089 45.182
H 44.947 69.645 53.028
H 46.333 69.854 53.612
H 53.745 62.626 61.52
H 52.021 67.028 55.116
H 52.5 65.591 55.01
H 58.805 67.327 54.867
H 51.987 67.193 40.333
H 50.873 68.02 40.951
H 46.557 62.186 36.169
H 41.971 62.951 57.51
H 42.539 65.047 58.921
H 43.753 65.311 58.048
H 43.262 62.744 58.283
H 41.548 66.171 54.633
H 48.981 66.353 47.294
H 49.368 65.072 48.013
H 41.584 59.789 39.05
H 39.959 59.576 45.157
H 39.519 61.03 45.166
H 42.582 60.814 38.541
H 46.825 63.664 36.393
H 42.548 66.331 53.502
H 51.903 61.625 42.462
H 51.333 61.205 41.118
H 58.143 68.392 54.01
H 49.777 66.776 44.848
H 48.695 67.798 44.551
H 41.636 58.138 42.614
H 50.104 63.937 43.887
H 50.58 62.614 44.462
H 52.889 55.976 41.78
H 39.26 62.885 56.71
H 52.352 57.397 41.792
H 40.475 63.407 55.963
H 45.71 62.107 49.89
H 58.074 56.936 48.635
H 44.167 67.849 58.249
H 44.469 58.141 41.243
H 59.981 64.689 52.547
H 56.056 60.646 50.083
H 57.031 61.594 49.408
H 59.366 65.831 53.337
H 43.27 59.022 40.94
H 41.057 67.638 48.22
H 57.205 66.414 59.545
H 51.321 64.048 61.247
H 52.31 64.107 62.398
H 54.201 60.561 60.913
H 55.34 64.562 47.078
H 53.974 64.689 46.426
H 55.709 60.383 60.936
H 51.167 66.475 47.282
H 42.394 68.356 48.253
H 50.691 66.47 50.042
H 45.3 62.191 48.43
H 50.845 65.015 49.635
H 54.322 65.319 51.545
H 48.371 58.342 55.171
H 52.781 65.661 60.913
H 53.739 64.564 60.48
H 49.358 58.23 54.023
H 51.632 67.213 58.044
H 51.916 68.695 58.211
H 46.998 59.867 34.789
H 38.814 64.719 54.755
H 39.941 64.139 53.918
H 39.577 63.152 51.886
H 40.276 61.811 51.747
H 45.078 62.837 39.383
H 45.949 64.069 39.553
H 53.171 58.909 51.73
H 51.71 58.497 51.671
H 55.842 64.437 44.642
H 56.506 63.919 43.378
H 51.715 66.519 45.867
H 53.235 64.269 51.698
H 44.997 68.062 56.994
H 51.494 56.201 47.539
H 50.641 53.926 47.347
H 54.705 69.085 44.154
H 56.127 68.606 43.917
H 49.343 54.303 48.555
H 52.985 54.119 51.425
H 49.54 60.181 57.126
H 48.892 61.416 56.525
H 49.964 54.621 50.859
H 50.852 52.155 50.786
H 44.992 58.98 38.226
H 43.874 58.825 37.21
H 51.278 55.837 51.105
H 40.054 61.267 41.735
H 39.309 62.589 41.802
H 50.418 52.866 48.792
H 47.102 67.196 45.943
H 47.812 65.951 45.442
H 52.07 56.86 49.126
H 43.114 62.836 43.931
H 44.358 63.672 44.174
H 58.271 61.505 43.971
H 58.469 62.989 43.716
H 50.294 56.66 48.817
H 48.831 67.579 59.091
H 48.669 66.284 58.313
H 52.402 54.402 49.034
H 53.106 59.482 41.062
H 54.44 59.801 40.41
H 53.642 61.099 51.599
H 53.477 60.482 50.222
H 56.008 66.554 45.214
H 55.245 67.478 46.147
H 46.197 65.712 43.96
H 45.331 66.929 43.682
H 52.74 59.07 44.384
H 52.242 60.503 44.445
H 52.055 66.017 43.637
H 53.065 65.272 44.493
H 47.963 64.649 53.964
H 46.301 68.71 44.563
H 47.378 69.343 43.699
H 49.365 65.224 53.857
H 47.437 62.129 47.426
H 47.631 61.073 46.352
H 54.739 60.104 55.201
H 56.075 59.454 55.517
H 48.894 60.614 35.625
H 49.729 64.822 56.584
H 50.91 65.776 56.543
H 51.398 69.166 49.508
H 38.107 65.716 49.109
H 36.622 65.412 49.014
H 43.834 68.153 50.697
H 44.875 67.711 49.685
H 50.697 69.131 48.161
H 53.635 68.718 48.493
H 52.907 69.148 47.232
H 58.611 62.089 53.027
H 59.474 63.009 53.874
H 42.874 60.971 56.509
H 50.605 67.074 53.062
H 51.157 65.725 52.637
H 56.043 58.293 52.301
H 56.944 59.227 51.51
H 48.257 63.581 49.184
H 48.116 62.164 49.71
H 47.453 58.6 59.766
H 48.574 59.624 59.769
H 45.921 59.792 43.762
H 45.23 60.961 44.441
H 44.94 66.132 48.05
H 45.949 67.242 47.814
H 59.331 65.138 48.036
H 59.964 65.73 46.789
H 48.491 67.725 41.234
H 48.814 67.223 39.838
H 53.146 63.441 42.401
H 53.259 48.104 50.963
H 52.051 49.664 53.13
H 53.804 50.032 48.986
H 53.991 51.68 46.508
H 39.059 62.385 39.1
H 40.374 61.628 39.031
H 49.56 63.923 41.767
H 51.053 63.671 41.654
H 51.263 56.97 59.399
H 42.535 63.112 41.442
H 53.449 68.705 55.012
H 54.118 69.071 56.325
H 44.934 65.531 60.736
H 42.696 62.042 40.376
H 46.328 65.922 61.192
H 48.803 69.355 56.678
H 49.435 68.017 56.339
H 56.436 59.469 42.804
H 57.469 58.799 41.916
H 51.302 63.181 39.073
H 50.751 62.54 37.811
H 54.165 63.609 43.516
H 42.042 63.613 53.528
H 42.807 64.256 52.384
H 47.327 62.528 58.816
H 46.875 61.087 58.654
H 46.091 59.436 57.319
H 45.522 58.182 57.959
H 55.545 62.594 59.572
H 55.856 61.904 58.256
H 51.945 60.657 56.571
H 52.887 59.466 56.559
H 56.626 65.745 52.286
H 56.753 67.221 51.95
H 49.421 63.539 62.913
H 54.842 65.539 40.518
H 53.46 64.916 40.434
H 49.935 64.044 46.152
H 51.387 63.608 46.244
H 47.652 62.034 42.397
H 42.876 62.786 36.787
H 57.022 62.73 41.134
H 55.631 63.326 41.006
H 42.708 59.702 52.317
H 54.344 62.033 56.662
H 43.279 65.966 51.042
H 53.704 61.341 57.853
H 54.762 60.743 48.305
H 55.239 59.405 47.765
H 43.315 66.145 49.535
H 60.754 62.956 47.609
H 46.03 66.019 58.856
H 46.113 67.38 59.524
H 39.686 66.279 53.482
H 59.292 62.901 48.017
H 38.171 66.394 53.484
H 41.72 63.682 37.196
H 58.303 63.179 51.062
H 59.001 64.015 50.003
H 43.62 60.483 50.345
H 42.025 65.964 44.6
H 52.252 68.772 51.782
H 53.276 68.855 50.663
H 41.61 67.424 44.634
H 43.567 60.915 48.89
H 57.825 66.367 50.149
H 59.271 66.601 49.747
H 46.932 62.736 41.259
H 50.687 57.887 37.992
H 51.298 58.294 39.322
H 56.678 68.436 55.65
H 40.724 61.253 56.871
H 56.253 67.357 54.67
H 54.177 66.476 53.487
H 54.663 67.562 52.543
H 51.48 62.782 48.604
H 50.884 61.681 47.745
H 46.984 65.313 48.114
H 54.276 65.184 58.258
H 54.792 66.589 58.515
H 46.334 64.018 47.658
H 52.464 68.901 42.439
H 53.67 67.98 42.5
H 49.518 66.049 42.202
H 50.957 65.864 41.753
H 51.544 60.819 54.233
H 51.727 59.315 54.343
H 53.649 62.548 48.893
H 55.114 62.883 48.675
H 46.27 67.132 53.543
H 46.868 67.551 54.874
H 44.482 66.321 55.742
H 44.185 65.024 55.01
H 44.464 65.216 42.613
H 42.951 65.305 42.717
H 56.432 69.474 50.213
H 48.937 61.908 52.288
H 49.201 60.431 52.054
H 55.519 68.409 49.631
H 47.386 61.638 54.839
H 46.998 62.676 53.801
H 55.203 64.985 49.309
H 58.324 64.915 55.462
H 55.631 66.248 50.036
H 58.896 63.388 40.183
H 41.026 64.952 50.54
H 39.58 65.196 50.935
H 48.809 63.902 51.349
H 49.021 65.382 51.618
H 59.191 61.5 49.941
H 46.249 56.882 40.926
H 46.627 55.479 41.37
H 46.196 60.576 40.552
H 40.498 64.946 57.543
H 40.261 66.025 56.5
H 47.095 59.353 40.595
H 57.008 63.236 47.609
H 55.838 66.235 42.387
H 54.495 65.706 42.86
H 46.405 55.221 38.409
H 49.271 61.524 60.63
H 43.424 66.35 39.507
H 58.818 59.533 47.803
H 49.47 63.022 60.476
H 59.075 60.886 47.163
H 47.401 56.364 38.499
H 43.452 64.889 39.922
H 40.995 68.156 53.139
H 55.012 61.278 41.96
H 54.0 61.397 43.085
H 40.789 68.095 51.635
H 46.632 63.993 55.748
H 38.808 66.661 46.212
H 39.462 65.582 47.057
H 56.597 63.441 54.194
H 41.455 62.443 60.383
H 42.243 61.151 60.257
H 55.798 63.159 55.455
H 38.705 62.111 47.124
H 56.642 61.805 47.254
H 54.96 65.062 56.171
H 54.325 66.423 55.943
H 47.087 65.418 56.006
H 56.264 64.015 50.977
H 49.333 69.843 45.85
H 50.61 69.027 45.759
H 44.46 59.528 34.983
H 42.478 63.706 46.935
H 48.164 61.365 39.883
H 48.972 62.557 39.403
H 45.079 60.914 35.036
H 55.418 62.809 51.348
H 43.962 63.559 46.649
H 47.913 64.868 40.672
H 46.925 65.741 41.426
H 40.258 60.429 49.895
H 41.598 61.748 45.1
H 40.899 63.013 45.566
H 46.877 60.004 37.28
H 48.017 60.959 37.587
H 51.185 62.225 58.496
H 52.314 61.907 59.461
H 50.256 64.82 59.484
H 43.639 67.618 45.599
H 43.872 66.131 45.802
H 51.358 64.682 58.448
H 42.811 68.729 54.241
H 44.022 67.814 54.188
H 49.225 57.515 40.759
H 50.101 56.429 41.358
H 46.993 66.444 51.123
H 46.821 65.442 52.251
H 50.948 61.947 34.901
H 50.295 58.805 58.668
H 50.61 60.205 59.167
H 58.696 67.136 57.169
H 57.414 66.58 56.574
H 59.887 62.816 45.587
H 61.017 61.881 45.193
H 53.062 66.399 49.164
H 52.595 65.213 48.338
H 53.021 68.183 45.241
H 52.675 69.656 45.108
H 44.243 64.407 37.367
H 45.423 65.346 37.188
H 46.939 66.238 39.252
H 45.52 66.677 38.936
H 51.945 69.711 53.762
H 50.467 69.395 53.615
H 58.937 67.464 51.871
H 58.101 64.612 46.287
H 50.897 63.633 51.999
H 51.292 62.171 52.106
H 57.318 65.509 47.23
H 61.785 64.871 48.33
