87
xyz format
O 37.458 38.603 54.247
O 41.908 39.813 54.857
O 38.806 41.967 52.515
O 41.967 35.9 58.181
O 43.308 37.862 53.827
O 39.64 39.576 56.348
O 47.316 35.252 55.793
O 43.859 36.695 49.147
O 43.783 41.766 57.34
O 43.337 37.651 56.205
O 39.99 39.534 51.904
O 44.357 38.187 51.577
O 49.299 37.749 52.394
O 44.171 35.509 60.377
O 49.128 39.582 53.633
O 46.049 33.798 50.949
O 45.96 40.537 54.742
O 47.13 38.15 52.712
O 45.207 35.375 56.94
O 48.643 38.698 57.426
O 41.801 34.548 56.395
O 45.53 42.914 54.845
O 46.244 37.977 55.297
O 44.177 41.072 53.102
O 43.622 35.211 53.103
O 45.502 35.93 50.495
O 42.502 38.243 59.304
H 46.615 38.773 53.24
H 46.681 37.307 52.849
H 44.827 35.805 51.174
H 46.055 36.637 50.849
H 45.019 40.807 52.711
H 43.528 40.527 52.641
H 45.359 39.357 58.297
H 45.637 40.85 58.301
H 48.915 40.467 53.956
H 48.591 39.001 54.185
H 45.995 33.882 51.909
H 39.666 38.844 52.496
H 40.334 40.208 52.503
H 45.513 38.357 55.799
H 47.027 38.244 55.795
H 44.101 38.287 50.652
H 43.561 38.249 56.929
H 42.431 37.896 55.978
H 45.045 38.854 51.698
H 44.181 36.018 59.556
H 48.426 38.737 58.366
H 49.195 37.15 51.644
H 48.289 39.524 57.074
H 45.662 36.1 57.386
H 45.165 35.663 56.019
H 46.152 42.939 55.583
H 44.494 42.189 56.842
H 43.04 41.768 56.725
H 43.437 34.007 50.884
H 43.228 36.263 49.736
H 44.27 35.962 48.673
H 42.618 39.181 59.111
H 49.334 36.725 54.778
H 43.044 38.102 60.091
H 42.65 34.306 56.004
H 41.201 34.581 55.639
H 48.035 35.373 56.426
H 39.273 40.351 55.904
H 47.766 34.968 54.987
H 39.971 39.032 55.623
H 42.472 37.388 53.734
H 43.927 37.181 54.119
H 41.21 36.493 58.099
H 42.723 36.461 57.965
H 45.589 32.64 54.463
H 37.928 40.373 51.272
H 43.075 34.891 53.832
H 46.882 40.823 54.719
H 45.742 40.543 55.683
H 47.586 41.817 56.957
H 43.674 44.02 53.027
H 42.992 42.952 59.015
H 38.569 41.421 53.276
H 41.88 37.812 48.944
H 41.95 39.658 53.905
H 42.62 40.444 55.019
H 44.29 32.511 52.252
H 37.109 39.27 54.851
H 37.779 37.907 54.834
H 44.524 35.057 53.409
