70
xyz format
O 69.456 35.353 54.513
O 67.316 36.873 45.045
O 72.978 36.736 54.334
O 69.742 33.516 53.337
O 70.231 31.588 56.036
O 68.683 34.041 48.925
O 68.973 30.499 53.348
O 73.4 37.316 49.901
O 66.349 33.769 46.959
O 69.784 35.492 51.381
O 71.021 36.693 56.206
O 69.046 35.921 46.022
O 71.505 31.613 53.708
O 74.46 36.18 52.49
O 70.151 37.013 44.08
O 71.148 30.531 50.699
O 73.341 33.543 50.234
O 72.584 34.022 52.243
O 70.68 38.392 52.51
O 66.476 35.428 49.127
O 74.956 38.05 53.538
O 67.555 37.264 48.467
O 72.581 34.149 46.699
O 70.797 34.651 48.911
H 71.217 30.759 53.364
H 71.663 32.139 52.914
H 68.212 36.816 49.014
H 73.793 36.627 51.954
H 72.472 33.197 49.994
H 73.78 33.669 49.383
H 75.022 35.743 51.838
H 71.809 33.791 47.156
H 72.652 38.587 51.539
H 73.326 33.724 47.14
H 68.92 31.495 47.57
H 69.437 36.386 43.907
H 68.917 31.353 52.903
H 70.269 37.794 49.704
H 66.476 34.467 49.042
H 72.26 34.859 51.888
H 72.709 34.204 53.183
H 70.428 37.562 52.087
H 69.237 34.867 50.889
H 70.388 35.842 50.715
H 66.609 32.913 47.322
H 69.458 35.081 46.261
H 68.719 36.264 46.863
H 72.67 36.702 50.046
H 73.045 37.948 49.262
H 67.267 32.969 50.822
H 71.07 37.164 55.364
H 69.051 33.152 49.011
H 68.406 34.086 48.002
H 71.045 31.123 55.803
H 70.303 32.427 55.564
H 66.305 35.962 46.785
H 70.406 35.225 48.241
H 71.683 35.013 49.035
H 75.694 37.52 53.865
H 74.587 38.447 54.337
H 69.085 33.53 52.63
H 70.49 34.0 52.964
H 72.733 35.864 54.668
H 72.363 36.884 53.605
H 70.375 30.71 51.249
H 71.745 31.263 50.898
H 67.525 37.412 44.272
H 66.901 36.086 44.671
H 68.888 35.479 55.284
H 69.507 36.233 54.119
