50
xyz format
O 69.971 57.602 40.999
O 68.519 57.296 37.386
O 69.707 53.004 35.096
O 72.199 57.22 40.709
O 75.095 56.844 38.069
O 71.678 50.996 32.939
O 70.973 55.472 36.151
O 70.575 57.224 38.166
O 76.504 56.359 40.716
O 67.723 55.17 34.685
O 72.648 50.152 35.389
O 74.704 55.139 41.297
O 71.728 55.394 33.185
O 69.646 59.53 39.567
O 70.683 50.986 36.535
O 70.58 60.278 37.239
O 72.557 53.274 33.777
O 73.177 56.067 37.247
H 68.832 59.428 40.075
H 69.572 60.416 39.19
H 74.553 55.919 41.845
H 74.166 55.302 40.512
H 69.922 51.233 37.075
H 72.848 56.634 37.956
H 73.308 55.213 37.678
H 71.416 56.249 32.863
H 72.142 54.995 32.409
H 70.015 59.638 36.788
H 71.38 60.297 36.7
H 71.103 59.695 41.44
H 76.568 55.545 40.2
H 71.432 56.273 35.869
H 71.667 54.801 36.155
H 70.874 53.813 39.83
H 70.997 57.73 37.461
H 70.809 57.708 38.967
H 72.56 50.857 33.306
H 71.122 50.388 33.441
H 72.227 56.435 40.147
H 72.626 56.932 41.526
H 72.867 52.895 34.609
H 71.621 53.04 33.753
H 69.295 53.033 35.969
H 69.993 53.913 34.947
H 75.213 56.004 38.529
H 74.741 57.431 38.749
H 68.707 56.957 36.502
H 68.194 58.191 37.224
H 70.383 57.661 41.87
H 69.028 57.54 41.195
