341
xyz format
Cl 61.242 67.541 41.063
O 59.583 55.722 38.457
O 62.353 69.968 37.194
O 69.971 57.602 40.999
O 68.519 57.296 37.386
O 61.382 64.936 39.073
O 63.17 64.233 36.155
O 68.14 62.73 34.009
O 59.172 64.393 37.053
O 65.638 56.162 29.199
O 60.951 62.205 43.16
O 69.707 53.004 35.096
O 61.539 55.57 41.633
O 58.935 67.608 35.436
O 67.057 60.849 37.867
O 58.557 68.338 40.644
O 72.199 57.22 40.709
O 67.809 53.637 41.01
O 60.002 66.629 37.379
O 65.861 53.496 29.931
O 62.79 61.89 41.071
O 75.095 56.844 38.069
O 62.045 61.952 28.079
O 64.727 61.208 39.209
O 68.661 54.588 29.39
O 62.799 56.683 39.336
O 65.234 55.066 32.016
O 63.74 64.362 40.428
O 65.254 67.849 39.795
O 65.951 61.95 43.321
O 62.671 68.238 35.244
O 71.625 62.154 42.162
O 60.733 58.5 38.045
O 70.973 55.472 36.151
O 71.488 52.678 41.931
O 70.108 53.36 39.458
O 70.575 57.224 38.166
O 67.53 55.478 44.629
O 63.355 58.652 38.526
O 58.535 63.213 32.341
O 69.275 66.517 41.447
O 66.681 69.218 37.259
O 66.635 59.354 41.847
O 63.686 62.219 31.398
O 65.593 68.66 46.358
O 62.539 54.401 30.282
O 60.548 62.869 33.163
O 64.38 67.73 37.299
O 67.714 67.655 42.698
O 57.059 61.949 36.604
O 73.251 53.982 43.039
O 65.461 65.494 37.627
O 65.261 61.031 30.054
O 65.235 70.63 41.03
O 61.051 62.737 39.649
O 72.38 61.594 39.215
O 60.357 65.634 33.812
O 65.48 57.043 37.414
O 54.616 60.248 35.118
O 66.095 62.975 38.981
O 59.425 57.438 41.472
O 57.741 58.74 36.33
O 69.945 53.596 43.675
O 64.667 68.385 43.334
O 67.362 65.095 43.669
O 70.897 61.178 34.591
O 63.753 63.686 33.301
O 68.699 56.77 31.45
O 63.637 61.443 37.313
O 66.758 58.695 39.359
O 65.072 65.336 34.765
O 64.806 66.687 44.858
O 56.273 59.946 33.503
O 68.911 55.426 42.911
O 70.138 59.345 47.123
O 67.723 55.17 34.685
O 58.818 70.08 34.572
O 73.841 63.047 40.876
O 57.233 58.595 38.722
O 66.721 59.471 35.239
O 58.081 64.754 39.87
O 54.748 63.329 34.566
O 74.704 55.139 41.297
O 68.166 63.878 37.838
O 70.22 59.972 41.714
O 59.491 59.983 35.846
O 71.728 55.394 33.185
O 58.972 60.969 41.817
O 62.618 64.824 43.263
O 67.743 50.348 36.169
O 63.094 53.899 32.832
O 69.646 59.53 39.567
O 69.357 61.929 36.411
O 70.683 50.986 36.535
O 71.647 66.058 40.798
O 66.182 51.454 42.628
O 68.644 62.422 42.981
O 60.752 60.641 31.628
O 73.033 63.716 42.985
O 63.598 66.9 42.117
O 70.58 60.278 37.239
O 72.557 53.274 33.777
O 63.845 62.107 44.969
O 69.656 64.098 39.441
O 73.177 56.067 37.247
O 59.493 68.987 31.658
O 71.345 58.403 44.585
O 64.485 51.869 33.805
O 66.894 57.467 45.327
O 62.582 54.613 34.904
O 70.291 61.075 43.64
O 63.8 55.418 37.834
O 61.683 63.469 29.945
O 71.196 62.744 44.895
O 65.47 62.538 35.031
O 59.542 64.838 41.515
O 60.675 62.226 35.959
O 62.766 59.39 42.403
O 62.469 68.361 31.93
O 68.579 61.247 46.523
O 65.356 57.574 30.96
O 72.926 61.412 46.035
O 66.557 54.01 37.138
O 56.162 64.145 38.985
O 64.951 64.335 43.018
O 66.343 60.743 45.142
H 64.137 69.148 43.599
H 66.774 64.647 44.29
H 67.602 64.402 43.041
H 65.576 68.695 43.425
H 69.534 62.561 35.703
H 68.424 62.068 36.614
H 62.385 53.25 32.746
H 62.646 54.745 32.709
H 68.832 59.428 40.075
H 69.572 60.416 39.19
H 62.082 65.622 43.184
H 62.155 64.302 43.93
H 65.964 63.257 39.895
H 74.553 55.919 41.845
H 74.166 55.302 40.512
H 65.275 63.232 38.542
H 63.39 68.156 32.134
H 61.978 67.628 32.32
H 67.308 64.303 37.714
H 68.783 64.476 37.398
H 55.222 63.812 35.254
H 54.909 62.402 34.784
H 66.678 59.608 39.662
H 69.922 51.233 37.075
H 71.44 51.267 37.063
H 66.446 58.729 38.446
H 71.143 60.633 43.739
H 65.161 57.173 36.512
H 66.366 56.679 37.294
H 69.648 60.383 43.839
H 69.766 52.788 44.173
H 74.158 62.403 40.23
H 73.461 63.749 40.333
H 70.089 54.26 44.36
H 57.863 58.909 39.382
H 65.782 59.407 35.02
H 66.974 58.56 35.43
H 58.591 65.48 39.489
H 58.545 63.964 39.566
H 62.065 55.11 35.55
H 62.317 53.697 35.054
H 70.7 59.532 46.36
H 68.25 55.805 42.318
H 69.426 56.19 43.198
H 57.0 59.765 34.112
H 60.022 57.418 40.714
H 58.313 58.165 36.854
H 65.037 65.601 33.837
H 64.338 65.815 35.168
H 64.365 66.198 44.152
H 65.728 66.722 44.572
H 56.854 58.406 36.509
H 65.543 60.304 44.827
H 72.865 54.392 42.255
H 56.912 61.978 35.65
H 58.011 61.809 36.685
H 72.848 56.634 37.956
H 73.308 55.213 37.678
H 64.584 63.223 33.138
H 63.635 64.23 32.513
H 64.37 60.876 37.043
H 62.861 61.01 36.936
H 68.285 56.423 32.25
H 68.189 56.369 30.735
H 70.625 61.387 33.688
H 71.369 60.341 34.5
H 71.698 62.277 39.232
H 72.774 61.684 38.338
H 60.172 62.487 39.339
H 60.886 63.121 40.519
H 71.416 56.249 32.863
H 72.142 54.995 32.409
H 58.945 60.207 35.082
H 70.015 59.638 36.788
H 71.38 60.297 36.7
H 60.314 59.664 35.454
H 64.026 62.832 44.358
H 59.744 65.519 34.549
H 61.095 66.121 34.2
H 59.232 63.991 41.857
H 60.412 64.945 41.92
H 70.104 60.829 41.284
H 71.103 59.695 41.44
H 59.913 61.028 41.609
H 63.663 61.358 44.388
H 65.875 60.77 29.357
H 64.67 60.272 30.135
H 65.816 65.74 38.49
H 64.528 65.318 37.804
H 66.016 61.558 45.542
H 60.815 61.489 31.17
H 59.913 60.699 32.102
H 62.774 62.362 31.679
H 63.691 62.513 30.479
H 61.018 63.696 33.0
H 61.253 62.238 33.352
H 67.686 55.121 45.512
H 67.005 54.794 44.195
H 66.613 58.346 45.046
H 67.252 59.645 42.53
H 65.818 59.183 42.333
H 63.4 54.642 30.645
H 66.857 51.225 41.977
H 68.324 61.743 42.373
H 69.181 62.996 42.421
H 57.88 63.109 33.043
H 58.241 62.595 31.66
H 71.701 65.18 41.196
H 71.986 66.644 41.486
H 71.432 56.273 35.869
H 71.667 54.801 36.155
H 72.74 63.944 43.876
H 73.549 64.483 42.71
H 70.226 53.454 38.504
H 70.874 53.813 39.83
H 70.546 52.757 41.733
H 70.997 57.73 37.461
H 70.809 57.708 38.967
H 63.407 58.985 37.621
H 64.278 58.603 38.805
H 72.261 61.696 41.598
H 71.267 62.845 41.591
H 60.867 57.826 38.723
H 60.964 59.324 38.491
H 63.332 67.905 34.624
H 62.099 68.79 34.695
H 67.32 54.294 37.655
H 66.237 53.23 37.61
H 56.347 64.472 38.095
H 56.448 63.223 38.954
H 65.473 64.901 42.436
H 64.478 63.754 42.41
H 59.821 68.172 32.059
H 66.483 69.902 37.911
H 66.988 68.474 37.792
H 69.611 63.139 39.538
H 70.601 64.289 39.487
H 70.627 58.359 43.942
H 72.109 58.669 44.058
H 65.497 61.328 42.74
H 66.326 62.6 42.714
H 72.227 56.435 40.147
H 72.626 56.932 41.526
H 60.785 67.186 37.284
H 59.447 67.117 37.999
H 68.548 53.672 41.63
H 67.944 54.413 40.45
H 63.526 61.396 41.454
H 62.055 61.266 41.1
H 65.172 54.644 32.882
H 64.641 55.824 32.088
H 62.01 54.729 41.698
H 60.854 55.398 40.975
H 59.844 67.753 35.145
H 58.475 67.344 34.629
H 62.497 55.796 39.566
H 63.282 56.971 40.12
H 68.659 55.374 28.83
H 69.103 53.922 28.849
H 68.655 60.6 45.811
H 65.163 58.348 31.503
H 66.319 57.516 30.977
H 64.562 67.26 39.469
H 63.481 63.787 39.697
H 64.027 65.173 39.991
H 65.917 67.247 40.155
H 63.758 67.144 36.849
H 65.219 67.557 36.855
H 67.026 55.137 34.018
H 67.313 55.642 35.421
H 65.133 53.292 30.531
H 66.572 53.777 30.519
H 66.648 60.812 36.993
H 67.841 60.294 37.776
H 62.516 60.142 42.954
H 63.651 59.163 42.713
H 60.536 55.62 38.575
H 59.426 55.398 37.562
H 59.813 63.828 37.503
H 58.324 63.971 37.241
H 72.867 52.895 34.609
H 67.817 61.824 34.091
H 71.621 53.04 33.753
H 67.521 63.244 34.543
H 63.485 63.321 36.176
H 62.696 64.292 35.316
H 64.421 66.674 41.668
H 63.334 67.733 41.708
H 69.295 53.033 35.969
H 69.993 53.913 34.947
H 60.173 62.444 43.68
H 61.659 62.161 43.814
H 72.515 60.759 45.455
H 75.213 56.004 38.529
H 74.741 57.431 38.749
H 63.923 60.709 39.399
H 65.206 61.198 40.047
H 63.779 55.5 36.872
H 64.002 54.485 37.98
H 62.377 64.061 29.631
H 61.388 63.877 30.769
H 68.707 56.957 36.502
H 68.194 58.191 37.224
H 61.236 65.419 39.896
H 62.208 65.305 38.734
H 60.061 62.128 35.221
H 61.514 62.44 35.533
H 70.383 57.661 41.87
H 70.539 62.455 45.54
H 70.674 63.202 44.225
H 61.63 69.355 37.015
H 69.028 57.54 41.195
H 62.022 70.814 36.868
H 64.886 61.773 35.101
H 65.914 62.568 35.888
