405
xyz format
Cl 41.259 60.751 72.504
Na 41.179 68.089 69.505
O 46.791 61.308 68.338
O 40.501 62.894 63.585
O 42.041 62.691 62.027
O 55.968 59.682 62.992
O 52.342 61.133 68.723
O 48.127 70.555 66.133
O 49.134 68.801 64.594
O 41.751 65.527 63.853
O 49.25 73.189 64.786
O 58.796 59.374 64.961
O 46.842 66.009 72.567
O 38.522 57.998 74.117
O 55.515 65.421 64.893
O 56.1 64.089 69.08
O 46.05 68.408 64.582
O 52.85 63.112 63.59
O 44.98 72.035 63.862
O 37.602 63.398 67.675
O 43.906 67.948 71.448
O 56.041 56.892 75.006
O 47.738 71.315 68.637
O 57.164 67.559 68.051
O 43.637 63.062 63.495
O 46.699 55.348 70.014
O 56.871 54.921 68.371
O 48.699 60.73 73.193
O 45.067 66.077 70.416
O 43.983 64.926 61.101
O 60.909 67.098 67.833
O 41.645 65.357 60.377
O 39.899 60.189 68.296
O 59.514 53.361 75.42
O 57.996 62.756 72.8
O 59.315 59.568 71.552
O 44.804 60.501 60.742
O 56.806 65.979 70.41
O 62.184 60.764 71.62
O 42.543 66.263 68.848
O 47.068 55.584 75.391
O 56.347 56.773 69.443
O 49.298 56.784 75.844
O 62.87 59.15 73.204
O 40.726 66.261 71.97
O 43.247 60.061 70.726
O 53.87 53.66 68.672
O 60.838 65.916 69.691
O 52.78 57.819 67.129
O 43.318 58.978 68.133
O 53.677 64.195 67.324
O 42.727 71.353 65.521
O 56.971 65.614 66.749
O 45.332 62.126 71.237
O 56.551 62.57 64.886
O 45.791 57.047 72.962
O 44.576 64.489 65.446
O 41.727 60.218 65.82
O 59.414 68.975 68.099
O 55.016 54.74 74.581
O 55.715 59.118 75.927
O 58.954 55.719 71.991
O 42.291 57.22 66.609
O 59.051 56.579 63.042
O 52.723 54.884 75.119
O 48.689 62.27 64.54
O 47.057 65.904 68.424
O 39.682 63.674 72.594
O 54.183 62.051 70.321
O 50.248 60.15 67.523
O 60.761 57.636 74.462
O 46.702 68.89 70.75
O 54.925 60.006 67.785
O 54.662 56.543 64.089
O 39.539 65.561 66.666
O 52.916 55.211 65.598
O 48.427 64.65 73.258
O 46.598 60.076 71.351
O 53.994 56.471 77.582
O 60.418 62.155 72.505
O 45.717 58.465 74.663
O 59.336 67.61 69.825
O 43.83 66.339 58.582
O 45.047 71.571 66.799
O 43.627 58.729 63.446
O 43.705 55.211 72.213
O 46.858 53.389 72.654
O 40.68 60.52 63.249
O 47.029 71.051 63.464
O 54.39 58.038 61.041
O 51.36 54.265 68.284
O 53.56 66.679 68.589
O 44.738 63.208 68.548
O 40.951 70.726 63.494
O 58.174 58.5 75.385
O 55.027 68.219 70.958
O 38.789 62.81 65.645
O 62.029 62.718 69.551
O 52.026 64.899 71.153
O 42.684 59.327 73.528
O 38.217 62.174 71.924
O 57.734 62.056 70.046
O 59.26 56.624 70.009
O 51.398 61.435 71.409
O 58.291 55.897 65.975
O 54.649 69.424 67.89
O 55.395 58.188 65.856
O 35.882 67.647 66.446
O 58.262 65.909 72.617
O 60.908 65.06 71.969
O 44.781 57.993 70.55
O 37.406 67.172 63.96
O 54.031 61.468 65.908
O 48.396 59.365 76.241
O 51.159 60.212 73.222
O 53.778 58.748 63.227
O 56.364 54.83 63.474
O 53.651 66.875 65.295
O 54.29 59.603 71.774
O 45.016 57.813 65.766
O 46.555 64.265 64.237
O 43.674 60.899 63.094
O 44.074 66.51 62.768
O 40.902 70.103 67.319
O 49.121 61.069 69.859
O 41.134 62.894 68.441
O 58.313 64.255 69.655
O 46.993 63.383 71.966
O 42.631 53.482 71.005
O 45.915 63.195 61.624
O 57.144 58.857 72.231
O 37.411 64.431 70.788
O 39.961 61.539 70.61
O 55.033 62.941 73.36
O 53.678 52.437 73.681
O 60.544 60.771 65.385
O 50.585 56.881 63.867
O 56.957 60.557 66.723
O 42.305 63.03 71.102
O 58.118 55.763 75.911
O 44.667 66.524 67.253
O 48.602 65.852 62.258
O 44.902 53.694 74.853
O 48.404 63.435 69.29
O 60.517 60.802 70.185
O 62.754 63.941 71.446
O 59.188 61.6 68.093
O 39.021 60.055 74.726
O 47.472 63.353 60.031
O 58.454 57.81 67.415
O 45.936 66.161 60.452
O 43.461 55.677 69.217
O 62.08 57.686 71.165
H 53.972 60.508 71.883
H 52.734 66.987 65.575
H 54.149 67.425 65.912
H 54.331 59.265 72.677
H 53.717 56.416 63.94
H 60.765 60.61 69.273
H 60.007 61.619 70.117
H 44.285 59.029 64.086
H 54.834 56.055 64.904
H 44.302 66.018 63.566
H 44.668 67.27 62.788
H 43.225 60.715 62.26
H 44.557 61.179 62.823
H 46.187 64.799 63.522
H 47.333 63.854 63.839
H 44.875 57.855 66.72
H 45.843 58.294 65.635
H 43.01 58.21 63.978
H 38.816 65.598 66.027
H 39.67 66.484 66.917
H 48.877 59.887 76.895
H 47.538 59.212 76.656
H 36.744 67.381 66.102
H 53.767 69.815 67.938
H 45.145 70.679 66.445
H 55.134 70.025 67.311
H 44.355 71.479 67.466
H 51.476 59.531 73.829
H 50.865 60.921 73.807
H 57.063 55.246 63.993
H 52.996 58.483 63.727
H 53.729 59.712 63.219
H 56.07 57.841 65.259
H 54.717 58.532 65.261
H 37.307 62.338 72.202
H 38.358 61.244 72.142
H 46.866 70.1 63.435
H 46.968 71.265 64.403
H 59.461 57.353 69.409
H 59.131 55.871 69.42
H 57.06 61.458 70.391
H 57.393 62.312 69.18
H 58.521 56.391 76.523
H 57.679 55.128 76.491
H 38.817 58.546 67.044
H 61.469 60.991 65.217
H 57.709 60.843 66.19
H 56.236 60.492 66.085
H 41.471 63.138 70.628
H 42.893 63.671 70.682
H 52.008 62.149 71.633
H 51.93 60.841 70.865
H 51.373 56.572 64.331
H 41.927 59.282 74.126
H 43.423 59.548 74.108
H 57.892 56.63 65.489
H 44.438 64.102 68.757
H 44.242 62.979 67.753
H 55.61 59.365 68.012
H 41.552 60.379 63.638
H 55.16 60.785 68.304
H 39.694 61.844 69.734
H 40.245 60.629 70.459
H 55.163 62.128 72.856
H 55.644 62.852 74.101
H 47.334 54.219 72.781
H 43.3 56.069 72.036
H 37.99 64.956 70.221
H 44.055 55.302 73.108
H 54.133 67.289 68.108
H 54.013 66.558 69.433
H 57.531 57.983 72.369
H 56.279 58.667 71.848
H 45.549 58.013 75.5
H 45.977 59.355 74.932
H 61.118 61.948 73.137
H 59.787 61.434 72.618
H 47.447 66.6 67.881
H 47.816 65.51 68.873
H 46.302 64.028 71.767
H 58.645 57.378 63.401
H 41.845 56.68 65.945
H 42.428 58.065 66.163
H 59.622 55.961 72.644
H 58.123 55.784 72.478
H 58.653 60.802 68.194
H 59.541 61.528 67.198
H 53.56 54.808 66.194
H 52.279 55.623 66.194
H 45.841 60.001 71.945
H 47.193 59.377 71.648
H 48.042 64.038 73.897
H 49.366 64.425 73.261
H 49.553 62.252 64.971
H 48.288 61.43 64.794
H 51.785 54.661 75.086
H 58.743 66.85 69.774
H 59.645 67.599 70.739
H 50.401 59.529 68.246
H 50.229 61.011 67.959
H 55.074 62.366 70.123
H 53.617 62.596 69.76
H 60.314 65.808 71.83
H 60.312 64.305 72.047
H 53.116 61.725 65.74
H 54.534 62.268 65.71
H 44.471 58.295 71.413
H 45.739 58.102 70.6
H 60.001 58.167 74.194
H 57.952 66.693 72.146
H 58.196 65.205 71.959
H 47.336 68.474 70.153
H 47.726 63.65 71.397
H 47.178 68.943 71.589
H 40.694 70.853 66.749
H 41.151 69.406 66.699
H 39.637 63.829 71.642
H 40.522 63.215 72.713
H 55.76 58.813 76.841
H 45.253 62.649 61.181
H 46.162 62.674 62.398
H 55.803 54.328 74.202
H 54.49 54.982 73.809
H 56.131 59.989 75.955
H 56.645 63.529 64.834
H 57.38 62.238 64.52
H 41.348 61.094 65.967
H 42.594 60.27 66.241
H 46.754 57.029 73.012
H 45.594 56.554 72.155
H 52.881 63.885 66.875
H 54.28 64.407 66.601
H 43.314 59.93 68.291
H 43.323 58.597 69.02
H 52.619 57.117 67.772
H 52.026 58.411 67.243
H 49.083 70.443 66.059
H 47.788 69.651 66.113
H 57.431 65.266 67.523
H 42.711 60.809 70.435
H 42.594 59.399 70.986
H 61.784 65.986 69.867
H 60.71 64.981 69.492
H 41.534 66.713 71.697
H 40.283 66.06 71.136
H 56.054 65.69 67.042
H 44.472 62.122 70.798
H 45.112 62.221 72.172
H 49.458 61.794 70.4
H 48.72 60.471 70.502
H 41.969 71.868 65.215
H 42.797 70.642 64.871
H 46.396 65.895 61.258
H 46.623 66.59 59.927
H 62.022 59.262 73.651
H 49.021 57.324 75.092
H 56.608 57.143 70.296
H 55.385 56.856 69.442
H 47.225 56.125 76.175
H 41.807 65.649 68.967
H 44.123 55.641 69.92
H 46.35 56.042 74.936
H 57.545 57.758 67.735
H 58.774 58.649 67.769
H 42.309 66.75 68.048
H 42.625 55.755 69.693
H 62.74 57.302 71.756
H 61.258 57.255 71.429
H 62.219 59.88 71.233
H 63.111 61.026 71.68
H 56.409 66.776 70.037
H 56.227 65.76 71.15
H 43.91 64.84 66.05
H 45.255 64.135 66.034
H 58.911 63.894 70.322
H 58.793 64.133 68.827
H 41.609 66.049 61.049
H 40.859 60.162 68.399
H 39.775 60.497 67.389
H 57.141 63.05 72.464
H 59.174 58.723 71.107
H 39.834 60.312 74.273
H 38.325 60.474 74.204
H 63.467 63.314 71.624
H 63.205 64.691 71.04
H 58.297 63.497 73.341
H 58.654 60.149 71.156
H 54.803 65.234 64.269
H 56.266 65.635 64.325
H 55.381 64.665 69.368
H 55.838 63.822 68.19
H 48.302 61.289 72.514
H 49.035 59.972 72.698
H 47.217 66.856 72.295
H 45.891 66.134 72.456
H 39.482 57.96 74.022
H 38.231 58.461 73.321
H 46.543 54.758 70.762
H 46.909 56.194 70.429
H 44.357 65.653 70.913
H 45.624 65.339 70.136
H 43.779 65.785 60.71
H 43.833 64.304 60.378
H 52.309 64.108 70.678
H 52.63 65.584 70.84
H 54.436 68.828 71.417
H 54.933 68.466 70.029
H 57.799 58.226 74.539
H 58.231 59.461 75.311
H 38.614 62.358 64.81
H 38.738 62.105 66.303
H 44.642 71.135 63.778
H 45.273 68.9 64.875
H 46.372 67.988 65.39
H 45.516 66.237 66.892
H 44.914 67.107 67.981
H 53.454 63.496 64.238
H 52.442 63.882 63.174
H 36.923 64.019 67.967
H 58.999 58.527 65.378
H 59.295 59.347 64.135
H 49.326 68.968 63.663
H 49.913 68.325 64.907
H 46.461 61.494 67.45
H 46.198 60.619 68.663
H 52.395 61.348 67.784
H 53.046 60.486 68.851
H 41.959 62.883 67.94
H 40.457 62.746 67.769
H 42.019 66.403 63.548
H 41.655 65.02 63.037
H 37.738 62.83 68.443
H 56.61 56.379 74.418
H 55.413 57.314 74.406
H 48.142 71.829 67.926
H 47.739 70.412 68.295
H 41.295 62.258 61.594
H 42.739 62.665 61.361
H 43.805 68.34 70.571
H 43.897 62.704 64.353
H 44.218 63.824 63.379
H 44.862 67.929 71.581
H 56.407 67.997 67.641
H 57.841 67.579 67.363
H 48.189 64.985 62.158
H 48.023 66.31 62.881
H 41.269 62.762 64.155
H 40.104 63.708 63.919
H 47.556 63.321 68.843
H 49.006 63.688 68.579
H 56.11 58.767 63.263
H 45.521 54.124 74.249
