85
xyz format
O 47.424 54.104 66.271
O 55.968 59.682 62.992
O 49.199 54.548 65.05
O 46.699 55.348 70.014
O 56.871 54.921 68.371
O 47.298 56.666 66.583
O 51.219 52.43 70.538
O 51.724 53.542 64.725
O 53.87 53.66 68.672
O 52.78 57.819 67.129
O 49.944 52.038 65.237
O 56.402 51.536 63.405
O 53.887 51.634 67.558
O 50.248 60.15 67.523
O 54.925 60.006 67.785
O 54.662 56.543 64.089
O 52.916 55.211 65.598
O 50.022 54.357 61.744
O 49.498 55.815 69.244
O 51.36 54.265 68.284
O 55.395 58.188 65.856
O 53.778 58.748 63.227
O 56.364 54.83 63.474
O 55.106 54.612 70.907
O 51.743 56.608 61.237
O 50.585 56.881 63.867
O 56.957 60.557 66.723
O 53.589 53.425 63.084
O 51.17 59.369 62.253
H 53.717 56.416 63.94
H 54.834 56.055 64.904
H 57.063 55.246 63.993
H 54.436 55.2 70.535
H 55.89 54.289 64.118
H 52.996 58.483 63.727
H 53.729 59.712 63.219
H 56.07 57.841 65.259
H 54.717 58.532 65.261
H 51.996 59.137 61.81
H 50.743 58.516 62.403
H 55.021 57.679 61.677
H 56.236 60.492 66.085
H 58.938 53.767 64.072
H 51.373 56.572 64.331
H 50.306 57.651 64.378
H 57.892 56.63 65.489
H 50.824 54.875 67.762
H 51.861 53.775 67.62
H 55.61 59.365 68.012
H 50.949 56.406 61.748
H 54.004 51.955 66.655
H 54.752 51.773 67.964
H 49.599 55.493 70.149
H 53.56 54.808 66.194
H 48.635 55.477 68.976
H 52.279 55.623 66.194
H 50.956 54.17 61.906
H 49.563 53.632 62.186
H 50.401 59.529 68.246
H 51.466 52.035 62.065
H 55.49 51.645 63.106
H 56.771 52.426 63.342
H 54.093 54.561 68.406
H 53.216 53.783 69.372
H 52.619 57.117 67.772
H 52.026 58.411 67.243
H 51.067 53.562 64.018
H 51.225 53.806 65.508
H 50.703 51.567 64.871
H 49.283 51.987 64.536
H 55.385 56.856 69.442
H 47.304 54.178 62.981
H 57.545 57.758 67.735
H 47.955 57.038 65.981
H 46.642 56.275 65.992
H 46.543 54.758 70.762
H 46.909 56.194 70.429
H 53.197 52.59 63.37
H 53.735 53.905 63.909
H 53.046 60.486 68.851
H 57.362 54.424 61.404
H 49.159 54.654 64.091
H 49.361 55.443 65.373
H 47.867 54.578 66.986
H 56.11 58.767 63.263
