227
xyz format
Cl 61.242 67.541 41.063
O 59.892 64.597 44.045
O 62.267 63.912 49.325
O 57.587 66.404 42.599
O 48.479 61.247 49.622
O 60.951 62.205 43.16
O 57.793 65.457 45.373
O 53.925 62.227 47.433
O 58.557 68.338 40.644
O 51.937 69.553 51.704
O 49.158 68.118 50.586
O 59.139 60.722 52.596
O 63.446 63.312 46.768
O 55.795 60.641 40.337
O 48.185 65.582 49.733
O 59.878 66.912 54.031
O 54.545 65.38 49.164
O 57.659 64.519 48.088
O 54.162 71.746 44.896
O 49.436 65.964 51.511
O 50.096 62.503 52.401
O 49.133 66.643 45.444
O 54.567 68.535 53.18
O 51.385 60.879 53.472
O 61.419 67.367 51.856
O 61.67 60.589 49.077
O 65.069 66.505 49.189
O 46.392 62.363 52.051
O 55.779 60.703 52.103
O 60.085 65.541 47.945
O 54.5 64.222 51.801
O 65.593 68.66 46.358
O 60.014 61.846 50.729
O 54.254 72.37 50.268
O 62.932 65.063 51.091
O 50.168 59.763 45.276
O 59.342 57.664 49.762
O 58.264 59.554 45.095
O 52.153 70.067 46.052
O 64.402 61.363 50.707
O 57.776 62.291 50.856
O 51.084 62.025 46.917
O 53.33 68.67 47.642
O 59.739 56.869 45.804
O 64.806 66.687 44.858
O 55.711 66.633 47.31
O 54.624 64.417 45.167
O 55.221 57.942 52.735
O 58.02 64.553 53.514
O 50.798 67.973 52.906
O 56.798 62.435 53.25
O 58.081 64.754 39.87
O 49.549 69.373 47.7
O 55.027 69.354 50.173
O 58.972 60.969 41.817
O 62.618 64.824 43.263
O 55.293 63.072 41.956
O 50.905 62.574 44.425
O 56.157 66.826 39.98
O 57.568 62.218 45.647
O 58.034 60.286 47.16
O 56.94 69.882 51.128
O 47.759 65.644 47.534
O 55.5 60.524 43.901
O 63.845 62.107 44.969
O 60.41 58.431 47.998
O 60.976 59.705 44.48
O 52.588 64.842 52.716
O 50.93 71.658 47.087
O 59.605 66.027 50.135
O 62.888 60.417 46.224
O 60.461 57.639 43.872
O 52.012 63.466 48.398
O 56.121 58.474 44.4
O 64.72 61.502 47.32
O 51.192 66.775 48.366
O 56.23 60.142 49.067
O 62.414 65.692 45.616
O 53.609 61.002 51.89
O 59.542 64.838 41.515
O 47.396 65.304 52.568
O 65.837 64.717 46.944
O 49.277 63.91 50.661
O 63.435 67.588 46.967
H 66.117 65.556 46.557
H 65.798 64.117 46.189
H 55.779 63.427 41.202
H 47.484 65.666 53.458
H 46.544 65.642 52.266
H 51.871 61.497 47.099
H 50.534 61.896 47.7
H 62.082 65.622 43.184
H 62.155 64.302 43.93
H 51.764 62.316 44.068
H 50.472 63.017 43.684
H 63.284 65.606 46.025
H 61.875 66.096 46.307
H 54.176 69.699 49.875
H 55.593 69.437 49.395
H 49.112 69.992 48.298
H 50.217 68.951 48.254
H 56.395 66.163 40.64
H 50.528 66.69 47.67
H 50.802 66.306 49.114
H 64.035 61.994 50.076
H 55.115 67.328 47.615
H 56.197 66.382 48.105
H 55.161 64.224 45.945
H 53.806 64.773 45.536
H 58.545 63.964 39.566
H 57.103 61.787 53.898
H 56.321 63.084 53.782
H 64.782 60.642 47.755
H 64.858 62.132 48.038
H 57.875 61.335 50.763
H 57.255 62.544 50.084
H 56.94 57.967 44.337
H 56.174 58.89 45.269
H 51.275 63.505 49.019
H 52.79 63.58 48.957
H 58.654 64.099 52.945
H 57.326 64.834 52.905
H 59.686 56.347 46.614
H 64.365 66.198 44.152
H 65.728 66.722 44.572
H 50.988 60.171 45.582
H 50.376 58.82 45.253
H 59.754 66.913 50.49
H 59.589 65.465 50.92
H 60.83 62.184 50.338
H 60.021 60.909 50.498
H 53.464 71.832 50.407
H 54.836 71.794 49.756
H 53.364 69.616 47.832
H 52.899 68.294 48.42
H 63.215 65.577 51.858
H 62.597 64.243 51.474
H 60.886 63.121 40.519
H 64.026 62.832 44.358
H 58.543 58.0 49.337
H 59.232 63.991 41.857
H 60.412 64.945 41.92
H 52.069 69.691 45.167
H 51.555 69.53 46.587
H 55.793 60.689 42.997
H 55.969 61.19 44.419
H 58.883 60.102 42.232
H 63.663 61.358 44.388
H 56.792 68.977 51.429
H 57.886 70.018 51.266
H 58.565 60.433 44.833
H 59.068 59.12 45.406
H 59.652 58.4 47.402
H 57.539 59.499 47.421
H 58.553 60.5 47.945
H 54.723 63.373 51.399
H 54.654 64.078 52.743
H 61.219 60.522 48.226
H 62.54 60.938 48.848
H 52.488 63.967 53.113
H 52.763 65.417 53.471
H 60.931 60.318 45.224
H 60.478 60.151 43.784
H 51.601 71.407 47.734
H 60.455 64.814 47.429
H 59.909 66.224 47.285
H 64.283 66.428 48.634
H 55.739 61.186 51.269
H 56.524 60.1 51.984
H 45.593 61.822 52.078
H 46.695 62.278 51.138
H 52.441 60.202 43.931
H 58.17 62.629 46.28
H 56.844 62.853 45.574
H 52.079 60.238 53.273
H 50.588 60.476 53.105
H 61.342 66.589 52.422
H 61.244 68.105 52.453
H 63.114 67.902 46.112
H 50.432 63.388 52.587
H 50.477 62.289 51.54
H 48.293 66.398 45.037
H 50.3 65.569 51.686
H 63.182 68.29 47.579
H 49.258 66.485 52.304
H 54.073 70.944 45.426
H 54.377 69.479 53.121
H 57.031 64.0 47.57
H 57.31 64.471 48.987
H 59.207 66.633 53.396
H 54.804 64.451 49.113
H 54.671 65.602 50.095
H 47.473 65.04 50.095
H 47.767 66.44 49.586
H 59.136 68.324 39.872
H 59.149 68.135 41.379
H 61.031 57.578 43.095
H 59.684 58.112 43.55
H 54.764 62.503 47.821
H 53.619 63.014 46.965
H 56.506 60.386 40.938
H 55.074 60.891 40.927
H 63.819 63.957 47.382
H 62.532 63.604 46.657
H 62.635 61.268 46.604
H 59.181 61.305 53.363
H 58.535 60.022 52.872
H 51.909 69.275 50.78
H 50.077 68.005 50.313
H 48.002 61.901 49.096
H 49.093 60.849 48.992
H 58.55 66.444 42.65
H 57.403 65.466 42.47
H 58.264 64.795 45.895
H 57.045 64.969 45.006
H 60.173 62.444 43.68
H 61.659 62.161 43.814
H 48.572 63.425 51.108
H 49.2 63.63 49.741
H 53.106 61.386 51.161
H 53.736 61.742 52.497
H 59.98 65.558 44.07
H 60.181 64.318 44.923
H 56.685 59.743 49.819
H 55.298 60.112 49.32
H 62.249 64.682 48.742
H 62.001 63.183 48.75
