763
xyz format
Na 46.336 56.344 34.969
O 48.262 50.179 24.401
O 61.925 48.975 33.936
O 55.605 54.552 33.093
O 57.564 54.032 32.004
O 56.077 50.987 30.501
O 44.251 57.008 30.865
O 58.357 42.165 32.213
O 59.583 55.722 38.457
O 54.182 49.336 31.495
O 55.752 53.306 41.348
O 55.09 53.194 37.529
O 54.453 56.755 39.842
O 47.057 60.214 27.955
O 54.774 50.098 37.186
O 63.318 56.846 29.469
O 45.733 48.509 31.953
O 45.023 54.088 36.793
O 49.36 58.68 25.953
O 49.496 57.744 28.383
O 49.594 50.321 28.425
O 56.201 49.297 25.156
O 48.66 49.362 33.595
O 43.128 47.633 32.968
O 56.128 49.545 27.927
O 42.6 59.874 35.929
O 56.718 50.371 36.194
O 38.829 49.07 31.297
O 60.603 53.293 37.665
O 50.528 47.952 30.327
O 38.916 52.01 32.064
O 46.529 42.063 30.219
O 52.703 53.557 40.845
O 52.563 51.837 35.898
O 47.015 56.218 24.12
O 55.942 47.335 32.968
O 57.432 47.613 30.077
O 50.118 59.605 35.868
O 61.097 47.285 39.771
O 50.579 51.258 36.654
O 44.851 52.129 39.126
O 46.047 61.631 35.735
O 48.833 45.132 36.582
O 60.892 54.228 28.697
O 66.045 49.349 32.194
O 53.649 54.883 36.971
O 62.061 43.908 37.631
O 43.266 61.36 31.959
O 51.83 45.651 25.741
O 52.045 39.375 30.216
O 53.676 55.974 24.5
O 53.192 61.572 27.84
O 50.118 37.717 31.113
O 51.38 53.206 23.962
O 55.723 41.84 36.029
O 61.694 59.243 29.052
O 41.465 50.784 30.986
O 57.768 51.798 33.928
O 50.403 59.846 32.747
O 50.363 40.468 38.283
O 58.688 50.203 26.442
O 55.916 56.593 25.711
O 42.509 44.712 31.816
O 58.569 52.523 28.233
O 54.64 43.574 28.561
O 41.971 55.703 32.339
O 48.924 50.386 40.746
O 54.477 39.43 31.777
O 46.756 45.28 28.776
O 56.201 37.356 33.457
O 60.787 51.273 31.003
O 47.059 58.37 29.734
O 46.576 56.266 38.022
O 49.874 57.374 30.519
O 49.397 39.75 27.915
O 63.979 46.591 31.346
O 48.387 53.642 30.03
O 60.727 45.296 32.895
O 54.553 45.898 25.157
O 63.267 47.106 33.72
O 48.247 55.485 32.451
O 58.175 43.39 27.245
O 44.636 45.743 30.719
O 50.964 58.471 40.09
O 49.969 54.723 33.618
O 60.062 44.345 41.674
O 43.966 42.991 35.457
O 46.178 62.324 32.096
O 51.96 57.512 23.057
O 56.982 41.707 39.823
O 54.967 41.777 33.958
O 47.96 41.069 32.132
O 59.668 41.292 39.142
O 57.482 43.742 42.228
O 62.539 54.401 30.282
O 59.797 40.005 31.602
O 56.982 56.852 31.554
O 41.915 55.924 36.92
O 42.652 54.309 27.015
O 56.906 48.665 42.027
O 53.237 47.776 37.279
O 65.331 49.893 29.792
O 58.972 44.967 38.96
O 57.12 58.002 29.495
O 42.196 50.038 26.32
O 44.294 43.052 29.815
O 51.131 41.219 32.423
O 60.518 37.566 29.042
O 51.35 55.173 22.684
O 40.227 57.338 34.477
O 50.827 43.883 30.833
O 58.843 39.409 28.54
O 53.405 46.384 31.076
O 62.057 48.702 30.499
O 59.8 52.798 25.368
O 58.31 55.312 26.587
O 44.903 46.984 25.397
O 59.065 53.587 33.812
O 44.429 56.073 26.017
O 42.041 49.464 28.779
O 58.902 49.145 28.359
O 54.237 59.335 38.115
O 43.851 58.259 29.088
O 41.846 41.941 31.692
O 53.542 54.461 26.093
O 59.951 56.297 35.449
O 53.706 55.812 28.714
O 40.535 57.907 37.278
O 65.088 45.87 34.132
O 51.207 52.913 38.078
O 54.616 60.248 35.118
O 51.116 50.463 33.315
O 51.25 56.499 26.035
O 54.767 42.662 30.575
O 49.416 51.428 30.997
O 52.165 58.072 35.945
O 52.399 54.986 31.057
O 65.514 48.418 35.6
O 57.741 58.74 36.33
O 49.677 47.318 35.392
O 45.506 59.699 32.804
O 48.706 59.716 30.628
O 49.989 55.99 41.873
O 61.668 51.737 35.816
O 52.511 51.435 24.703
O 60.942 45.956 29.562
O 41.037 47.328 30.485
O 51.132 54.952 35.903
O 58.318 47.048 25.715
O 49.978 42.608 26.311
O 48.183 38.292 34.342
O 59.849 56.469 30.648
O 48.646 40.269 30.2
O 44.469 54.002 29.164
O 60.14 41.978 34.969
O 42.205 43.697 34.264
O 40.068 52.462 29.522
O 45.106 43.419 27.047
O 46.137 41.844 36.528
O 46.113 50.098 34.367
O 44.15 58.19 34.028
O 57.365 45.403 34.892
O 44.267 51.138 30.976
O 46.923 54.191 35.632
O 48.282 52.62 32.825
O 57.302 55.255 38.117
O 50.811 39.306 35.772
O 56.273 59.946 33.503
O 51.232 43.383 37.162
O 58.436 47.377 32.045
O 49.447 41.421 34.204
O 62.378 50.704 28.496
O 46.963 45.185 32.225
O 47.291 39.979 35.984
O 45.346 46.34 35.392
O 60.701 48.478 37.688
O 53.069 59.277 25.674
O 56.446 50.871 40.283
O 52.624 41.258 36.235
O 47.394 50.357 29.947
O 50.68 48.841 22.118
O 46.539 55.3 29.686
O 47.657 43.455 34.18
O 42.724 55.002 30.394
O 42.843 53.455 32.678
O 57.233 58.595 38.722
O 43.822 55.229 35.077
O 57.225 52.662 37.699
O 51.229 50.341 30.39
O 45.069 46.488 38.492
O 60.816 46.482 35.409
O 45.371 53.799 33.656
O 55.261 57.088 32.938
O 57.528 54.975 41.331
O 55.716 50.3 33.078
O 60.364 48.822 31.943
O 44.749 49.803 27.586
O 53.759 44.779 36.904
O 44.893 51.368 25.879
O 50.591 53.675 28.484
O 49.847 44.732 33.838
O 59.194 50.643 35.513
O 47.192 56.643 28.071
O 47.9 42.23 37.959
O 40.534 50.018 36.069
O 63.094 53.899 32.832
O 44.661 39.923 34.84
O 51.156 42.059 28.588
O 51.325 55.259 43.721
O 54.387 53.321 24.297
O 54.064 53.309 35.06
O 51.332 56.014 38.196
O 49.239 55.616 23.884
O 56.146 47.272 36.315
O 55.609 38.781 38.286
O 43.197 60.591 29.351
O 47.91 51.668 39.049
O 61.243 44.699 26.709
O 46.917 49.355 21.679
O 46.743 41.184 28.097
O 49.387 46.449 23.492
O 45.648 52.248 27.755
O 59.438 46.785 42.027
O 47.028 45.182 25.768
O 58.176 49.376 31.163
O 50.148 46.313 31.866
O 53.613 47.024 33.713
O 46.129 57.247 32.393
O 55.535 41.724 27.054
O 49.132 54.37 36.61
O 56.961 38.662 30.581
O 49.153 52.077 26.007
O 48.047 50.59 35.994
O 40.338 50.895 27.642
O 41.935 47.489 35.878
O 54.216 54.975 43.071
O 44.806 43.652 32.61
O 64.485 51.869 33.805
O 48.298 43.553 28.503
O 48.454 60.024 37.289
O 46.627 52.684 24.989
O 42.65 40.602 34.256
O 46.994 38.6 31.771
O 59.719 49.752 39.534
O 52.253 49.144 35.857
O 46.208 40.407 33.329
O 43.431 54.516 38.25
O 59.652 52.897 39.842
O 52.876 52.59 28.746
O 48.858 46.918 28.19
O 47.215 54.53 39.914
O 62.582 54.613 34.904
O 54.759 58.174 27.922
O 58.439 45.375 30.012
O 57.972 36.134 28.287
O 46.74 54.581 27.217
O 47.77 49.6 26.866
O 52.559 49.22 28.088
O 60.785 47.793 26.633
O 61.838 51.324 39.278
O 42.973 49.986 33.639
O 57.805 42.605 36.97
O 44.457 62.713 34.642
O 42.271 46.033 28.182
O 63.232 47.84 39.281
O 52.591 52.933 32.31
O 58.618 46.359 37.294
O 56.58 44.706 27.996
O 46.348 51.833 31.199
O 47.9 47.945 25.418
O 41.843 53.022 34.695
O 51.981 58.893 29.032
O 38.956 49.056 28.378
O 45.127 59.031 38.776
O 63.671 43.581 35.382
O 51.804 48.349 33.324
H 51.284 54.616 43.003
H 41.15 53.047 34.023
H 55.533 39.743 38.265
H 54.9 38.482 37.703
H 56.951 45.537 28.32
H 55.869 44.987 27.407
H 49.558 54.738 24.128
H 56.92 47.648 36.752
H 55.849 46.585 36.924
H 49.736 56.208 24.461
H 50.568 56.014 38.786
H 52.087 56.004 38.798
H 51.593 42.395 29.38
H 50.918 41.154 28.824
H 54.671 53.832 23.529
H 55.107 53.437 24.929
H 62.385 53.25 32.746
H 53.645 53.367 34.192
H 58.678 45.644 36.648
H 59.218 47.031 36.947
H 54.824 52.733 34.909
H 52.92 51.905 25.441
H 51.648 51.174 25.048
H 41.722 52.163 35.118
H 51.777 51.145 33.489
H 60.497 48.025 32.471
H 60.185 49.506 32.601
H 50.373 50.713 33.879
H 52.456 48.412 28.606
H 52.64 49.912 28.756
H 44.395 50.602 25.565
H 44.211 52.029 26.053
H 41.865 45.587 28.936
H 54.39 44.496 37.578
H 54.286 44.81 36.096
H 51.686 52.916 31.975
H 56.502 49.988 33.544
H 55.17 50.68 33.778
H 53.099 52.483 31.624
H 43.141 50.784 34.155
H 43.441 50.145 32.81
H 44.026 49.252 27.262
H 44.518 49.966 28.509
H 60.203 47.252 27.181
H 61.341 48.254 27.274
H 48.272 48.931 27.349
H 46.929 49.641 27.338
H 51.33 49.833 31.204
H 51.625 51.195 30.602
H 57.268 56.08 38.617
H 57.233 54.572 38.796
H 46.345 42.774 36.374
H 43.45 54.072 32.251
H 45.915 49.214 34.7
H 42.234 53.207 31.971
H 45.49 50.214 33.639
H 56.493 59.211 38.8
H 57.863 58.909 39.382
H 57.145 36.626 28.214
H 51.296 39.825 35.118
H 50.709 38.443 35.35
H 47.158 55.091 26.512
H 47.462 54.049 27.574
H 44.206 46.609 38.076
H 43.471 54.553 34.484
H 44.172 55.9 34.478
H 45.694 46.632 37.771
H 45.181 52.905 33.346
H 45.892 54.185 32.94
H 57.569 52.964 36.849
H 57.492 51.735 37.739
H 62.317 53.697 35.054
H 52.633 58.573 26.17
H 47.284 44.243 34.593
H 47.0 43.21 33.517
H 41.815 54.677 30.39
H 42.686 55.798 29.85
H 45.809 55.929 29.748
H 46.826 55.191 30.601
H 59.99 46.227 34.981
H 61.455 45.839 35.076
H 54.516 57.202 33.54
H 56.016 56.967 33.527
H 44.837 59.828 32.121
H 46.297 59.453 32.307
H 50.649 43.047 36.469
H 60.51 46.007 30.424
H 61.04 46.88 29.299
H 48.285 60.189 29.899
H 61.25 51.289 35.07
H 61.375 51.229 36.583
H 49.543 60.183 30.751
H 51.524 44.238 36.821
H 58.65 46.475 32.313
H 58.093 47.781 32.852
H 50.14 41.675 34.826
H 48.653 41.374 34.751
H 56.808 55.354 40.812
H 58.306 55.107 40.775
H 55.732 59.148 33.549
H 57.0 59.765 34.112
H 62.752 50.101 27.841
H 62.175 51.498 27.987
H 47.736 45.464 31.719
H 46.405 44.749 31.569
H 47.59 54.415 34.97
H 46.692 53.277 35.423
H 65.84 48.064 36.436
H 66.272 48.343 35.007
H 57.811 46.017 34.294
H 56.917 44.788 34.298
H 44.201 51.511 30.088
H 44.008 51.868 31.552
H 43.773 58.237 34.915
H 45.09 58.034 34.185
H 50.528 47.547 34.998
H 49.212 46.859 34.682
H 47.855 40.472 36.593
H 46.603 39.614 36.554
H 58.313 58.165 36.854
H 47.557 52.831 33.426
H 49.01 52.39 33.416
H 45.204 47.131 34.858
H 44.993 45.627 34.845
H 50.287 43.511 31.541
H 51.717 43.896 31.206
H 58.793 38.927 29.375
H 57.925 39.645 28.358
H 47.607 57.156 40.645
H 42.104 53.933 27.715
H 43.254 54.898 27.486
H 56.865 49.026 42.921
H 60.093 53.59 25.836
H 59.57 52.185 26.077
H 62.289 48.784 29.566
H 62.798 49.116 30.957
H 52.555 45.927 31.089
H 53.538 46.594 30.143
H 43.073 41.431 34.0
H 51.821 55.32 23.514
H 57.96 54.601 27.139
H 57.456 47.877 42.123
H 58.173 45.031 39.498
H 59.501 45.723 39.244
H 56.875 58.73 28.91
H 57.161 57.238 28.906
H 42.046 49.363 25.647
H 42.225 50.861 25.816
H 65.238 48.935 29.721
H 64.686 50.138 30.467
H 39.46 53.211 29.567
H 53.916 47.26 37.731
H 52.753 48.198 38.0
H 57.893 57.169 31.516
H 56.934 56.208 30.837
H 42.414 56.625 36.483
H 42.009 55.17 36.325
H 45.014 43.04 31.893
H 44.538 43.074 33.335
H 48.728 39.047 34.6
H 59.381 55.956 29.977
H 60.509 56.959 30.143
H 57.976 47.746 25.142
H 40.903 47.07 31.405
H 41.992 47.256 30.363
H 51.963 54.573 35.591
H 50.985 55.7 35.311
H 44.719 54.05 30.095
H 43.684 53.44 29.165
H 47.943 40.065 29.57
H 51.567 40.729 33.131
H 51.717 41.972 32.272
H 60.83 42.447 35.455
H 59.477 41.782 35.643
H 44.521 43.712 29.147
H 44.499 42.212 29.385
H 49.428 52.561 25.218
H 49.639 51.245 25.946
H 50.448 43.264 26.84
H 50.682 42.154 25.831
H 48.814 41.209 30.06
H 42.712 48.795 28.966
H 41.261 49.143 29.248
H 56.059 41.682 26.245
H 59.811 49.149 28.682
H 58.443 49.745 28.959
H 41.967 43.302 33.416
H 54.623 41.719 26.737
H 58.859 51.368 36.055
H 58.991 49.856 36.034
H 42.759 41.648 31.801
H 43.388 57.548 28.627
H 44.327 58.717 28.384
H 53.651 59.689 26.324
H 53.476 58.957 38.574
H 45.092 56.417 25.406
H 47.015 57.312 32.772
H 45.985 56.297 32.307
H 47.995 56.14 28.255
H 47.433 57.19 27.313
H 47.396 41.767 38.64
H 41.289 49.984 35.468
H 48.634 42.625 38.447
H 53.358 59.364 41.048
H 50.743 52.927 38.925
H 50.491 53.277 29.358
H 51.204 53.837 37.8
H 50.785 54.601 28.675
H 49.201 44.623 33.129
H 50.345 43.905 33.824
H 42.733 44.467 34.018
H 54.105 54.843 26.777
H 53.029 53.793 26.565
H 59.941 55.413 35.061
H 55.474 42.056 30.321
H 54.938 42.835 31.509
H 54.106 55.098 29.226
H 53.015 56.152 29.295
H 53.219 54.905 31.561
H 52.452 54.267 30.415
H 48.498 46.796 23.639
H 49.258 45.76 22.829
H 51.812 55.815 26.419
H 40.927 52.874 29.366
H 51.737 56.783 25.251
H 64.578 45.354 33.495
H 65.616 46.459 33.579
H 51.911 57.313 36.485
H 52.664 58.63 36.555
H 58.844 53.532 34.75
H 59.828 53.002 33.722
H 53.664 46.791 34.649
H 53.004 46.37 33.347
H 49.718 52.325 31.185
H 49.549 50.962 31.832
H 44.415 46.302 25.875
H 44.994 47.695 26.044
H 61.114 44.489 27.643
H 59.517 42.169 39.515
H 60.501 41.013 39.542
H 48.614 59.083 37.436
H 46.911 51.768 25.101
H 47.33 53.195 25.408
H 59.744 50.716 39.572
H 60.353 39.994 30.813
H 58.902 40.087 31.251
H 59.2 49.505 40.31
H 47.679 60.212 37.833
H 48.844 44.269 28.154
H 48.764 42.754 28.226
H 53.716 54.235 43.438
H 53.656 55.295 42.352
H 60.613 45.028 41.273
H 60.141 43.6 41.066
H 56.724 38.148 29.799
H 56.486 39.493 30.462
H 50.535 54.855 32.847
H 41.792 46.543 35.751
H 50.379 53.98 34.078
H 48.493 40.315 32.415
H 48.556 41.821 32.232
H 54.16 41.795 33.428
H 55.673 41.745 33.3
H 43.853 42.287 36.108
H 47.777 38.067 31.583
H 46.67 38.849 30.896
H 62.053 55.235 30.271
H 51.576 49.466 35.249
H 52.97 48.864 35.275
H 43.706 43.789 35.935
H 63.616 51.584 33.496
H 53.913 56.847 24.836
H 54.072 55.951 23.62
H 63.753 47.876 33.399
H 63.142 47.289 34.659
H 47.494 51.871 39.896
H 48.536 52.391 38.921
H 48.721 56.157 31.944
H 48.452 54.663 31.989
H 50.058 57.37 27.694
H 49.453 58.683 28.159
H 49.386 46.896 31.974
H 58.461 50.26 31.426
H 57.243 49.353 31.41
H 50.014 45.92 30.994
H 43.838 46.062 30.279
H 60.879 44.698 32.153
H 47.569 48.648 21.594
H 61.448 45.934 32.826
H 47.347 50.113 21.263
H 54.283 45.711 26.065
H 46.605 42.136 28.021
H 47.455 41.005 27.47
H 44.533 46.048 31.63
H 51.193 58.913 39.263
H 51.533 57.691 40.098
H 46.424 51.79 27.409
H 45.839 52.344 28.696
H 58.001 42.606 26.709
H 58.305 44.089 26.592
H 57.059 42.505 40.36
H 50.371 58.184 30.353
H 50.553 56.687 30.536
H 49.061 38.865 28.104
H 50.121 39.593 27.296
H 64.126 47.37 30.794
H 64.597 45.939 30.991
H 55.524 37.566 32.801
H 56.797 38.114 33.423
H 45.734 58.568 38.186
H 47.12 56.892 38.516
H 45.99 55.892 38.693
H 44.485 59.432 38.177
H 61.607 51.156 30.506
H 60.101 51.23 30.326
H 46.669 46.07 29.324
H 46.541 44.558 29.38
H 46.243 58.371 30.251
H 47.538 57.601 30.065
H 54.016 38.605 31.582
H 54.388 39.94 30.962
H 50.981 48.114 32.878
H 52.423 48.501 32.599
H 49.862 50.579 40.627
H 48.836 50.254 41.698
H 54.092 44.364 28.644
H 42.414 55.966 33.156
H 41.198 55.213 32.645
H 53.998 42.854 28.516
H 57.15 40.991 40.448
H 57.934 50.449 25.892
H 59.243 49.681 25.849
H 59.373 51.989 28.26
H 57.96 51.994 27.704
H 41.867 45.079 31.196
H 43.002 44.074 31.285
H 48.591 54.439 29.524
H 47.55 53.341 29.656
H 46.469 61.675 32.748
H 45.41 61.908 31.684
H 52.533 57.703 22.304
H 48.746 55.252 36.686
H 49.016 53.993 37.491
H 47.368 49.932 36.188
H 47.853 51.308 36.61
H 49.862 40.75 37.508
H 63.141 43.774 34.599
H 53.748 60.861 28.183
H 50.812 39.666 37.987
H 54.954 42.365 36.287
H 60.985 59.058 29.68
H 42.06 51.432 30.587
H 42.026 50.01 31.12
H 55.563 40.982 36.44
H 57.057 52.109 33.354
H 58.388 51.38 33.318
H 45.83 41.287 33.447
H 45.565 39.953 32.77
H 50.037 38.419 31.77
H 55.895 56.269 26.621
H 55.823 57.549 25.806
H 50.628 52.948 23.414
H 52.133 53.147 23.361
H 61.651 46.72 40.324
H 60.583 47.797 40.408
H 48.822 46.358 28.975
H 48.088 46.643 27.677
H 46.184 41.467 30.895
H 47.172 42.603 30.695
H 53.073 53.784 39.983
H 51.796 53.884 40.799
H 47.109 55.279 24.321
H 47.533 56.652 24.81
H 55.832 46.495 33.431
H 55.591 47.986 33.589
H 53.483 51.922 29.088
H 52.107 52.079 28.464
H 56.54 47.509 30.429
H 57.293 47.728 29.129
H 47.173 47.468 25.837
H 48.688 47.476 25.723
H 53.422 55.817 37.055
H 53.335 54.495 37.797
H 51.078 46.048 25.283
H 42.439 61.713 31.606
H 43.108 61.313 32.91
H 62.389 44.481 36.926
H 61.213 43.592 37.294
H 51.501 38.866 29.602
H 52.596 39.918 29.639
H 46.015 52.735 31.29
H 46.391 51.511 32.108
H 56.05 50.338 39.582
H 56.093 50.483 41.093
H 46.869 54.091 40.701
H 53.379 40.863 36.687
H 51.942 41.295 36.917
H 50.069 49.58 22.231
H 48.17 54.41 39.984
H 61.282 48.21 36.965
H 60.556 49.419 37.527
H 46.897 49.637 29.538
H 47.823 49.939 30.703
H 55.005 57.599 28.657
H 54.247 57.597 27.341
H 53.13 51.332 35.302
H 52.026 52.374 35.303
H 42.647 54.285 38.764
H 43.509 55.471 38.366
H 59.713 53.832 39.609
H 58.821 52.836 40.33
H 44.456 52.035 38.25
H 44.765 53.072 39.316
H 50.252 50.801 37.439
H 49.947 51.977 36.528
H 46.03 61.192 34.875
H 57.751 44.791 30.355
H 58.846 44.86 29.305
H 42.982 48.102 32.137
H 42.252 47.607 33.373
H 63.749 47.196 39.78
H 62.991 48.502 39.941
H 49.172 51.166 28.627
H 49.445 49.795 29.22
H 56.334 50.327 27.4
H 56.476 48.815 27.399
H 55.844 50.188 25.258
H 55.79 48.976 24.344
H 43.898 56.461 31.578
H 44.254 57.898 31.239
H 60.536 55.62 38.575
H 59.426 55.398 37.562
H 58.493 42.296 37.572
H 57.11 42.923 37.56
H 57.491 41.793 32.003
H 58.697 41.578 32.9
H 49.121 58.268 25.113
H 50.307 58.846 25.865
H 45.669 53.765 37.434
H 45.086 55.048 36.869
H 58.898 46.42 41.316
H 39.5 52.294 32.779
H 51.45 47.744 30.522
H 50.468 47.849 29.369
H 59.695 53.099 37.401
H 47.921 45.427 25.495
H 47.163 44.402 26.321
H 43.392 60.348 35.645
H 56.473 51.032 35.534
H 56.839 49.565 35.677
H 38.647 50.012 31.184
H 39.782 49.003 31.163
H 42.917 59.302 36.639
H 49.037 49.627 24.564
H 48.41 48.755 32.888
H 48.244 48.985 34.38
H 52.94 58.908 28.923
H 54.799 56.23 40.574
H 54.346 56.113 39.129
H 51.649 58.827 28.128
H 54.451 52.605 37.109
H 55.486 53.668 36.787
H 53.486 49.532 30.855
H 54.326 48.387 31.395
H 49.054 44.705 37.419
H 49.595 44.943 36.021
H 60.96 54.281 27.736
H 61.033 53.292 28.886
H 65.728 48.731 32.865
H 47.851 49.776 23.626
H 55.118 54.032 41.3
H 56.186 54.101 33.718
H 54.985 55.028 33.659
H 58.037 54.856 32.178
H 57.405 54.055 31.052
H 55.042 49.189 37.006
H 53.813 50.075 37.102
H 62.361 50.531 39.103
H 56.147 51.587 29.748
H 55.732 51.547 31.208
H 61.654 49.027 34.861
H 62.271 49.856 33.748
H 55.772 52.959 40.447
H 45.723 49.277 31.369
H 46.085 47.803 31.397
H 47.409 59.36 27.676
H 46.127 60.03 28.137
