163
xyz format
O 42.153 30.762 30.427
O 43.478 37.536 32.884
O 48.185 35.974 28.931
O 48.09 32.523 34.072
O 46.433 36.815 32.932
O 42.524 34.909 32.465
O 49.76 32.907 36.399
O 45.344 31.758 35.142
O 50.527 39.15 25.125
O 46.529 42.063 30.219
O 53.874 28.182 34.482
O 57.072 33.539 31.857
O 52.045 39.375 30.216
O 50.118 37.717 31.113
O 45.521 29.325 37.697
O 51.575 36.828 28.335
O 41.526 35.03 30.015
O 49.397 39.75 27.915
O 51.147 34.915 30.093
O 55.405 31.812 29.065
O 55.162 34.673 29.893
O 54.054 28.79 31.82
O 58.09 35.819 32.365
O 47.96 41.069 32.132
O 46.725 33.153 29.228
O 43.138 32.651 34.92
O 46.728 32.307 32.048
O 54.612 33.24 33.528
O 44.487 28.948 33.124
O 55.965 34.98 26.51
O 47.795 28.967 36.092
O 51.857 36.584 25.087
O 43.707 32.264 28.121
O 44.329 29.101 35.832
O 49.978 42.608 26.311
O 48.183 38.292 34.342
O 48.646 40.269 30.2
O 51.196 29.812 33.687
O 50.811 39.306 35.772
O 49.004 35.151 31.673
O 49.714 30.505 29.533
O 53.813 34.429 26.364
O 53.987 37.131 25.152
O 43.35 36.09 35.489
O 49.626 32.68 30.746
O 42.659 32.133 32.256
O 49.57 30.11 35.451
O 50.742 28.711 31.832
O 44.661 39.923 34.84
O 51.156 42.059 28.588
O 51.379 33.053 28.417
O 46.743 41.184 28.097
O 47.799 36.232 36.156
O 44.234 33.826 30.943
O 54.949 31.345 31.683
O 41.868 29.168 31.976
O 49.833 37.065 33.547
O 52.134 35.937 34.778
O 46.994 38.6 31.771
O 46.208 40.407 33.329
O 44.76 30.019 31.222
O 57.972 36.134 28.287
O 46.121 34.438 36.228
H 51.593 42.395 29.38
H 50.918 41.154 28.824
H 46.728 33.729 35.982
H 45.992 34.926 35.406
H 51.446 29.172 34.365
H 52.002 29.924 33.168
H 50.709 38.443 35.35
H 54.813 36.69 25.387
H 54.24 37.722 24.431
H 44.083 35.898 34.891
H 43.312 31.797 32.883
H 41.847 32.18 32.775
H 50.011 33.116 31.516
H 48.713 32.992 30.738
H 48.853 30.728 29.908
H 49.622 30.73 28.598
H 49.847 35.341 32.104
H 48.735 36.003 31.309
H 45.288 28.504 32.819
H 43.841 28.234 33.19
H 52.707 36.655 35.077
H 46.628 33.055 31.447
H 46.819 31.548 31.458
H 52.046 35.375 35.558
H 42.51 33.367 35.077
H 43.318 32.305 35.803
H 44.368 31.779 28.631
H 43.098 32.596 28.793
H 47.322 38.686 34.153
H 48.728 39.047 34.6
H 43.968 29.666 35.138
H 44.548 28.282 35.371
H 47.943 40.065 29.57
H 55.038 33.313 32.665
H 48.814 41.209 30.06
H 50.065 29.532 36.044
H 49.215 30.79 36.038
H 51.065 27.81 31.709
H 49.807 28.593 32.042
H 51.755 37.098 25.898
H 52.239 35.751 25.39
H 48.407 36.911 36.473
H 56.639 35.587 26.18
H 56.4 34.53 27.244
H 46.969 34.082 29.32
H 47.165 32.88 28.414
H 54.998 34.016 30.58
H 55.717 35.33 30.331
H 48.493 40.315 32.415
H 48.556 41.821 32.232
H 47.777 38.067 31.583
H 46.67 38.849 30.896
H 51.203 32.68 27.544
H 50.969 32.423 29.022
H 45.827 30.939 35.308
H 45.467 31.91 34.197
H 47.455 41.005 27.47
H 56.002 31.863 29.822
H 53.543 27.982 31.682
H 49.061 38.865 28.104
H 50.121 39.593 27.296
H 50.378 35.052 29.525
H 51.894 34.977 29.485
H 42.298 35.153 29.449
H 50.79 37.047 33.426
H 49.658 36.298 34.107
H 52.427 37.28 28.391
H 50.987 37.494 27.959
H 45.83 41.287 33.447
H 45.565 39.953 32.77
H 50.037 38.419 31.77
H 49.607 38.044 30.362
H 44.711 29.438 30.452
H 44.809 30.903 30.838
H 46.184 41.467 30.895
H 51.501 38.866 29.602
H 52.596 39.918 29.639
H 53.632 34.943 27.16
H 53.023 33.885 26.257
H 44.487 33.043 30.439
H 44.538 33.631 31.838
H 43.587 37.82 33.8
H 42.632 37.071 32.887
H 48.61 36.834 28.819
H 47.625 35.893 28.149
H 48.533 33.204 34.594
H 47.766 31.9 34.735
H 49.562 33.672 36.953
H 50.649 33.087 36.068
H 41.888 29.995 32.474
H 51.401 38.985 24.749
H 50.094 38.289 25.083
H 43.124 34.662 33.181
H 41.649 34.701 32.818
H 57.098 33.439 30.897
H 57.731 32.907 32.171
H 41.45 31.148 29.891
H 42.883 30.651 29.805
H 45.945 36.067 32.566
H 45.742 37.399 33.267
