345
xyz format
Na 35.533 36.977 44.303
O 32.33 43.493 36.27
O 43.478 37.536 32.884
O 30.334 32.689 40.859
O 32.884 35.448 43.982
O 42.524 34.909 32.465
O 40.733 34.076 46.972
O 34.624 42.468 47.144
O 39.314 31.651 33.129
O 34.648 36.102 33.564
O 32.586 46.087 34.72
O 35.646 45.563 28.761
O 40.376 33.695 31.332
O 35.8 40.266 38.185
O 34.909 40.162 40.192
O 38.584 33.255 44.327
O 30.409 37.825 43.689
O 37.329 43.272 36.635
O 36.424 39.783 33.249
O 36.242 36.632 49.531
O 35.998 33.114 43.272
O 31.622 39.946 31.332
O 38.961 38.536 35.998
O 37.747 40.213 34.957
O 32.099 40.922 43.526
O 37.205 34.002 50.022
O 34.715 43.491 26.406
O 29.983 43.413 31.089
O 34.09 32.312 35.869
O 31.358 39.252 36.585
O 31.487 44.811 29.285
O 38.904 37.534 26.455
O 29.147 42.049 40.598
O 36.8 31.274 41.013
O 32.193 34.817 40.454
O 41.526 35.03 30.015
O 35.692 41.76 34.177
O 34.114 35.713 46.515
O 37.155 38.97 40.989
O 31.269 44.941 32.984
O 35.142 40.518 27.148
O 36.542 34.821 41.955
O 35.244 44.44 37.319
O 32.414 33.011 39.22
O 39.199 39.015 43.964
O 35.47 37.49 31.572
O 34.058 37.958 34.719
O 33.308 41.152 41.522
O 34.491 30.77 46.735
O 43.138 32.651 34.92
O 40.673 37.651 44.885
O 33.06 37.526 31.225
O 34.368 33.378 45.237
O 32.668 41.843 39.067
O 39.744 33.042 36.293
O 35.399 33.823 37.601
O 31.158 37.572 45.994
O 40.3 36.05 40.7
O 38.41 35.733 29.344
O 35.259 30.555 38.107
O 27.074 40.563 39.312
O 37.52 35.164 45.707
O 34.695 40.461 31.599
O 38.483 38.741 32.313
O 40.324 42.635 36.016
O 33.894 43.538 40.384
O 38.552 36.003 47.437
O 27.125 44.516 37.501
O 38.251 41.413 37.661
O 39.485 34.394 34.115
O 41.28 38.824 37.499
O 29.216 37.649 35.109
O 36.516 44.034 34.174
O 37.816 35.908 32.996
O 38.78 36.562 42.502
O 37.055 42.936 31.153
O 34.693 38.832 29.193
O 38.04 44.595 39.198
O 34.204 35.282 49.475
O 37.781 33.021 39.052
O 33.268 38.49 45.026
O 33.187 42.709 33.562
O 36.101 39.456 43.033
O 32.701 38.598 42.214
O 40.877 36.138 36.382
O 34.922 43.384 29.488
O 43.35 36.09 35.489
O 39.52 41.949 40.861
O 34.01 39.061 36.96
O 35.6 37.071 36.932
O 33.465 40.527 35.041
O 33.293 43.719 31.61
O 28.235 43.314 33.495
O 38.189 41.608 43.127
O 30.186 34.974 43.173
O 28.841 40.928 42.861
O 30.19 38.593 40.584
O 30.272 42.39 37.595
O 40.346 41.032 38.222
O 32.083 36.132 34.879
O 35.865 45.491 31.816
O 37.132 45.325 27.148
O 35.964 42.155 43.105
O 39.405 45.462 29.705
O 31.743 32.566 46.89
O 38.868 36.834 38.438
O 37.144 31.56 33.516
O 40.099 40.717 33.761
O 29.133 42.04 35.199
O 37.667 39.729 27.141
O 38.443 43.813 32.62
O 33.21 36.684 39.705
O 31.657 38.845 38.964
O 33.145 46.774 29.52
O 40.063 36.819 33.649
O 32.41 38.728 47.709
O 27.513 37.816 39.604
O 29.34 39.66 37.989
O 32.384 41.162 47.373
O 36.37 37.072 29.131
O 34.308 33.121 47.957
O 33.689 45.502 38.67
O 40.67 37.559 30.971
O 30.572 34.36 46.412
O 34.415 30.797 42.537
O 41.464 36.253 46.761
O 36.144 34.572 47.31
O 34.641 36.168 42.457
O 27.986 38.049 41.74
O 30.609 45.454 35.664
H 29.725 41.82 38.149
H 30.544 41.812 36.871
H 30.127 39.408 41.097
H 30.529 37.949 41.217
H 36.003 42.399 44.038
H 35.114 45.976 31.453
H 36.352 45.204 31.034
H 37.713 43.796 38.768
H 40.265 34.53 34.667
H 40.624 38.31 37.986
H 42.116 38.58 37.913
H 32.388 36.743 35.561
H 31.134 36.3 34.827
H 38.77 34.277 34.753
H 40.529 41.777 38.809
H 40.191 40.296 38.827
H 33.859 36.734 42.482
H 35.137 36.496 41.696
H 28.923 40.134 43.405
H 28.492 41.589 43.472
H 36.187 37.673 36.456
H 35.808 37.235 37.86
H 32.933 44.123 30.811
H 34.227 43.963 31.59
H 40.498 38.324 31.534
H 40.862 36.851 31.598
H 38.213 40.449 37.7
H 30.743 35.298 46.261
H 39.492 35.856 47.604
H 38.142 35.865 48.299
H 33.732 40.652 34.122
H 32.668 41.065 35.123
H 37.475 41.694 38.161
H 34.199 43.833 29.034
H 34.758 42.449 29.313
H 38.043 33.896 38.739
H 36.831 33.105 39.198
H 42.577 35.751 35.021
H 38.719 41.813 40.338
H 33.569 38.245 37.226
H 33.398 39.754 37.237
H 33.569 38.85 41.876
H 32.138 39.348 41.985
H 41.517 36.814 36.638
H 40.701 35.665 37.204
H 36.187 39.043 43.901
H 35.35 40.053 43.136
H 29.441 34.386 43.349
H 30.111 35.65 43.858
H 33.747 38.3 44.21
H 32.669 39.206 44.78
H 32.577 43.399 33.85
H 34.055 43.126 33.635
H 40.661 37.531 33.908
H 39.586 36.613 34.463
H 37.532 43.206 30.359
H 36.363 42.352 30.818
H 27.498 43.643 37.328
H 42.51 33.367 35.077
H 33.14 36.765 31.814
H 32.962 38.273 31.829
H 39.239 36.318 43.315
H 37.887 36.777 42.798
H 37.057 36.497 32.899
H 38.16 35.827 32.098
H 29.306 37.085 35.888
H 28.987 38.512 35.477
H 32.229 38.867 39.741
H 36.076 34.215 37.036
H 35.504 32.874 37.459
H 32.851 40.944 39.365
H 33.541 33.329 45.733
H 34.088 33.638 44.35
H 33.516 42.147 38.722
H 35.723 44.247 34.681
H 36.182 43.88 33.281
H 31.8 37.964 38.598
H 39.473 33.244 37.197
H 40.704 33.139 36.314
H 40.574 41.721 35.834
H 39.373 42.586 36.174
H 39.101 43.692 31.924
H 33.705 37.318 40.238
H 33.834 36.426 39.016
H 35.446 39.414 29.031
H 38.05 44.671 32.418
H 26.89 40.045 40.105
H 27.108 41.472 39.634
H 37.725 40.989 42.55
H 28.045 43.861 32.723
H 28.597 42.503 33.117
H 34.579 43.721 41.039
H 33.075 43.562 40.895
H 33.928 39.408 29.075
H 38.02 39.546 26.261
H 38.343 38.266 33.141
H 38.145 38.135 31.641
H 31.995 37.15 46.223
H 30.613 37.442 46.781
H 40.984 35.817 40.059
H 39.633 35.362 40.583
H 34.73 40.704 30.665
H 34.552 41.302 32.05
H 36.88 39.171 27.193
H 38.17 35.354 45.019
H 36.675 35.372 45.288
H 38.656 36.467 29.921
H 37.993 35.101 29.942
H 34.68 30.009 37.561
H 38.058 37.253 38.12
H 38.754 35.906 38.2
H 33.766 38.329 33.877
H 32.425 41.532 41.439
H 33.798 41.816 42.023
H 34.802 38.519 34.971
H 35.165 36.814 30.954
H 35.782 38.201 30.998
H 37.277 35.126 41.409
H 36.02 34.276 41.353
H 33.412 45.846 29.53
H 32.967 33.562 38.652
H 32.293 32.203 38.707
H 33.37 38.796 47.629
H 32.285 38.076 48.409
H 40.581 40.135 33.16
H 39.691 41.366 33.174
H 29.791 42.721 35.014
H 28.455 42.508 35.703
H 34.913 43.577 37.04
H 34.736 45.064 36.786
H 31.092 45.958 36.331
H 30.423 44.614 36.101
H 37.426 39.846 40.688
H 37.912 38.41 40.776
H 35.545 41.218 26.618
H 34.408 40.961 27.592
H 31.727 45.315 32.221
H 30.351 44.878 32.692
H 40.912 35.712 29.717
H 35.667 41.239 34.99
H 36.634 41.845 33.988
H 33.22 35.352 46.548
H 34.378 35.59 45.595
H 31.803 34.434 41.25
H 33.138 34.657 40.562
H 30.813 38.465 36.704
H 31.253 39.464 35.649
H 39.211 38.641 43.074
H 38.346 39.465 44.013
H 29.5 42.44 41.407
H 29.843 41.444 40.313
H 31.178 45.424 28.606
H 31.138 45.183 30.105
H 38.265 37.461 27.175
H 39.497 36.785 26.597
H 29.484 42.587 31.105
H 29.357 44.053 30.729
H 28.04 39.011 41.67
H 27.622 37.904 42.622
H 33.486 32.669 35.206
H 34.683 31.747 35.358
H 34.079 43.049 26.982
H 35.383 43.826 27.017
H 36.961 37.803 28.913
H 36.513 36.439 28.417
H 35.021 39.206 40.262
H 35.339 40.502 40.986
H 27.026 37.047 39.284
H 28.438 37.558 39.509
H 28.498 39.89 37.578
H 29.122 39.57 38.925
H 38.388 40.667 35.518
H 37.176 39.754 35.585
H 35.739 35.222 47.898
H 36.543 33.934 47.913
H 36.423 32.251 43.351
H 36.461 33.658 43.921
H 32.488 41.693 43.956
H 38.465 37.708 36.006
H 39.879 38.252 35.902
H 31.222 40.855 43.924
H 33.873 45.615 39.611
H 32.736 45.639 38.605
H 36.036 39.422 37.781
H 35.35 40.742 37.476
H 38.317 33.166 45.25
H 39.546 33.326 44.373
H 29.455 37.845 43.838
H 30.648 38.756 43.607
H 37.16 42.566 35.999
H 37.606 44.015 36.085
H 35.487 37.056 49.103
H 36.938 37.299 49.483
H 35.811 39.058 33.079
H 36.715 40.05 32.368
H 39.546 33.842 30.861
H 35.111 45.781 27.987
H 35.562 46.342 29.325
H 32.172 35.584 44.62
H 32.473 34.916 43.29
H 42.632 37.071 32.887
H 29.893 33.153 41.581
H 30.855 32.011 41.307
H 35.068 35.663 34.314
H 34.99 35.625 32.798
H 31.993 46.634 34.189
H 33.304 45.87 34.112
H 39.104 32.258 32.408
H 39.691 32.224 33.809
H 41.649 34.701 32.818
H 31.619 40.824 30.931
H 30.721 39.628 31.194
H 32.307 43.099 37.15
H 32.673 44.382 36.425
H 34.381 41.704 46.606
