100
xyz format
Na 36.045 52.744 54.029
O 36.137 54.707 47.034
O 39.083 52.778 54.927
O 35.998 54.064 51.222
O 38.11 53.8 52.342
O 38.685 57.888 54.719
O 36.685 59.221 51.626
O 39.375 60.307 55.966
O 43.014 57.352 50.28
O 38.696 57.437 57.182
O 39.834 55.328 46.991
O 42.458 57.269 53.963
O 31.879 55.375 48.019
O 33.429 56.825 48.595
O 33.453 54.701 51.781
O 35.803 57.681 53.654
O 40.293 57.193 52.427
O 42.88 56.545 56.125
O 36.032 56.502 49.186
O 38.01 56.638 51.62
O 36.959 55.005 57.413
O 33.56 58.405 51.13
O 38.568 53.967 50.198
O 44.112 57.961 52.243
O 34.066 53.885 49.408
O 36.446 54.914 54.061
O 34.279 58.0 56.305
O 35.492 58.963 47.841
O 41.558 54.762 51.557
O 41.164 55.004 53.881
O 40.52 56.216 56.62
O 33.372 60.588 52.768
O 38.803 56.633 44.769
O 40.689 60.948 52.072
O 37.87 56.507 47.514
H 36.12 52.629 56.226
H 37.253 55.153 54.533
H 35.792 54.81 54.764
H 42.386 54.555 52.01
H 41.371 53.965 51.047
H 35.941 59.571 48.441
H 35.045 58.346 48.433
H 31.593 59.294 52.022
H 44.606 56.163 48.773
H 31.561 59.566 50.528
H 33.829 54.491 48.694
H 44.122 58.893 51.99
H 44.404 57.97 53.163
H 40.145 58.063 52.036
H 40.361 56.607 51.663
H 40.875 53.387 48.981
H 39.259 53.371 50.512
H 33.817 58.675 50.24
H 36.375 55.472 56.802
H 36.172 56.566 45.245
H 32.827 57.794 50.982
H 38.015 57.433 52.167
H 38.375 56.936 50.778
H 38.878 54.239 49.325
H 36.566 57.216 49.556
H 36.083 55.808 49.856
H 42.498 57.431 56.156
H 36.804 51.284 52.575
H 33.305 60.795 51.827
H 41.656 52.63 52.774
H 35.472 55.266 47.455
H 36.415 54.11 47.739
H 32.63 54.894 51.315
H 34.117 55.202 51.29
H 40.33 55.489 53.83
H 40.095 56.43 55.779
H 41.209 54.723 54.803
H 35.786 58.569 54.032
H 35.948 57.109 54.418
H 34.105 61.673 47.955
H 32.618 57.281 48.853
H 33.839 56.592 49.437
H 31.733 55.074 48.924
H 42.181 57.907 53.293
H 42.713 56.493 53.448
H 40.419 55.745 46.347
H 40.021 55.801 47.811
H 38.937 58.316 56.863
H 34.508 57.097 46.7
H 39.561 53.435 55.449
H 36.444 53.262 50.922
H 35.897 53.928 52.173
H 38.956 58.362 53.923
H 38.244 57.1 54.377
H 39.854 60.451 55.14
H 40.119 60.256 51.714
H 37.796 56.088 46.647
H 37.837 55.765 48.13
H 38.33 52.865 52.441
H 35.764 59.128 51.899
H 36.653 59.111 50.668
H 38.881 54.256 52.7
H 33.076 57.341 53.309
H 43.334 57.919 49.567
H 42.094 57.181 50.043
