168
xyz format
Cl 61.242 67.541 41.063
O 64.212 71.388 37.674
O 62.353 69.968 37.194
O 62.6 75.297 45.88
O 63.709 72.529 40.911
O 55.71 72.65 54.97
O 58.557 68.338 40.644
O 50.752 72.257 50.495
O 60.002 66.629 37.379
O 51.937 69.553 51.704
O 61.896 75.612 52.647
O 58.364 75.563 50.245
O 59.556 70.163 37.566
O 55.8 70.436 43.067
O 54.162 71.746 44.896
O 54.567 68.535 53.18
O 59.743 73.301 51.058
O 56.78 69.591 40.979
O 52.391 73.404 45.204
O 63.121 72.389 47.352
O 53.628 73.72 48.648
O 65.593 68.66 46.358
O 54.911 71.083 38.685
O 57.623 74.74 46.43
O 54.254 72.37 50.268
O 51.26 74.535 48.122
O 59.257 71.748 44.168
O 57.402 73.198 40.103
O 65.235 70.63 41.03
O 51.35 75.601 51.898
O 61.12 72.239 45.505
O 57.823 72.214 52.872
O 52.317 76.433 49.131
O 54.31 68.004 40.168
O 56.574 72.226 51.034
O 56.691 74.124 48.591
O 61.496 69.725 39.274
O 51.514 77.722 47.032
O 59.356 75.058 43.986
O 53.935 77.88 46.843
O 65.845 73.29 49.445
O 55.027 69.354 50.173
O 58.978 69.657 53.142
O 58.988 70.621 48.589
O 56.157 66.826 39.98
O 60.835 74.397 40.674
O 56.94 69.882 51.128
O 57.965 71.691 37.41
O 58.357 70.806 46.011
O 60.253 71.74 39.196
O 50.93 71.658 47.087
O 61.195 72.648 42.534
O 62.884 73.044 50.188
O 54.32 75.359 50.973
O 56.987 77.517 49.447
O 64.889 74.256 47.703
O 60.291 76.047 46.643
O 57.024 77.2 46.115
O 53.207 72.816 52.667
O 53.652 74.914 46.798
O 58.497 76.398 53.348
H 58.082 70.935 48.7
H 58.881 69.698 48.33
H 57.793 76.989 46.659
H 58.844 68.798 53.562
H 59.938 69.75 53.111
H 54.08 72.405 52.63
H 53.147 73.149 53.571
H 54.176 69.699 49.875
H 55.593 69.437 49.395
H 61.363 71.667 46.244
H 61.584 73.065 45.693
H 56.287 76.808 46.598
H 54.199 75.697 46.938
H 54.243 74.299 46.346
H 60.173 75.099 40.662
H 61.494 74.713 41.304
H 66.773 73.438 49.227
H 65.831 72.387 49.788
H 59.986 76.905 46.961
H 59.121 75.27 44.899
H 60.205 74.606 44.067
H 60.258 75.486 47.428
H 54.737 78.285 47.196
H 54.149 77.719 45.916
H 50.702 78.027 46.608
H 51.876 77.085 46.402
H 54.526 76.226 51.343
H 54.016 74.851 51.735
H 62.899 72.215 50.683
H 63.788 73.375 50.269
H 53.076 76.696 49.667
H 51.69 76.083 49.777
H 61.913 70.167 40.024
H 61.795 68.811 39.351
H 61.827 72.163 41.989
H 60.396 72.672 41.993
H 59.195 72.653 43.837
H 59.474 71.231 43.383
H 56.351 74.74 49.252
H 56.004 72.764 51.597
H 56.973 72.866 50.432
H 51.25 75.321 47.561
H 51.05 73.816 47.514
H 58.469 72.125 53.583
H 57.28 71.42 52.955
H 53.464 71.832 50.407
H 54.836 71.794 49.756
H 57.643 74.118 48.751
H 54.796 68.653 40.692
H 63.7 69.442 50.786
H 50.689 74.995 51.542
H 51.895 75.04 52.463
H 56.792 68.977 51.429
H 57.886 70.018 51.266
H 58.284 73.087 39.728
H 56.92 73.677 39.417
H 65.031 70.162 41.849
H 65.544 69.932 40.439
H 58.39 74.212 46.684
H 57.183 74.199 45.762
H 52.484 72.985 46.068
H 51.854 74.186 45.385
H 65.18 69.258 46.993
H 53.298 74.452 49.184
H 52.904 73.081 48.661
H 55.526 71.807 38.859
H 51.601 71.407 47.734
H 62.507 72.507 48.088
H 63.627 71.605 47.599
H 60.052 72.41 38.531
H 60.957 72.143 39.721
H 57.398 69.917 41.645
H 56.913 70.188 40.232
H 57.035 71.458 37.297
H 58.272 71.855 36.51
H 54.683 72.334 45.456
H 55.532 68.494 53.166
H 60.39 74.011 50.965
H 59.545 73.052 50.147
H 56.147 69.611 43.428
H 55.181 70.146 42.385
H 58.61 70.048 45.47
H 57.662 70.458 46.584
H 59.072 70.06 38.395
H 59.377 69.341 37.092
H 59.136 68.324 39.872
H 59.149 68.135 41.379
H 50.935 72.474 49.572
H 55.59 72.083 54.198
H 58.76 76.434 50.37
H 58.498 75.126 51.096
H 57.826 75.752 53.095
H 58.537 76.321 54.31
H 65.462 74.175 46.93
H 64.019 74.435 47.325
H 56.297 77.277 48.816
H 57.727 77.783 48.888
H 61.878 74.666 52.456
H 52.542 70.306 51.698
H 63.648 72.153 37.503
H 64.306 70.975 36.806
H 62.021 75.811 45.303
H 63.383 75.14 45.338
H 63.522 71.803 40.303
H 64.069 73.219 40.34
H 61.63 69.355 37.015
H 62.022 70.814 36.868
