278
xyz format
O 44.149 52.899 62.931
O 46.743 58.154 65.405
O 46.844 56.48 58.52
O 56.971 56.456 61.233
O 51.763 62.637 59.15
O 53.002 55.234 64.948
O 53.917 56.456 60.752
O 57.683 59.812 64.423
O 51.628 50.261 61.284
O 46.638 48.271 63.479
O 52.742 58.402 61.113
O 44.167 54.986 66.099
O 58.673 53.894 65.016
O 56.811 62.889 63.154
O 42.694 60.723 64.855
O 58.789 60.565 59.902
O 50.162 51.271 64.117
O 53.377 50.61 68.82
O 46.916 62.152 63.017
O 50.273 56.49 65.264
O 53.983 66.103 58.313
O 48.834 49.165 65.159
O 46.415 52.829 62.418
O 55.685 61.72 59.188
O 56.732 52.207 62.434
O 46.198 59.249 63.505
O 50.681 58.873 68.478
O 42.951 56.566 64.066
O 46.658 55.775 68.277
O 59.031 58.313 61.513
O 50.022 63.738 63.642
O 47.762 55.844 60.986
O 46.741 61.867 59.206
O 45.974 59.007 58.176
O 52.018 58.647 64.896
O 50.232 54.354 70.041
O 57.718 56.898 58.626
O 53.947 61.025 65.406
O 58.04 61.06 61.915
O 41.962 55.848 66.992
O 47.747 51.05 66.596
O 50.958 56.351 60.074
O 55.52 58.809 59.409
O 45.239 56.254 61.474
O 52.598 57.597 66.74
O 50.512 47.683 67.878
O 60.84 55.037 65.817
O 43.588 59.374 62.572
O 55.733 57.99 66.767
O 47.72 46.648 66.743
O 51.685 50.231 66.084
O 52.387 52.503 68.297
O 48.031 50.506 62.418
O 50.187 50.649 68.236
O 48.439 47.377 69.691
O 57.376 56.165 67.525
O 49.752 61.001 56.662
O 51.03 54.17 64.199
O 54.921 60.251 61.477
O 51.598 63.565 62.036
O 44.638 62.76 65.004
O 59.125 58.062 65.249
O 49.49 62.198 59.974
O 52.653 48.776 64.577
O 55.101 56.665 63.93
O 46.335 53.033 66.722
O 47.913 59.223 59.191
O 57.436 55.951 63.873
O 53.115 65.211 60.127
O 48.129 54.732 66.158
O 48.519 59.3 62.15
O 54.676 62.598 61.772
O 47.127 53.685 69.884
O 50.746 56.652 63.12
O 49.471 54.415 62.271
O 45.228 49.707 67.897
O 54.385 50.812 64.679
O 46.112 51.616 64.297
O 53.503 61.001 62.995
O 50.688 55.217 67.009
O 47.085 56.056 64.099
O 44.794 57.466 67.488
O 51.004 59.33 59.061
O 43.422 58.873 58.018
O 57.091 64.482 58.226
O 48.321 49.478 68.137
O 53.829 62.213 57.458
O 53.091 53.181 62.031
O 54.694 55.288 67.547
O 53.123 53.116 64.344
H 52.129 53.133 62.085
H 53.251 53.64 61.197
H 46.336 53.907 67.131
H 45.528 49.141 68.618
H 46.039 53.203 65.819
H 45.566 49.269 67.106
H 54.688 57.534 63.852
H 54.74 56.172 63.182
H 54.862 63.5 62.062
H 53.745 62.626 61.52
H 57.04 55.174 64.286
H 50.709 53.372 63.76
H 50.387 54.317 64.904
H 57.327 56.644 64.537
H 45.132 57.864 68.3
H 43.866 57.732 67.471
H 60.896 61.274 61.43
H 51.321 64.048 61.247
H 44.732 62.098 65.701
H 52.31 64.107 62.398
H 54.201 60.561 60.913
H 55.709 60.383 60.936
H 43.718 62.671 64.726
H 49.066 60.042 62.438
H 48.628 58.648 62.854
H 53.496 48.777 64.106
H 52.069 49.287 64.002
H 52.781 65.661 60.913
H 53.739 64.564 60.48
H 48.672 54.344 66.856
H 48.254 54.134 65.411
H 53.816 60.174 63.381
H 52.645 60.768 62.619
H 58.999 56.021 57.068
H 42.456 53.131 66.92
H 55.066 57.341 66.513
H 47.689 46.832 67.69
H 47.936 53.024 58.534
H 55.517 58.193 67.685
H 49.54 60.181 57.126
H 48.892 61.416 56.525
H 50.975 49.674 66.427
H 51.849 50.859 66.798
H 44.113 58.684 62.997
H 44.25 59.951 62.171
H 58.666 61.308 62.607
H 57.345 60.59 62.392
H 55.78 59.535 58.829
H 55.209 58.128 58.799
H 52.356 56.733 67.096
H 53.062 58.024 67.47
H 45.201 57.013 62.069
H 45.164 55.495 62.067
H 56.289 49.89 64.065
H 60.331 54.442 66.382
H 60.843 54.591 64.96
H 49.381 47.571 69.774
H 48.024 47.986 70.314
H 49.892 51.369 67.664
H 50.293 51.071 69.098
H 48.795 50.953 62.032
H 57.642 57.08 67.372
H 56.875 55.937 66.733
H 47.756 49.887 61.731
H 52.76 53.365 68.076
H 51.286 47.681 67.301
H 51.772 52.697 69.016
H 49.81 47.325 67.322
H 47.975 51.77 65.995
H 47.706 51.479 67.461
H 47.81 49.017 67.46
H 47.689 49.599 68.857
H 48.471 46.787 64.68
H 47.453 58.6 59.766
H 48.574 59.624 59.769
H 41.632 55.233 66.326
H 42.25 56.612 66.477
H 52.388 48.014 60.687
H 51.263 56.97 59.399
H 50.005 56.303 59.927
H 54.713 60.46 65.568
H 53.483 61.031 66.252
H 56.805 56.66 58.421
H 51.012 54.683 69.576
H 49.806 53.777 69.395
H 58.019 56.181 59.198
H 53.607 47.877 67.38
H 47.327 62.528 58.816
H 46.875 61.087 58.654
H 51.203 59.034 64.551
H 52.562 58.519 64.109
H 46.091 59.436 57.319
H 45.522 58.182 57.959
H 50.546 57.573 62.911
H 46.483 58.367 63.236
H 46.372 59.794 62.728
H 50.746 56.216 62.259
H 56.523 52.441 63.347
H 55.545 62.594 59.572
H 55.856 61.904 58.256
H 57.162 51.346 62.51
H 47.66 54.478 69.748
H 51.459 59.356 68.173
H 49.229 54.859 63.093
H 48.426 56.229 61.571
H 50.511 58.241 67.769
H 47.257 56.607 60.678
H 48.646 54.008 61.978
H 51.945 60.657 56.571
H 47.777 53.006 70.101
H 50.471 62.898 63.803
H 49.421 63.539 62.913
H 58.978 57.789 60.705
H 59.606 59.05 61.272
H 61.714 54.331 62.725
H 46.214 56.092 69.074
H 47.492 56.263 68.271
H 53.704 61.341 57.853
H 52.28 57.682 61.561
H 53.38 58.708 61.769
H 43.543 56.323 63.344
H 42.813 55.736 64.539
H 43.672 56.836 60.042
H 54.276 65.184 58.258
H 46.909 52.291 61.787
H 46.466 53.72 62.05
H 49.651 48.947 64.695
H 48.306 49.622 64.493
H 46.709 61.913 63.929
H 47.038 63.109 63.053
H 52.655 53.066 65.188
H 54.031 53.32 64.598
H 50.215 57.311 65.769
H 49.35 56.245 65.12
H 53.926 55.233 68.129
H 55.322 54.667 67.937
H 52.644 50.453 69.429
H 53.284 49.907 68.165
H 51.121 51.263 64.226
H 49.829 51.122 65.01
H 56.887 59.671 64.95
H 58.147 60.517 64.891
H 54.629 57.099 60.862
H 54.378 55.609 60.706
H 54.485 51.203 65.556
H 53.451 50.946 64.473
H 44.797 55.417 66.69
H 44.674 54.84 65.291
H 58.094 60.85 59.295
H 52.26 50.244 62.014
H 51.037 50.991 61.509
H 56.728 63.626 63.771
H 56.103 62.288 63.418
H 57.933 53.29 65.153
H 58.845 53.835 64.068
H 43.367 60.056 65.039
H 42.274 60.408 64.045
H 49.271 61.524 60.63
H 49.47 63.022 60.476
H 59.206 57.152 65.562
H 59.475 58.588 65.979
H 51.215 47.025 64.427
H 45.857 58.31 65.756
H 51.185 62.225 58.496
H 47.291 58.074 66.196
H 52.314 61.907 59.461
H 50.256 64.82 59.484
H 50.923 54.36 67.388
H 50.315 55.702 67.755
H 51.358 64.682 58.448
H 43.996 53.653 62.347
H 44.304 52.166 62.322
H 46.505 56.009 64.869
H 47.144 55.139 63.8
H 57.258 57.074 61.916
H 56.33 55.894 61.688
H 45.988 56.249 58.903
H 47.384 55.696 58.678
H 43.904 59.71 57.984
H 50.295 58.805 58.668
H 50.61 60.205 59.167
H 52.863 55.369 64.002
H 53.358 56.079 65.25
H 46.386 50.807 63.847
H 45.151 51.541 64.341
H 46.337 48.663 64.308
H 41.51 58.515 63.233
H 57.067 58.557 57.334
