245
xyz format
O 51.588 31.083 47.566
O 50.95 28.337 43.547
O 55.185 25.407 42.795
O 63.502 41.26 46.724
O 49.805 28.0 47.394
O 60.264 31.615 47.188
O 57.527 39.392 44.856
O 54.953 32.002 51.887
O 49.028 39.22 42.219
O 51.808 28.999 46.82
O 60.551 33.734 49.626
O 51.196 35.963 47.241
O 55.651 41.602 42.9
O 57.742 36.64 38.365
O 48.456 35.872 42.962
O 56.87 35.399 44.55
O 51.599 39.451 40.276
O 48.445 33.465 39.636
O 52.181 38.422 42.594
O 59.052 40.635 45.899
O 53.087 40.794 50.971
O 56.982 41.707 39.823
O 60.473 36.334 47.206
O 51.48 32.473 41.063
O 51.824 37.156 49.573
O 55.129 36.91 43.964
O 50.48 34.18 45.073
O 58.427 26.082 47.382
O 56.685 35.957 49.083
O 49.299 37.749 52.394
O 52.681 27.03 38.275
O 58.4 34.241 47.166
O 53.501 41.307 42.52
O 54.735 36.665 40.538
O 51.711 31.118 44.052
O 47.945 32.418 44.203
O 56.144 35.509 52.173
O 56.956 30.53 51.335
O 58.074 36.784 40.546
O 52.748 42.888 50.036
O 54.465 34.504 47.404
O 61.435 34.115 47.557
O 55.123 28.446 40.186
O 48.537 35.954 39.136
O 55.289 33.409 42.936
O 55.036 26.209 47.893
O 59.805 41.423 48.572
O 58.887 37.503 46.227
O 58.668 39.011 49.076
O 49.786 37.1 44.85
O 56.327 38.29 51.963
O 59.266 36.379 51.227
O 53.015 37.777 52.292
O 49.399 30.812 46.976
O 46.485 33.445 45.564
O 58.103 28.478 38.252
O 49.204 29.958 42.136
O 55.014 28.877 45.193
O 60.695 40.219 43.778
O 53.489 32.314 44.844
O 53.799 31.697 38.314
O 59.949 43.914 44.681
O 58.732 32.014 45.041
O 55.609 38.781 38.286
O 56.121 33.819 37.964
O 53.516 38.54 45.515
O 53.612 39.21 48.135
O 55.254 30.614 43.803
O 56.932 33.895 50.321
O 53.658 34.319 37.575
O 55.6 28.51 49.681
O 54.877 29.222 37.498
O 46.292 38.488 41.071
O 59.477 32.586 51.539
O 54.483 37.411 49.577
O 61.191 37.962 45.881
O 57.043 40.261 49.869
O 55.686 39.05 42.203
O 47.533 29.619 44.772
O 57.6 42.914 50.605
O 56.573 27.325 45.185
O 55.573 31.175 47.996
O 55.208 24.706 45.187
O 61.704 28.221 44.85
O 58.394 41.651 42.138
O 50.61 37.205 41.65
O 57.955 28.652 46.267
O 49.269 31.904 40.95
O 59.68 39.323 41.176
O 57.554 27.156 41.065
O 50.354 29.0 50.421
O 57.525 42.61 46.168
O 56.94 40.673 47.041
O 58.877 30.145 43.394
O 55.361 32.467 39.741
H 46.615 38.773 53.24
H 54.087 39.864 48.662
H 52.735 39.184 48.539
H 53.912 37.964 46.181
H 53.486 39.403 45.946
H 55.533 39.743 38.265
H 54.9 38.482 37.703
H 58.527 32.469 45.868
H 59.141 31.189 45.329
H 56.933 43.047 46.793
H 58.375 42.6 46.627
H 59.645 43.1 44.261
H 53.294 33.171 44.446
H 53.085 32.371 45.719
H 50.785 28.831 49.574
H 61.248 40.821 44.291
H 60.665 39.419 44.317
H 50.552 29.928 50.597
H 57.996 26.376 41.424
H 57.504 27.758 41.817
H 51.435 32.043 44.034
H 52.404 31.073 43.382
H 49.836 30.31 46.277
H 49.249 31.678 46.577
H 48.783 32.128 43.821
H 59.033 39.88 40.726
H 47.797 31.798 44.928
H 52.551 38.331 51.652
H 52.309 37.266 52.707
H 56.462 34.452 37.321
H 49.625 29.38 41.488
H 49.937 30.48 42.488
H 54.472 29.544 45.633
H 54.378 28.197 44.938
H 55.764 34.377 38.667
H 55.982 32.894 42.504
H 55.441 33.255 43.877
H 54.206 34.766 46.511
H 54.999 33.712 47.265
H 55.957 35.847 51.288
H 56.984 35.924 52.404
H 56.155 38.031 51.049
H 58.441 38.08 48.96
H 58.867 39.311 48.18
H 50.337 36.391 44.496
H 50.347 37.882 44.781
H 48.163 36.193 39.993
H 54.463 31.721 37.613
H 53.851 30.793 38.648
H 55.181 27.783 40.886
H 54.667 31.45 48.187
H 56.093 31.973 48.154
H 55.637 29.187 40.53
H 56.505 26.442 44.802
H 56.844 27.877 44.441
H 58.032 26.465 46.589
H 54.874 36.839 43.035
H 55.095 37.858 44.139
H 53.57 34.239 38.533
H 51.43 34.243 44.913
H 50.133 33.812 44.251
H 56.763 30.863 50.45
H 58.506 37.463 41.08
H 48.044 29.348 43.999
H 48.046 29.282 45.516
H 54.273 36.637 50.114
H 54.008 38.129 50.014
H 53.633 27.164 38.352
H 55.588 29.423 38.12
H 57.448 34.359 47.28
H 58.66 33.719 47.934
H 49.195 37.15 51.644
H 55.114 37.355 39.979
H 54.859 35.859 40.022
H 57.272 28.008 38.108
H 47.079 34.097 45.955
H 46.25 32.874 46.306
H 53.36 40.358 42.407
H 54.746 31.224 43.254
H 55.881 30.217 43.185
H 55.955 35.762 48.482
H 57.412 36.192 48.493
H 54.96 38.828 41.606
H 56.412 39.272 41.607
H 52.039 32.992 41.655
H 51.703 31.559 41.281
H 48.351 33.855 40.513
H 61.892 37.759 45.249
H 61.572 38.657 46.431
H 60.032 35.849 47.915
H 56.568 39.522 49.47
H 57.341 39.91 50.718
H 61.322 36.583 47.591
H 57.73 34.436 50.28
H 56.703 33.753 49.394
H 58.905 33.112 52.112
H 48.764 35.235 42.304
H 47.834 36.424 42.472
H 53.085 38.213 42.859
H 51.866 39.008 43.293
H 59.987 40.51 46.103
H 59.06 41.024 45.015
H 57.267 36.254 44.34
H 56.33 35.582 45.329
H 52.5 40.556 50.243
H 53.92 41.01 50.532
H 50.739 39.196 40.631
H 52.002 38.611 40.025
H 55.721 28.518 48.723
H 56.892 36.373 38.737
H 56.012 32.904 40.305
H 55.369 31.552 40.048
H 51.804 35.761 46.518
H 50.389 36.242 46.791
H 59.86 34.4 49.73
H 55.86 40.846 43.462
H 55.516 42.324 43.527
H 52.035 28.241 46.267
H 52.585 29.114 47.381
H 57.15 40.991 40.448
H 55.523 32.522 51.307
H 56.956 38.636 45.046
H 57.521 39.447 43.893
H 59.449 31.678 47.702
H 58.959 30.146 42.432
H 58.003 29.767 43.55
H 55.935 24.57 45.808
H 54.446 24.865 45.757
H 57.029 39.712 47.046
H 57.456 40.955 47.807
H 49.317 28.62 47.95
H 54.574 25.868 43.383
H 52.29 36.446 49.113
H 50.894 36.908 49.493
H 50.166 37.357 42.493
H 57.998 37.461 46.6
H 59.065 38.45 46.164
H 49.98 36.668 41.153
H 60.517 40.788 48.719
H 60.105 41.931 47.808
H 57.92 41.433 42.951
H 61.052 28.933 44.868
H 55.101 26.572 47.001
H 51.169 30.556 48.257
H 52.053 31.773 48.054
H 51.367 28.795 42.807
H 50.529 29.046 44.049
H 48.355 31.774 41.229
H 57.833 29.594 46.094
H 58.808 28.453 45.863
