613
xyz format
Na 46.336 56.344 34.969
O 36.431 65.411 42.414
O 44.251 57.008 30.865
O 34.331 51.095 28.381
O 33.676 67.464 34.202
O 33.547 55.93 43.381
O 41.412 59.904 45.339
O 42.55 60.666 40.761
O 45.023 54.088 36.793
O 43.898 59.337 44.775
O 38.108 54.297 27.379
O 31.745 65.226 35.258
O 37.534 56.033 29.941
O 37.603 54.09 36.874
O 36.137 54.707 47.034
O 35.047 57.531 39.733
O 38.605 65.223 44.081
O 42.098 48.166 37.965
O 41.677 58.091 41.798
O 42.6 59.874 35.929
O 38.829 49.07 31.297
O 38.916 52.01 32.064
O 34.669 53.535 32.647
O 36.801 54.519 43.989
O 34.33 47.058 35.839
O 31.442 49.918 38.638
O 37.424 59.543 39.401
O 32.873 59.85 43.046
O 50.118 59.605 35.868
O 37.77 49.323 42.741
O 41.36 64.47 42.569
O 39.974 61.558 41.697
O 44.851 52.129 39.126
O 31.434 51.37 36.637
O 46.047 61.631 35.735
O 36.051 66.287 35.211
O 36.087 52.32 37.839
O 33.267 49.089 41.3
O 43.266 61.36 31.959
O 36.648 67.56 41.388
O 33.794 56.833 46.106
O 32.012 59.02 39.058
O 33.823 57.49 36.037
O 40.028 61.029 33.684
O 30.16 50.975 34.524
O 48.723 61.078 40.356
O 39.834 55.328 46.991
O 36.757 48.855 30.077
O 33.571 60.472 32.065
O 41.465 50.784 30.986
O 32.254 53.515 45.469
O 32.903 48.551 33.609
O 32.05 65.561 43.145
O 50.403 59.846 32.747
O 29.255 55.539 42.532
O 39.394 58.119 42.329
O 42.983 62.232 36.705
O 45.669 62.484 44.645
O 38.092 51.296 27.954
O 34.384 57.658 42.083
O 41.971 55.703 32.339
O 38.091 53.985 32.814
O 41.83 65.049 38.855
O 35.318 54.462 35.57
O 35.206 61.71 44.431
O 36.922 62.85 34.472
O 33.615 62.512 33.947
O 34.706 64.629 41.292
O 47.059 58.37 29.734
O 46.576 56.266 38.022
O 49.874 57.374 30.519
O 48.387 53.642 30.03
O 34.394 51.205 31.691
O 31.211 56.956 35.773
O 32.331 50.555 27.192
O 42.018 63.872 45.28
O 48.247 55.485 32.451
O 36.405 46.299 37.519
O 39.124 61.219 37.284
O 45.453 62.692 38.486
O 49.969 54.723 33.618
O 46.178 62.324 32.096
O 28.566 60.137 43.225
O 39.563 62.225 31.07
O 40.502 58.425 30.405
O 36.849 64.13 38.33
O 42.512 64.701 36.49
O 31.612 63.976 40.661
O 41.915 55.924 36.92
O 34.303 62.494 41.642
O 35.879 57.619 36.81
O 38.278 56.39 34.887
O 32.022 63.804 38.5
O 33.204 55.026 41.103
O 36.772 61.67 37.716
O 31.13 55.868 33.737
O 34.096 66.866 37.684
O 40.227 57.338 34.477
O 47.869 57.755 41.356
O 35.277 59.994 30.358
O 31.815 57.263 45.075
O 35.641 60.734 40.835
O 33.687 53.546 30.518
O 43.851 58.259 29.088
O 34.412 62.958 30.545
O 29.457 54.438 36.791
O 38.169 64.465 40.819
O 40.535 57.907 37.278
O 32.349 54.56 38.524
O 40.196 51.677 39.231
O 35.826 54.847 38.167
O 31.392 56.378 39.587
O 35.041 64.222 34.011
O 38.604 51.744 41.346
O 52.165 58.072 35.945
O 38.638 48.827 37.901
O 39.495 59.998 27.26
O 45.506 59.699 32.804
O 48.706 59.716 30.628
O 32.397 53.663 28.188
O 45.271 60.546 42.993
O 35.254 60.288 36.134
O 39.748 54.056 36.206
O 51.132 54.952 35.903
O 36.904 54.586 41.793
O 31.361 60.244 34.288
O 31.285 52.849 34.228
O 33.747 62.702 36.677
O 44.469 54.002 29.164
O 40.068 52.462 29.522
O 29.291 53.725 39.126
O 46.113 50.098 34.367
O 35.034 50.578 40.027
O 48.895 63.842 41.633
O 40.437 55.974 29.266
O 44.15 58.19 34.028
O 36.886 51.982 29.661
O 46.923 54.191 35.632
O 48.282 52.62 32.825
O 34.394 52.84 46.177
O 40.455 55.642 38.693
O 35.44 54.642 28.067
O 45.415 62.181 41.486
O 29.41 58.085 34.515
O 37.205 51.46 46.884
O 29.615 57.402 37.347
O 39.134 55.815 32.179
O 38.589 51.006 35.766
O 40.224 65.104 34.051
O 46.539 55.3 29.686
O 42.724 55.002 30.394
O 31.295 58.776 31.78
O 42.843 53.455 32.678
O 43.822 55.229 35.077
O 39.422 54.221 45.107
O 45.371 53.799 33.656
O 34.707 55.884 33.208
O 39.988 57.619 27.493
O 35.791 57.384 44.901
O 38.559 49.318 40.297
O 40.534 50.018 36.069
O 44.177 64.688 41.352
O 38.686 49.873 33.379
O 34.463 48.203 38.824
O 35.203 50.261 44.664
O 51.332 56.014 38.196
O 34.023 53.09 43.91
O 31.187 61.561 44.972
O 39.413 66.158 35.805
O 43.197 60.591 29.351
O 40.528 62.488 46.463
O 35.423 61.272 34.117
O 33.038 56.375 30.754
O 47.91 51.668 39.049
O 38.37 58.492 36.904
O 41.215 52.032 41.657
O 37.669 56.619 40.494
O 43.051 65.884 44.539
O 30.927 53.199 40.867
O 36.251 49.122 35.91
O 47.96 60.817 42.826
O 35.059 57.15 28.243
O 38.052 59.85 42.629
O 46.129 57.247 32.393
O 49.132 54.37 36.61
O 41.973 63.089 34.166
O 38.862 54.0 40.963
O 35.275 54.96 31.084
O 35.656 48.968 42.243
O 39.247 47.14 34.961
O 48.047 50.59 35.994
O 31.907 51.609 30.454
O 39.258 63.299 36.579
O 30.718 55.772 29.42
O 41.935 47.489 35.878
O 38.803 56.633 44.769
O 38.266 65.462 32.948
O 35.321 64.73 36.865
O 48.454 60.024 37.289
O 42.028 61.824 43.179
O 28.691 56.212 38.95
O 43.431 54.516 38.25
O 31.325 60.57 36.467
O 34.483 52.707 40.128
O 39.422 58.85 32.292
O 37.87 56.507 47.514
O 47.215 54.53 39.914
O 33.79 61.374 38.43
O 41.942 55.608 42.03
O 32.19 51.182 42.566
O 32.599 53.517 36.145
O 45.643 59.188 41.251
O 42.973 49.986 33.639
O 44.457 62.713 34.642
O 30.686 61.382 39.184
O 33.872 50.523 36.959
O 46.348 51.833 31.199
O 35.725 48.453 33.013
O 41.843 53.022 34.695
O 34.196 51.64 34.002
O 38.956 49.056 28.378
O 39.213 66.005 38.559
O 36.483 51.152 35.074
O 31.411 56.074 42.243
O 33.741 48.832 30.02
O 36.132 57.776 33.006
O 45.127 59.031 38.776
O 42.779 49.169 40.93
H 38.772 66.554 39.22
H 33.239 51.649 34.134
H 34.46 50.762 34.303
H 35.943 50.747 44.28
H 34.426 50.687 44.28
H 39.05 65.104 38.864
H 34.764 60.575 34.009
H 44.348 60.781 43.151
H 35.759 61.41 33.223
H 45.619 60.375 43.877
H 41.15 53.047 34.023
H 32.141 54.501 27.784
H 33.219 53.433 27.738
H 31.399 62.502 44.946
H 30.3 61.535 45.352
H 34.931 53.129 43.585
H 33.49 53.268 43.125
H 50.568 56.014 38.786
H 37.947 49.704 33.977
H 39.427 50.044 33.974
H 33.815 47.679 38.335
H 35.196 48.297 38.203
H 36.229 47.811 33.528
H 35.104 47.908 32.513
H 34.831 50.518 36.85
H 33.686 49.679 37.39
H 41.722 52.163 35.118
H 38.848 51.921 42.263
H 37.64 51.705 41.368
H 35.456 55.846 33.815
H 33.939 55.891 33.793
H 30.393 60.477 39.352
H 31.457 61.483 39.757
H 39.138 57.662 27.947
H 40.625 57.873 28.172
H 43.141 50.784 34.155
H 43.441 50.145 32.81
H 42.513 60.266 29.951
H 38.785 66.494 36.458
H 39.439 66.852 35.134
H 45.156 58.413 40.944
H 46.34 59.297 40.592
H 40.582 62.226 45.535
H 43.45 54.072 32.251
H 42.234 53.207 31.971
H 30.821 59.229 31.071
H 31.987 58.287 31.317
H 40.287 60.022 27.812
H 35.332 52.755 46.392
H 34.124 53.641 46.644
H 41.775 55.301 41.13
H 42.885 55.445 42.156
H 44.206 46.609 38.076
H 43.471 54.553 34.484
H 44.172 55.9 34.478
H 45.181 52.905 33.346
H 45.892 54.185 32.94
H 32.994 60.84 38.32
H 33.472 62.172 38.87
H 41.815 54.677 30.39
H 42.686 55.798 29.85
H 45.809 55.929 29.748
H 46.826 55.191 30.601
H 39.763 53.414 44.703
H 38.743 53.903 45.716
H 44.837 59.828 32.121
H 46.297 59.453 32.307
H 28.932 57.254 34.635
H 29.321 58.526 35.369
H 44.73 61.839 40.898
H 39.747 56.148 39.11
H 34.966 54.698 27.228
H 35.317 53.725 28.34
H 46.097 62.501 40.882
H 41.26 56.066 39.016
H 38.769 47.408 35.757
H 47.59 54.415 34.97
H 46.692 53.277 35.423
H 43.773 58.237 34.915
H 37.214 51.628 30.496
H 36.002 52.304 29.88
H 45.09 58.034 34.185
H 39.533 55.687 29.088
H 40.941 55.62 28.522
H 39.152 47.897 34.371
H 47.557 52.831 33.426
H 49.01 52.39 33.416
H 48.35 58.456 40.9
H 47.607 57.156 40.645
H 39.603 58.062 34.344
H 30.13 54.135 38.882
H 40.728 57.313 33.652
H 32.07 58.101 45.48
H 31.605 56.699 45.83
H 42.603 61.857 43.954
H 41.232 61.384 43.503
H 35.003 66.697 37.969
H 33.611 66.974 38.512
H 31.256 63.303 38.192
H 32.212 64.404 37.769
H 38.722 55.731 34.339
H 37.932 55.877 35.628
H 32.927 54.104 41.17
H 34.158 54.99 41.243
H 33.749 61.978 41.043
H 36.556 57.518 36.129
H 36.072 56.906 37.432
H 33.671 62.903 42.245
H 39.46 53.211 29.567
H 30.651 64.063 40.675
H 38.918 57.525 44.417
H 38.751 56.08 43.98
H 42.414 56.625 36.483
H 42.009 55.17 36.325
H 31.776 63.158 41.147
H 31.733 52.445 30.905
H 36.206 60.265 35.973
H 35.141 59.728 36.912
H 41.675 62.948 33.259
H 42.57 63.845 34.097
H 30.929 59.518 33.821
H 33.055 63.03 36.09
H 39.278 63.573 35.654
H 38.316 63.217 36.773
H 40.204 53.212 36.315
H 40.143 54.429 35.408
H 41.826 49.069 41.047
H 42.932 50.109 41.083
H 31.696 50.942 31.118
H 34.397 62.319 36.074
H 50.985 55.7 35.311
H 36.942 61.558 38.66
H 35.814 61.778 37.667
H 30.595 56.373 33.112
H 31.852 55.524 33.196
H 31.86 53.37 33.654
H 30.585 53.467 34.474
H 36.354 54.959 41.093
H 36.685 53.646 41.78
H 39.43 54.596 41.467
H 38.871 54.372 40.072
H 38.457 60.378 43.328
H 35.973 50.796 39.986
H 34.759 50.573 39.101
H 37.718 60.51 42.008
H 37.751 49.496 39.8
H 39.244 49.774 39.792
H 33.616 52.858 29.845
H 47.015 57.312 32.772
H 45.985 56.297 32.307
H 33.117 54.251 30.186
H 34.923 63.048 31.359
H 43.6 64.392 40.637
H 45.06 64.441 41.052
H 41.289 49.984 35.468
H 40.647 50.856 36.534
H 36.172 56.566 45.245
H 36.558 57.881 44.591
H 35.579 64.437 33.239
H 31.364 52.526 40.33
H 34.19 64.637 33.82
H 36.89 48.524 35.503
H 35.499 49.101 35.305
H 38.257 58.176 37.809
H 29.767 55.065 36.127
H 37.64 65.231 40.564
H 38.902 64.849 41.317
H 37.982 59.375 36.918
H 30.799 55.829 40.115
H 32.05 56.682 40.224
H 42.496 66.034 43.763
H 40.753 58.258 36.405
H 40.057 57.091 37.085
H 33.024 54.835 37.891
H 32.193 53.633 38.305
H 42.06 52.126 41.201
H 40.625 52.623 41.173
H 39.583 48.933 37.734
H 35.253 60.753 39.952
H 36.144 61.557 40.883
H 38.565 47.928 38.243
H 40.996 51.149 39.344
H 40.296 52.06 38.351
H 35.155 54.64 38.829
H 36.597 55.095 38.692
H 48.614 59.083 37.436
H 47.679 60.212 37.833
H 35.601 64.16 36.137
H 34.38 64.865 36.701
H 39.584 58.228 30.182
H 40.84 57.588 30.746
H 50.535 54.855 32.847
H 41.049 47.835 36.039
H 41.792 46.543 35.751
H 50.379 53.98 34.078
H 42.936 65.206 35.786
H 43.246 64.447 37.064
H 36.876 63.692 39.19
H 36.763 65.065 38.551
H 42.962 63.672 45.304
H 41.921 64.593 45.916
H 47.494 51.871 39.896
H 48.721 56.157 31.944
H 48.452 54.663 31.989
H 45.905 61.889 38.775
H 44.918 62.398 37.739
H 36.187 51.834 35.69
H 35.472 55.266 47.455
H 36.415 54.11 47.739
H 31.405 64.426 35.679
H 32.254 65.654 35.958
H 37.333 55.72 29.05
H 37.838 56.939 29.803
H 37.038 57.05 41.084
H 37.423 56.942 39.619
H 31.481 57.862 35.968
H 31.623 56.437 36.475
H 33.628 51.778 31.826
H 34.156 50.392 32.155
H 39.896 60.674 37.088
H 39.137 61.296 38.247
H 36.845 47.081 37.164
H 36.929 51.651 34.378
H 45.734 58.568 38.186
H 47.12 56.892 38.516
H 45.99 55.892 38.693
H 44.485 59.432 38.177
H 34.093 65.179 40.788
H 35.244 64.204 40.613
H 36.921 57.769 32.449
H 35.414 57.95 32.385
H 32.155 54.341 45.958
H 31.484 53.501 44.886
H 46.243 58.371 30.251
H 47.538 57.601 30.065
H 33.479 62.718 33.014
H 32.852 61.967 34.175
H 36.872 62.404 35.326
H 37.3 63.713 34.686
H 34.999 60.807 44.701
H 36.023 61.91 44.905
H 42.178 64.157 38.975
H 41.138 64.938 38.191
H 35.409 53.807 36.273
H 35.834 55.214 35.889
H 35.143 58.222 41.891
H 33.726 57.929 41.431
H 42.414 55.966 33.156
H 41.198 55.213 32.645
H 37.431 54.322 32.197
H 37.618 53.942 33.655
H 33.057 49.321 30.495
H 39.742 57.22 42.38
H 38.917 58.133 41.49
H 42.162 62.267 36.198
H 42.698 62.388 37.614
H 31.045 54.893 29.65
H 31.481 56.202 29.015
H 37.913 52.106 27.46
H 37.536 50.636 27.522
H 35.772 54.471 30.416
H 35.877 55.667 31.346
H 48.746 55.252 36.686
H 49.016 53.993 37.491
H 47.853 51.308 36.61
H 33.011 48.58 32.65
H 32.737 49.471 33.849
H 31.428 56.697 42.98
H 31.557 55.217 42.664
H 34.496 48.853 30.621
H 29.248 56.241 41.869
H 35.128 48.58 42.952
H 32.672 60.473 32.417
H 33.889 59.58 32.252
H 47.761 61.126 40.299
H 35.235 49.822 42.084
H 45.618 62.604 43.689
H 40.419 55.745 46.347
H 40.021 55.801 47.811
H 36.688 49.689 29.596
H 36.648 49.112 31.001
H 31.262 61.334 37.055
H 31.403 59.822 37.072
H 37.878 50.175 43.182
H 37.559 48.716 43.462
H 33.774 55.872 46.184
H 34.508 57.097 46.7
H 36.667 54.355 44.931
H 37.657 54.112 43.805
H 40.945 64.153 41.756
H 42.299 64.294 42.43
H 33.753 47.768 35.531
H 34.964 46.949 35.119
H 28.816 56.714 39.766
H 28.044 55.538 39.193
H 33.926 56.534 36.12
H 33.57 57.614 35.114
H 31.829 58.86 39.992
H 32.58 58.282 38.806
H 36.193 52.631 38.747
H 36.555 51.476 37.83
H 36.349 66.518 34.322
H 36.837 65.907 35.623
H 43.108 61.313 32.91
H 37.524 67.215 41.601
H 40.453 60.436 34.316
H 39.887 61.839 34.19
H 46.015 52.735 31.29
H 46.391 51.511 32.108
H 33.397 59.588 43.813
H 46.869 54.091 40.701
H 41.03 65.325 33.568
H 40.296 59.232 32.442
H 37.796 56.088 46.647
H 39.956 64.256 33.675
H 38.817 59.525 32.626
H 48.17 54.41 39.984
H 38.538 51.621 36.509
H 38.182 50.2 36.107
H 39.471 55.637 31.293
H 38.835 56.732 32.131
H 28.839 57.029 36.91
H 29.278 58.202 37.768
H 32.095 60.271 43.432
H 34.705 52.812 41.061
H 33.615 52.284 40.144
H 32.481 51.351 43.471
H 32.977 51.359 42.036
H 42.647 54.285 38.764
H 32.1 50.622 38.596
H 31.533 49.467 37.79
H 43.509 55.471 38.366
H 37.061 59.047 40.145
H 38.211 59.964 39.769
H 33.378 53.24 35.647
H 32.292 54.302 35.674
H 44.456 52.035 38.25
H 44.765 53.072 39.316
H 39.8 60.892 41.021
H 39.726 62.388 41.27
H 46.03 61.192 34.875
H 32.043 51.162 35.917
H 30.916 52.108 36.292
H 47.668 61.693 42.543
H 47.443 60.215 42.276
H 41.793 60.139 40.475
H 43.312 60.15 40.469
H 42.788 48.825 37.817
H 35.851 56.79 27.825
H 35.227 57.038 29.187
H 34.531 57.256 38.964
H 34.973 58.493 39.727
H 38.182 65.963 43.628
H 39.364 65.017 43.522
H 43.898 56.461 31.578
H 44.254 57.898 31.239
H 44.494 62.86 33.688
H 44.554 63.598 35.014
H 37.937 53.472 37.536
H 37.605 53.575 36.058
H 45.669 53.765 37.434
H 45.086 55.048 36.869
H 39.5 52.294 32.779
H 38.087 51.806 32.513
H 42.582 58.294 41.531
H 41.189 58.081 40.964
H 43.392 60.348 35.645
H 38.647 50.012 31.184
H 39.782 49.003 31.163
H 42.917 59.302 36.639
H 34.001 53.745 33.311
H 35.502 53.746 33.085
H 33.955 66.659 34.656
H 33.641 50.826 29.001
H 34.958 50.362 28.405
H 33.096 49.687 40.562
H 33.879 48.44 40.931
H 33.504 56.707 31.532
H 36.674 64.478 42.437
H 35.786 65.498 43.127
H 32.178 56.106 31.099
H 34.102 55.289 43.842
H 33.614 56.725 43.924
H 42.022 60.569 45.68
H 40.637 59.988 45.909
