60
xyz format
O 50.558 26.197 60.281
O 56.165 27.563 59.504
O 51.709 23.13 55.892
O 52.099 25.274 58.968
O 53.795 28.205 57.145
O 49.581 27.309 55.104
O 53.977 28.683 59.902
O 54.134 23.479 57.417
O 49.47 22.739 57.725
O 48.257 27.486 58.081
O 51.853 26.252 55.552
O 54.205 25.838 61.621
O 55.908 23.656 56.092
O 56.491 24.947 58.055
O 45.397 24.125 58.744
O 50.973 27.435 57.634
O 55.297 24.187 60.209
O 48.268 24.82 57.904
H 52.229 26.425 54.68
H 52.438 26.731 56.153
H 45.946 24.879 58.498
H 55.686 22.736 55.902
H 56.133 24.021 55.227
H 57.055 25.177 57.307
H 55.597 25.1 57.724
H 49.932 25.198 63.035
H 47.342 27.605 58.366
H 48.611 26.842 58.708
H 47.385 24.298 60.423
H 48.208 25.551 60.669
H 54.07 26.722 61.257
H 54.855 25.974 62.321
H 50.592 27.822 58.433
H 50.419 26.663 57.467
H 54.758 24.838 59.741
H 54.981 23.341 59.867
H 58.387 27.502 59.654
H 58.611 26.244 58.833
H 50.28 22.231 57.854
H 49.485 22.959 56.785
H 57.899 23.574 53.994
H 53.419 23.354 58.054
H 53.8 24.17 56.831
H 50.311 27.654 54.574
H 55.636 28.504 61.421
H 54.331 29.329 59.278
H 53.492 28.065 59.341
H 54.505 28.742 56.771
H 54.212 27.348 57.296
H 49.973 26.864 60.66
H 50.792 25.642 61.036
H 52.303 25.259 58.024
H 52.515 26.087 59.28
H 52.421 22.531 56.148
H 51.577 23.678 56.676
H 52.2 29.777 56.994
H 47.744 24.134 57.47
H 48.713 25.265 57.172
H 55.809 26.72 59.196
H 56.469 27.993 58.695
