769
xyz format
Cl 62.646 58.926 60.688
O 48.289 54.675 60.198
O 46.791 61.308 68.338
O 63.168 58.198 58.623
O 61.531 64.618 56.662
O 42.041 62.691 62.027
O 62.038 56.92 63.279
O 47.424 54.104 66.271
O 40.864 56.219 58.793
O 55.968 59.682 62.992
O 55.282 69.903 61.529
O 58.119 54.41 60.805
O 52.342 61.133 68.723
O 48.479 61.247 49.622
O 49.199 54.548 65.05
O 48.067 51.742 61.864
O 58.796 59.374 64.961
O 45.343 58.568 57.018
O 44.544 69.498 54.368
O 55.515 65.421 64.893
O 38.685 57.888 54.719
O 56.1 64.089 69.08
O 50.429 46.887 61.906
O 51.937 69.553 51.704
O 49.235 60.47 57.866
O 59.139 60.722 52.596
O 51.694 59.22 57.721
O 52.85 63.112 63.59
O 44.439 61.737 54.351
O 39.375 60.307 55.966
O 43.014 57.352 50.28
O 57.164 67.559 68.051
O 43.637 63.062 63.495
O 61.128 58.983 57.055
O 61.631 61.417 54.456
O 46.699 55.348 70.014
O 56.871 54.921 68.371
O 48.699 60.73 73.193
O 38.696 57.437 57.182
O 48.289 51.398 67.62
O 43.983 64.926 61.101
O 45.731 53.856 60.759
O 37.775 60.29 59.145
O 60.909 67.098 67.833
O 48.185 65.582 49.733
O 59.878 66.912 54.031
O 61.224 67.401 63.609
O 42.458 57.269 53.963
O 61.826 62.956 59.73
O 42.547 54.312 57.931
O 57.996 62.756 72.8
O 59.315 59.568 71.552
O 58.319 68.869 61.621
O 57.782 65.822 55.598
O 44.804 60.501 60.742
O 56.806 65.979 70.41
O 44.145 66.322 55.699
O 47.298 56.666 66.583
O 51.219 52.43 70.538
O 63.319 59.946 67.882
O 62.184 60.764 71.62
O 59.054 65.661 65.039
O 54.899 66.253 56.186
O 46.791 61.459 46.866
O 55.974 50.296 69.876
O 47.926 61.005 61.121
O 61.228 59.219 53.159
O 49.436 65.964 51.511
O 50.096 62.503 52.401
O 56.347 56.773 69.443
O 51.385 60.879 53.472
O 47.457 65.997 56.091
O 62.87 59.15 73.204
O 46.216 56.588 52.637
O 60.537 63.447 55.094
O 55.729 60.392 59.571
O 51.724 53.542 64.725
O 56.02 70.466 65.296
O 42.588 50.596 60.018
O 53.87 53.66 68.672
O 50.654 50.674 67.209
O 60.838 65.916 69.691
O 43.288 60.914 51.7
O 54.912 63.025 55.92
O 52.78 57.819 67.129
O 53.481 67.473 57.748
O 46.392 62.363 52.051
O 53.677 64.195 67.324
O 55.779 60.703 52.103
O 49.581 59.632 54.869
O 43.351 53.627 60.992
O 60.777 65.268 60.86
O 49.944 52.038 65.237
O 57.848 68.567 65.353
O 56.971 65.614 66.749
O 58.991 62.781 56.522
O 44.582 51.93 66.294
O 56.551 62.57 64.886
O 42.331 51.399 63.601
O 52.149 60.996 55.772
O 41.727 60.218 65.82
O 59.414 68.975 68.099
O 59.135 57.985 54.928
O 54.5 64.222 51.801
O 38.772 59.287 62.177
O 56.402 51.536 63.405
O 45.306 56.67 62.387
O 47.052 57.775 61.629
O 58.954 55.719 71.991
O 44.16 58.405 59.33
O 42.291 57.22 66.609
O 64.364 61.958 70.047
O 59.051 56.579 63.042
O 53.335 59.822 59.477
O 53.887 51.634 67.558
O 52.648 62.02 61.581
O 59.661 62.547 61.16
O 47.15 59.032 58.231
O 48.689 62.27 64.54
O 40.293 57.193 52.427
O 39.605 58.243 60.413
O 52.154 68.613 63.906
O 62.059 55.315 65.918
O 41.462 60.503 49.131
O 43.485 63.394 56.677
O 54.183 62.051 70.321
O 40.328 58.319 65.298
O 47.662 68.301 55.971
O 61.481 62.579 66.845
O 50.248 60.15 67.523
O 42.88 56.545 56.125
O 50.197 49.745 63.746
O 61.51 56.232 56.192
O 41.098 59.129 57.18
O 47.78 58.377 55.011
O 51.532 69.267 56.597
O 38.01 56.638 51.62
O 52.245 51.887 61.515
O 46.604 71.79 52.932
O 52.438 69.578 54.231
O 54.178 49.153 69.305
O 48.334 69.772 54.208
O 44.112 57.961 52.243
O 54.925 60.006 67.785
O 61.59 60.384 58.908
O 57.776 62.291 50.856
O 54.662 56.543 64.089
O 57.288 67.433 57.747
O 63.496 63.416 65.077
O 54.503 48.568 61.921
O 51.084 62.025 46.917
O 52.492 64.562 57.905
O 60.328 50.152 63.318
O 52.916 55.211 65.598
O 42.262 60.957 56.794
O 59.691 61.441 58.761
O 46.598 60.076 71.351
O 54.666 67.197 63.153
O 50.022 54.357 61.744
O 43.846 53.612 67.873
O 41.194 61.252 59.64
O 60.418 62.155 72.505
O 49.498 55.815 69.244
O 59.336 67.61 69.825
O 43.83 66.339 58.582
O 49.8 68.0 55.179
O 43.627 58.729 63.446
O 46.166 50.465 65.749
O 56.04 65.471 60.968
O 40.68 60.52 63.249
O 40.225 56.434 62.301
O 61.23 55.035 60.138
O 54.39 58.038 61.041
O 47.377 48.498 61.554
O 51.36 54.265 68.284
O 45.484 55.421 68.155
O 55.221 57.942 52.735
O 61.329 57.219 66.991
O 58.218 51.392 64.638
O 53.56 66.679 68.589
O 45.654 62.323 59.04
O 58.02 64.553 53.514
O 44.951 63.541 49.997
O 50.798 67.973 52.906
O 62.029 62.718 69.551
O 52.026 64.899 71.153
O 56.798 62.435 53.25
O 44.499 64.204 53.591
O 57.734 62.056 70.046
O 59.26 56.624 70.009
O 59.672 53.905 63.461
O 51.398 61.435 71.409
O 58.291 55.897 65.975
O 42.855 56.962 61.352
O 46.19 64.401 57.621
O 47.703 59.154 48.739
O 55.395 58.188 65.856
O 49.094 57.43 60.789
O 56.714 49.376 62.964
O 47.129 60.991 55.846
O 59.036 49.134 60.538
O 58.262 65.909 72.617
O 60.908 65.06 71.969
O 52.356 71.258 64.071
O 54.797 52.536 60.356
O 57.868 52.088 68.687
O 58.266 52.377 61.636
O 54.031 61.468 65.908
O 59.831 58.823 61.169
O 52.312 48.899 61.152
O 53.778 58.748 63.227
O 56.364 54.83 63.474
O 41.558 54.762 51.557
O 55.106 54.612 70.907
O 50.216 64.356 56.489
O 53.651 66.875 65.295
O 54.29 59.603 71.774
O 45.016 57.813 65.766
O 46.555 64.265 64.237
O 43.674 60.899 63.094
O 44.074 66.51 62.768
O 58.993 65.84 58.401
O 41.164 55.004 53.881
O 43.662 53.147 64.699
O 40.52 56.216 56.62
O 45.143 55.064 64.304
O 49.121 61.069 69.859
O 58.134 55.782 52.161
O 57.663 61.028 61.846
O 46.644 68.847 52.456
O 50.522 60.756 60.53
O 48.31 49.359 69.064
O 51.672 68.261 59.316
O 58.313 64.255 69.655
O 55.939 60.065 56.213
O 56.236 63.753 58.922
O 44.827 51.62 69.107
O 52.588 64.842 52.716
O 54.572 51.969 70.214
O 45.915 63.195 61.624
O 41.748 55.727 63.732
O 62.963 61.964 56.456
O 57.144 58.857 72.231
O 51.743 56.608 61.237
O 58.796 56.877 59.666
O 46.554 63.974 55.049
O 55.033 62.941 73.36
O 58.791 66.438 62.945
O 49.576 58.58 52.507
O 57.798 60.473 57.314
O 52.012 63.466 48.398
O 60.544 60.771 65.385
O 50.585 56.881 63.867
O 56.957 60.557 66.723
O 59.477 54.624 67.64
O 53.589 53.425 63.084
O 56.832 46.309 62.245
O 53.187 49.53 64.323
O 51.17 59.369 62.253
O 62.406 59.781 62.749
O 48.602 65.852 62.258
O 53.609 61.002 51.89
O 56.405 50.712 66.119
O 60.825 67.465 60.918
O 44.961 53.241 62.831
O 62.105 55.706 69.222
O 48.404 63.435 69.29
O 45.115 50.715 61.782
O 47.396 65.304 52.568
O 62.641 65.124 62.733
O 56.036 67.297 59.66
O 56.131 58.195 58.527
O 49.277 63.91 50.661
O 60.517 60.802 70.185
O 62.754 63.941 71.446
O 59.188 61.6 68.093
O 49.132 50.328 60.552
O 47.472 63.353 60.031
O 46.676 54.87 62.737
O 48.062 49.495 54.971
O 58.454 57.81 67.415
O 51.909 51.365 55.163
O 50.19 53.992 53.244
O 63.848 61.673 60.101
O 45.936 66.161 60.452
N 52.353 53.934 53.978
N 48.411 51.553 54.037
N 50.123 52.271 56.216
N 54.45 50.646 53.996
C 48.588 50.626 55.037
C 49.365 53.325 56.879
C 51.406 53.938 52.972
C 49.413 50.996 56.292
C 48.427 51.155 57.474
C 48.124 52.651 57.501
C 51.942 53.806 55.355
C 47.032 52.668 52.302
C 54.053 49.22 53.886
C 54.453 52.135 57.049
C 47.511 51.339 52.935
C 53.052 54.098 56.375
C 48.205 50.485 51.84
C 51.331 52.398 55.595
C 51.894 53.827 51.502
C 54.285 53.274 56.25
C 46.223 53.463 53.307
H 56.986 66.541 57.532
H 53.972 60.508 71.883
H 52.734 66.987 65.575
H 54.149 67.425 65.912
H 54.331 59.265 72.677
H 53.717 56.416 63.94
H 60.765 60.61 69.273
H 60.007 61.619 70.117
H 44.285 59.029 64.086
H 54.834 56.055 64.904
H 58.367 65.156 58.667
H 43.225 60.715 62.26
H 44.557 61.179 62.823
H 56.188 59.276 55.716
H 46.187 64.799 63.522
H 47.333 63.854 63.839
H 50.53 63.626 57.038
H 49.515 64.756 57.018
H 44.875 57.855 66.72
H 45.843 58.294 65.635
H 43.01 58.21 63.978
H 47.484 65.666 53.458
H 46.544 65.642 52.266
H 62.767 63.143 64.506
H 56.147 60.79 55.611
H 50.534 61.896 47.7
H 60.056 59.601 61.693
H 60.56 58.213 61.339
H 46.838 65.028 57.966
H 45.738 64.896 56.927
H 48.931 50.837 58.421
H 49.166 57.257 59.842
H 48.836 56.576 61.159
H 47.517 50.526 57.331
H 51.127 54.581 55.525
H 52.605 53.958 57.397
H 46.924 59.319 49.285
H 43.34 56.484 60.668
H 42.975 57.89 61.111
H 47.347 59.094 47.843
H 47.936 53.024 58.534
H 53.648 51.217 54.314
H 57.063 55.246 63.993
H 42.386 54.555 52.01
H 41.371 53.965 51.047
H 54.436 55.2 70.535
H 55.914 55.138 70.879
H 55.89 54.289 64.118
H 52.996 58.483 63.727
H 53.729 59.712 63.219
H 56.53 51.468 66.706
H 50.145 50.156 56.452
H 64.857 56.53 58.063
H 56.07 57.841 65.259
H 54.717 58.532 65.261
H 49.06 54.111 56.133
H 56.297 49.967 66.724
H 53.315 53.824 53.762
H 51.996 59.137 61.81
H 59.461 57.353 69.409
H 59.131 55.871 69.42
H 50.743 58.516 62.403
H 57.06 61.458 70.391
H 57.393 62.312 69.18
H 44.432 63.459 52.981
H 44.58 64.97 53.01
H 53.866 57.27 60.781
H 60.06 61.316 64.752
H 55.021 57.679 61.677
H 61.469 60.991 65.217
H 60.824 55.595 59.465
H 62.162 55.282 60.11
H 57.709 60.843 66.19
H 56.236 60.492 66.085
H 57.103 61.787 53.898
H 56.321 63.084 53.782
H 60.424 54.079 64.041
H 58.938 53.767 64.072
H 52.008 62.149 71.633
H 51.93 60.841 70.865
H 51.373 56.572 64.331
H 57.875 61.335 50.763
H 57.255 62.544 50.084
H 50.306 57.651 64.378
H 59.214 56.161 66.07
H 57.892 56.63 65.489
H 57.48 61.384 57.351
H 57.259 60.015 57.971
H 58.654 64.099 52.945
H 57.326 64.834 52.905
H 46.695 47.905 61.894
H 49.998 53.803 57.675
H 50.824 54.875 67.762
H 51.861 53.775 67.62
H 52.718 49.741 61.392
H 51.523 49.157 60.66
H 49.086 59.214 51.969
H 48.918 58.254 53.133
H 45.053 55.486 67.293
H 45.827 54.519 68.172
H 54.384 58.423 52.746
H 48.188 48.174 61.965
H 55.61 59.365 68.012
H 41.552 60.379 63.638
H 55.16 60.785 68.304
H 40.823 57.189 62.371
H 40.362 56.116 61.4
H 44.122 58.893 51.99
H 58.401 57.716 59.4
H 44.404 57.97 53.163
H 58.217 56.565 60.373
H 55.163 62.128 72.856
H 61.213 59.53 59.155
H 61.466 58.1 67.362
H 61.037 57.394 66.088
H 58.016 52.131 65.226
H 58.423 50.668 65.243
H 61.853 60.771 59.753
H 51.934 55.783 60.774
H 56.552 65.032 61.658
H 55.399 66.0 61.459
H 50.949 56.406 61.748
H 54.133 67.289 68.108
H 54.013 66.558 69.433
H 45.091 63.107 59.027
H 45.991 62.268 58.137
H 53.652 51.827 57.739
H 42.013 55.195 62.971
H 41.492 55.071 64.392
H 57.531 57.983 72.369
H 56.279 58.667 71.848
H 40.145 58.063 52.036
H 40.361 56.607 51.663
H 61.118 61.948 73.137
H 59.787 61.434 72.618
H 40.071 58.592 59.643
H 54.004 51.955 66.655
H 54.752 51.773 67.964
H 52.824 59.013 59.601
H 53.859 59.644 58.686
H 43.31 53.857 64.148
H 59.201 56.028 63.82
H 58.645 57.378 63.401
H 50.252 67.172 55.383
H 43.74 58.773 58.543
H 44.771 57.746 58.977
H 42.428 58.065 66.163
H 49.229 67.773 54.435
H 54.238 52.482 70.96
H 53.808 51.454 69.928
H 53.215 64.64 58.54
H 51.841 65.201 58.22
H 42.193 61.076 55.838
H 43.158 60.619 56.919
H 58.653 60.802 68.194
H 59.541 61.528 67.198
H 49.599 55.493 70.149
H 53.56 54.808 66.194
H 48.635 55.477 68.976
H 52.279 55.623 66.194
H 54.647 68.0 63.688
H 53.738 66.938 63.097
H 59.275 60.602 58.994
H 59.94 61.325 57.836
H 52.619 61.279 60.963
H 52.599 62.796 61.009
H 59.517 62.579 62.113
H 59.584 61.609 60.947
H 58.743 66.85 69.774
H 43.574 53.887 66.988
H 40.917 61.518 58.754
H 46.957 59.579 59.002
H 47.376 58.173 58.611
H 41.545 60.362 59.513
H 50.956 54.17 61.906
H 49.563 53.632 62.186
H 42.89 52.83 65.185
H 48.023 68.256 56.865
H 46.725 68.488 56.111
H 50.401 59.529 68.246
H 50.229 61.011 67.959
H 44.214 65.47 58.411
H 62.402 62.354 66.66
H 61.187 63.022 66.039
H 55.074 62.366 70.123
H 53.617 62.596 69.76
H 40.875 58.217 64.51
H 47.22 52.871 56.877
H 53.116 61.725 65.74
H 58.366 51.542 62.11
H 57.503 52.228 61.064
H 54.534 62.268 65.71
H 55.425 53.208 60.649
H 54.943 51.804 60.97
H 53.331 55.185 56.28
H 47.452 60.45 56.577
H 46.262 61.291 56.148
H 56.355 49.734 62.143
H 57.311 48.677 62.668
H 62.305 56.506 56.666
H 60.831 56.208 56.878
H 52.193 69.939 56.391
H 51.852 68.481 56.136
H 52.32 52.7 60.999
H 51.466 52.035 62.065
H 54.019 49.465 68.406
H 53.34 48.746 69.558
H 48.927 52.406 54.021
H 49.564 50.11 63.115
H 50.865 49.33 63.186
H 52.552 68.636 54.056
H 51.513 69.742 54.01
H 40.479 59.616 57.739
H 41.561 58.553 57.801
H 45.029 55.997 64.522
H 45.41 54.664 65.141
H 45.886 54.423 52.845
H 48.784 70.064 53.405
H 48.371 70.545 54.786
H 62.814 55.358 66.518
H 61.335 55.016 66.482
H 46.828 53.709 54.212
H 52.665 68.858 63.124
H 51.627 67.862 63.608
H 43.654 64.068 56.006
H 47.132 58.827 54.454
H 47.611 57.441 54.849
H 42.522 63.356 56.726
H 42.498 57.431 56.156
H 43.628 56.596 56.734
H 54.723 63.373 51.399
H 54.654 64.078 52.743
H 55.49 51.645 63.106
H 56.771 52.426 63.342
H 45.253 62.649 61.181
H 52.488 63.967 53.113
H 52.763 65.417 53.471
H 54.093 54.561 68.406
H 53.216 53.783 69.372
H 46.162 62.674 62.398
H 42.991 61.813 51.512
H 43.313 60.878 52.665
H 50.08 50.274 66.544
H 51.122 49.921 67.591
H 56.645 63.529 64.834
H 57.38 62.238 64.52
H 41.348 61.094 65.967
H 42.594 60.27 66.241
H 46.846 57.686 60.69
H 46.996 58.725 61.787
H 44.903 57.508 62.127
H 45.323 56.16 61.568
H 59.449 57.375 54.248
H 59.835 58.648 54.982
H 52.881 63.885 66.875
H 54.28 64.407 66.601
H 55.739 61.186 51.269
H 56.524 60.1 51.984
H 50.258 58.952 54.765
H 49.447 59.678 55.824
H 43.69 54.437 61.394
H 43.011 53.921 60.138
H 45.593 61.822 52.078
H 57.431 68.095 64.621
H 57.958 69.464 65.015
H 46.695 62.278 51.138
H 52.619 57.117 67.772
H 52.026 58.411 67.243
H 52.874 66.896 57.268
H 53.805 68.079 57.07
H 57.431 65.266 67.523
H 56.568 60.642 59.977
H 55.109 61.054 59.9
H 51.067 53.562 64.018
H 51.225 53.806 65.508
H 40.33 55.489 53.83
H 40.058 55.421 56.914
H 40.095 56.43 55.779
H 61.659 64.884 60.784
H 60.303 64.644 61.423
H 50.703 51.567 64.871
H 41.209 54.723 54.803
H 56.054 65.69 67.042
H 58.877 63.508 57.146
H 58.307 62.937 55.86
H 49.283 51.987 64.536
H 49.458 61.794 70.4
H 55.573 62.913 56.614
H 54.46 62.172 55.894
H 48.72 60.471 70.502
H 47.204 64.28 60.002
H 48.163 63.334 60.704
H 59.947 63.094 54.416
H 61.356 63.625 54.615
H 46.527 57.494 52.517
H 46.06 56.523 53.587
H 46.396 65.895 61.258
H 46.623 66.59 59.927
H 62.593 59.649 68.444
H 52.079 60.238 53.273
H 50.588 60.476 53.105
H 46.816 66.334 55.452
H 48.31 66.182 55.679
H 56.608 57.143 70.296
H 55.385 56.856 69.442
H 50.432 63.388 52.587
H 50.477 62.289 51.54
H 47.304 54.178 62.981
H 47.239 55.623 62.516
H 57.545 57.758 67.735
H 58.774 58.649 67.769
H 53.833 50.178 64.013
H 50.3 65.569 51.686
H 49.258 66.485 52.304
H 60.443 58.946 52.669
H 61.831 58.471 53.063
H 54.836 65.455 55.646
H 46.187 61.091 47.524
H 46.813 62.401 47.075
H 55.874 49.9 70.751
H 59.979 65.771 65.29
H 58.617 66.427 65.431
H 56.701 49.799 69.481
H 48.487 60.222 61.173
H 54.893 65.919 57.091
H 47.885 61.196 60.175
H 62.219 59.88 71.233
H 63.111 61.026 71.68
H 61.967 67.83 63.167
H 44.669 65.966 54.97
H 44.798 66.768 56.253
H 55.369 63.333 58.861
H 56.082 64.646 58.592
H 47.955 57.038 65.981
H 46.642 56.275 65.992
H 56.409 66.776 70.037
H 56.227 65.76 71.15
H 50.464 52.513 71.135
H 51.946 52.831 71.031
H 52.033 60.087 55.468
H 52.764 60.913 56.512
H 45.253 52.047 66.979
H 43.806 51.628 66.783
H 58.911 63.894 70.322
H 58.793 64.133 68.827
H 41.707 54.201 58.393
H 42.289 54.643 57.062
H 60.988 66.68 63.012
H 57.141 63.05 72.464
H 59.174 58.723 71.107
H 49.938 50.655 60.972
H 42.181 57.907 53.293
H 42.713 56.493 53.448
H 49.362 49.429 60.285
H 60.983 63.291 59.402
H 62.324 62.76 58.927
H 58.297 63.497 73.341
H 45.068 60.35 59.826
H 58.654 60.149 71.156
H 56.912 66.12 55.304
H 57.594 65.007 56.079
H 45.119 59.714 61.205
H 47.767 66.44 49.586
H 60.635 66.331 67.315
H 54.803 65.234 64.269
H 56.266 65.635 64.325
H 55.381 64.665 69.368
H 55.838 63.822 68.19
H 57.481 55.567 67.994
H 57.453 54.248 68.745
H 38.937 58.316 56.863
H 39.014 57.43 58.093
H 44.534 58.638 56.496
H 46.038 58.488 56.352
H 38.888 61.13 56.094
H 39.854 60.451 55.14
H 45.208 61.177 54.183
H 44.26 61.605 55.29
H 53.197 52.59 63.37
H 45.257 53.927 59.921
H 45.879 52.908 60.86
H 53.735 53.905 63.909
H 47.347 51.462 67.82
H 48.339 51.613 66.68
H 43.779 65.785 60.71
H 43.833 64.304 60.378
H 52.309 64.108 70.678
H 62.339 62.131 68.849
H 45.851 49.843 65.082
H 46.756 51.05 65.257
H 50.13 68.548 52.511
H 51.194 67.527 52.147
H 58.904 67.373 63.154
H 58.471 66.443 62.035
H 50.836 58.953 57.369
H 51.519 60.08 58.123
H 47.35 63.445 54.914
H 45.859 63.315 55.171
H 48.838 61.286 58.194
H 49.155 59.86 58.61
H 59.181 61.305 53.363
H 58.535 60.022 52.872
H 53.454 63.496 64.238
H 52.442 63.882 63.174
H 59.286 54.093 66.857
H 59.66 53.968 68.323
H 52.542 70.306 51.698
H 48.002 61.901 49.096
H 49.093 60.849 48.992
H 58.999 58.527 65.378
H 59.295 59.347 64.135
H 50.577 61.345 59.767
H 50.717 59.885 60.162
H 45.632 52.801 63.368
H 44.301 52.553 62.681
H 62.094 64.337 57.394
H 60.849 65.152 57.089
H 49.091 54.498 59.69
H 48.068 53.818 60.583
H 58.032 60.418 62.498
H 52.395 61.348 67.784
H 53.046 60.486 68.851
H 51.13 68.268 58.517
H 58.88 54.477 61.395
H 57.362 54.424 61.404
H 57.47 61.822 62.359
H 57.278 55.714 51.718
H 47.852 51.612 62.796
H 47.324 51.338 61.399
H 49.159 54.654 64.091
H 49.361 55.443 65.373
H 55.929 58.108 59.467
H 56.484 57.329 58.287
H 45.528 49.99 61.297
H 45.596 50.734 62.619
H 42.739 62.665 61.361
H 55.319 66.847 59.196
H 55.983 68.206 59.338
H 43.897 62.704 64.353
H 44.218 63.824 63.379
H 61.074 59.732 56.449
H 60.219 58.865 57.356
H 43.334 57.919 49.567
H 42.094 57.181 50.043
H 48.572 63.425 51.108
H 49.2 63.63 49.741
H 56.407 67.997 67.641
H 57.841 67.579 67.363
H 48.189 64.985 62.158
H 53.106 61.386 51.161
H 53.736 61.742 52.497
H 55.43 70.853 61.437
H 55.388 69.745 62.475
H 62.101 56.541 62.394
H 61.184 57.37 63.276
H 47.002 53.359 66.717
H 47.867 54.578 66.986
H 40.083 55.86 59.234
H 41.464 56.423 59.521
H 61.728 59.697 63.43
H 62.875 60.589 62.99
H 55.971 59.639 62.028
H 56.11 58.767 63.263
