747
xyz format
Cl 64.214 44.247 60.337
O 67.443 45.63 45.603
O 68.359 43.086 54.523
O 61.102 36.683 55.334
O 69.831 48.448 45.987
O 61.925 48.975 33.936
O 64.275 48.624 42.465
O 63.784 46.708 48.397
O 64.909 40.94 43.163
O 67.345 48.817 50.344
O 59.583 55.722 38.457
O 55.752 53.306 41.348
O 61.976 45.353 59.134
O 66.077 51.943 48.352
O 67.744 46.953 58.777
O 54.774 50.098 37.186
O 60.59 39.059 52.721
O 60.41 51.628 51.882
O 65.304 43.889 46.505
O 64.723 51.009 61.033
O 62.194 42.612 47.902
O 62.081 40.221 36.613
O 62.173 44.389 42.685
O 60.603 53.293 37.665
O 60.649 44.321 52.543
O 64.323 47.801 55.339
O 63.103 48.738 45.302
O 71.921 50.145 46.021
O 61.539 55.57 41.633
O 63.678 51.852 40.364
O 70.887 45.059 49.576
O 61.097 47.285 39.771
O 65.019 50.15 57.858
O 65.141 55.078 45.493
O 63.509 35.883 46.965
O 66.393 42.618 45.076
O 65.816 54.329 48.2
O 59.113 42.284 54.217
O 54.276 40.381 53.43
O 68.807 50.74 45.586
O 61.473 44.715 48.2
O 64.804 52.153 55.074
O 67.316 36.873 45.045
O 65.525 52.671 44.585
O 68.83 44.092 41.94
O 63.193 49.181 57.119
O 68.506 46.737 47.887
O 63.124 43.232 58.701
O 63.502 41.26 46.724
O 69.998 38.521 46.452
O 62.061 43.908 37.631
O 65.778 46.918 42.973
O 62.014 41.787 56.626
O 64.222 45.19 42.549
O 66.673 43.966 42.372
O 61.746 48.45 48.04
O 66.14 43.802 53.398
O 64.999 55.127 54.17
O 66.688 44.048 59.049
O 59.147 49.572 52.362
O 59.735 44.46 49.947
O 61.932 50.662 59.556
O 57.527 39.392 44.856
O 69.07 44.581 57.195
O 58.929 40.688 62.381
O 59.475 44.985 61.593
O 62.787 52.349 46.174
O 68.857 42.968 45.345
O 65.584 36.578 46.605
O 70.173 46.186 45.534
O 62.906 39.422 43.925
O 59.491 41.082 51.615
O 55.651 41.602 42.9
O 60.875 56.202 50.356
O 64.897 49.875 54.136
O 67.535 49.778 57.797
O 62.426 43.614 45.743
O 63.943 37.252 50.03
O 61.029 38.18 50.048
O 63.522 44.213 54.656
O 62.591 35.002 50.5
O 64.067 41.072 56.855
O 56.87 35.399 44.55
O 57.069 50.944 47.434
O 67.307 52.029 56.754
O 67.53 55.478 44.629
O 67.36 55.888 52.61
O 52.181 38.422 42.594
O 59.052 40.635 45.899
O 61.117 37.571 41.945
O 64.053 41.016 60.357
O 57.282 42.24 61.23
O 62.966 35.992 41.161
O 66.814 46.949 52.976
O 60.505 43.448 55.93
O 69.466 49.221 48.582
O 63.267 47.106 33.72
O 53.087 40.794 50.971
O 59.399 49.094 44.669
O 62.882 52.385 57.515
O 66.986 42.563 49.955
O 60.062 44.345 41.674
O 65.57 48.977 59.756
O 56.982 41.707 39.823
O 60.473 36.334 47.206
O 59.668 41.292 39.142
O 57.482 43.742 42.228
O 62.008 47.645 59.223
O 68.37 46.646 41.621
O 54.379 42.676 54.149
O 61.991 41.178 50.57
O 56.906 48.665 42.027
O 55.129 36.91 43.964
O 59.223 46.933 46.829
O 70.148 55.109 49.272
O 68.392 41.272 55.898
O 58.972 44.967 38.96
O 56.461 40.54 54.051
O 61.308 48.56 54.575
O 63.951 57.903 46.767
O 63.531 43.32 52.289
O 66.915 40.92 53.767
O 68.556 48.274 43.101
O 56.747 40.431 57.061
O 56.685 35.957 49.083
O 53.981 39.841 56.11
O 65.078 46.072 59.477
O 67.002 54.671 50.022
O 64.221 38.518 40.79
O 58.4 34.241 47.166
O 58.309 42.437 58.624
O 63.169 46.44 57.641
O 64.435 39.502 50.039
O 53.501 41.307 42.52
O 61.51 56.232 56.192
O 65.903 43.125 57.056
O 63.897 50.046 47.79
O 61.336 54.159 55.474
O 57.548 52.303 44.476
O 64.779 53.145 50.193
O 67.153 39.17 51.721
O 67.928 44.615 47.791
O 71.943 43.874 48.046
O 61.369 48.486 42.344
O 69.945 53.596 43.675
O 62.748 38.229 57.524
O 61.668 51.737 35.816
O 68.608 48.549 53.638
O 68.57 43.342 51.808
O 58.739 38.574 54.443
O 69.876 40.911 44.022
O 63.765 54.904 56.18
O 62.31 52.908 43.54
O 59.547 53.745 45.963
O 52.748 42.888 50.036
O 59.739 56.869 45.804
O 70.023 49.895 51.219
O 62.898 54.962 51.608
O 57.302 55.255 38.117
O 61.818 53.825 48.639
O 64.586 43.393 49.489
O 67.75 51.667 53.748
O 61.435 34.115 47.557
O 65.53 42.804 37.469
O 71.555 48.52 44.573
O 58.822 46.964 51.092
O 60.701 48.478 37.688
O 65.993 48.457 40.905
O 59.805 41.423 48.572
O 70.24 45.853 51.53
O 58.55 44.819 46.721
O 63.529 50.618 50.228
O 56.446 50.871 40.283
O 58.887 37.503 46.227
O 57.216 55.613 46.616
O 63.815 45.919 53.122
O 58.668 39.011 49.076
O 67.926 40.622 43.046
O 56.784 47.336 45.397
O 56.327 38.29 51.963
O 57.225 52.662 37.699
O 60.816 46.482 35.409
O 57.528 54.975 41.331
O 70.437 48.094 41.294
O 61.358 35.36 43.722
O 59.266 36.379 51.227
O 65.206 45.478 56.278
O 70.116 53.973 46.542
O 61.18 45.78 50.956
O 64.654 39.384 52.712
O 66.21 44.838 51.374
O 59.194 50.643 35.513
O 64.679 37.913 45.103
O 53.856 44.755 52.084
O 60.695 40.219 43.778
O 62.552 38.645 54.658
O 68.599 50.251 38.54
O 56.146 47.272 36.315
O 59.949 43.914 44.681
O 70.421 51.212 48.57
O 54.861 45.758 49.41
O 63.68 50.758 43.388
O 53.516 38.54 45.515
O 53.612 39.21 48.135
O 61.48 51.258 49.088
O 66.182 51.454 42.628
O 61.644 42.892 39.623
O 64.165 52.322 52.887
O 58.514 44.37 55.707
O 57.213 45.272 59.184
O 64.109 55.729 48.859
O 59.438 46.785 42.027
O 58.134 55.782 52.161
O 58.58 48.821 49.111
O 58.316 54.111 48.936
O 61.832 51.639 54.799
O 61.716 55.792 45.973
O 64.148 40.605 39.335
O 65.466 38.983 56.324
O 56.998 55.032 44.209
O 63.389 41.099 54.481
O 54.483 37.411 49.577
O 61.191 37.962 45.881
O 57.043 40.261 49.869
O 66.353 46.773 48.338
O 67.555 37.264 48.467
O 59.429 55.082 42.667
O 66.154 41.001 58.781
O 54.216 54.975 43.071
O 55.686 39.05 42.203
O 66.894 57.467 45.327
O 65.226 47.043 46.374
O 69.449 41.964 49.151
O 58.669 39.086 60.436
O 57.6 42.914 50.605
O 59.719 49.752 39.534
O 67.213 49.441 44.803
O 67.077 39.77 48.91
O 65.652 39.855 45.902
O 62.634 36.921 52.631
O 64.33 43.585 40.127
O 59.652 52.897 39.842
O 67.718 48.593 55.697
O 54.926 38.322 54.83
O 59.013 39.325 57.048
O 71.166 47.902 54.0
O 58.394 41.651 42.138
O 67.769 53.237 47.772
O 62.357 41.464 42.486
O 64.177 47.751 50.972
O 59.433 46.664 54.217
O 61.838 51.324 39.278
O 57.805 42.605 36.97
O 63.232 47.84 39.281
O 59.68 39.323 41.176
O 59.887 50.759 47.083
O 58.618 46.359 37.294
O 57.525 42.61 46.168
O 56.94 40.673 47.041
O 60.246 52.807 42.008
O 61.613 40.045 58.66
O 61.245 42.632 60.381
O 61.075 41.491 53.069
O 59.295 50.375 42.726
O 60.832 46.359 45.268
O 63.671 43.581 35.382
O 50.686 49.697 48.558
O 53.301 46.819 47.257
O 53.93 51.905 51.539
O 50.19 53.992 53.244
O 59.899 46.772 58.819
N 51.782 48.251 46.32
N 51.761 52.453 51.079
N 47.749 49.355 48.296
N 52.84 50.036 49.228
C 52.791 51.562 51.129
C 51.898 49.739 48.263
C 51.406 53.938 52.972
C 50.386 53.922 48.435
C 48.16 48.371 50.547
C 52.893 51.882 46.466
C 52.571 50.405 44.506
C 54.053 49.22 53.886
C 51.714 45.782 45.77
C 52.916 48.985 52.897
C 51.361 54.801 49.194
C 52.735 45.346 44.69
C 53.356 49.113 51.453
C 52.312 46.996 46.517
C 52.523 50.115 50.631
C 51.894 53.827 51.502
C 51.055 54.819 50.684
C 52.145 50.677 45.935
C 52.412 49.441 46.828
H 61.663 38.974 54.839
H 62.73 38.946 53.759
H 60.73 39.916 58.291
H 61.585 40.943 59.014
H 69.06 44.009 51.312
H 68.945 42.506 51.501
H 54.087 39.864 48.662
H 63.975 50.553 44.284
H 64.068 51.625 43.212
H 61.772 46.577 45.259
H 60.514 46.676 44.414
H 68.939 48.313 52.763
H 69.013 49.408 53.812
H 59.73 44.599 44.038
H 56.933 43.047 46.793
H 58.375 42.6 46.627
H 67.939 50.061 39.219
H 56.92 47.648 36.752
H 59.645 43.1 44.261
H 53.18 45.103 52.679
H 54.537 44.422 52.681
H 58.678 45.644 36.648
H 59.218 47.031 36.947
H 61.248 40.821 44.291
H 60.665 39.419 44.317
H 60.724 35.207 44.433
H 58.99 36.77 52.064
H 60.12 35.978 51.432
H 49.343 54.303 48.555
H 66.045 45.89 56.522
H 65.27 45.377 55.32
H 60.765 50.376 47.203
H 59.906 51.096 46.178
H 50.641 53.926 47.347
H 71.036 53.802 46.303
H 53.529 49.255 46.86
H 59.033 39.88 40.726
H 60.243 39.954 41.641
H 50.906 48.382 45.863
H 69.825 51.744 48.029
H 55.476 46.177 50.024
H 54.223 45.319 49.988
H 62.325 38.865 56.935
H 57.233 54.572 38.796
H 62.5 53.147 48.548
H 60.993 53.336 48.529
H 61.452 41.697 42.244
H 62.793 41.322 41.637
H 64.5 42.452 49.293
H 64.494 44.506 39.89
H 61.811 47.628 42.321
H 61.969 49.066 41.859
H 64.941 43.766 48.672
H 64.317 43.129 39.276
H 56.155 38.031 51.049
H 57.569 52.964 36.849
H 57.492 51.735 37.739
H 55.81 39.098 52.074
H 58.441 38.08 48.96
H 62.065 55.11 35.55
H 58.867 39.311 48.18
H 57.513 46.716 45.269
H 57.151 48.004 45.988
H 67.212 40.133 43.472
H 67.73 40.542 42.104
H 59.99 46.227 34.981
H 61.455 45.839 35.076
H 63.142 55.79 52.04
H 62.996 55.156 50.668
H 59.432 39.224 54.615
H 59.463 38.471 57.069
H 58.623 39.4 57.928
H 61.25 51.289 35.07
H 61.375 51.229 36.583
H 62.05 33.523 47.106
H 56.808 55.354 40.812
H 58.306 55.107 40.775
H 58.09 38.741 55.137
H 70.285 48.967 51.162
H 69.229 49.943 50.672
H 58.999 56.547 45.275
H 59.686 56.347 46.614
H 67.075 48.516 45.041
H 66.596 49.919 45.37
H 67.029 51.297 54.273
H 68.449 51.82 54.396
H 62.717 40.61 50.855
H 62.168 42.016 51.016
H 52.533 52.166 47.484
H 56.865 49.026 42.921
H 68.948 48.078 43.961
H 68.549 49.239 43.066
H 57.456 47.877 42.123
H 58.173 45.031 39.498
H 59.501 45.723 39.244
H 54.874 36.839 43.035
H 55.095 37.858 44.139
H 58.173 44.906 54.98
H 58.623 45.004 56.428
H 53.728 48.878 54.911
H 59.269 47.868 46.593
H 66.715 38.682 51.012
H 67.491 39.96 51.281
H 59.944 53.127 45.335
H 58.711 53.988 45.547
H 64.206 43.101 51.635
H 62.937 43.916 51.816
H 59.303 55.934 43.102
H 60.184 54.698 43.131
H 65.636 47.891 46.584
H 65.12 47.07 45.415
H 56.976 40.622 54.864
H 56.762 41.282 53.512
H 61.655 49.386 54.216
H 61.619 47.891 53.952
H 54.008 38.129 50.014
H 59.423 46.925 47.773
H 67.722 40.549 53.388
H 53.507 43.174 50.56
H 64.725 53.574 51.056
H 65.176 52.287 50.388
H 58.859 51.368 36.055
H 58.991 49.856 36.034
H 48.577 49.893 48.452
H 57.448 34.359 47.28
H 64.219 38.462 39.826
H 63.285 38.577 41.019
H 51.419 49.877 50.77
H 66.873 53.794 50.404
H 66.197 55.147 50.262
H 63.966 37.594 44.535
H 65.423 38.021 44.498
H 66.907 37.586 49.106
H 61.158 46.652 50.543
H 61.9 45.847 51.595
H 64.42 40.158 52.185
H 64.777 38.688 52.055
H 66.986 44.584 50.859
H 65.523 44.965 50.708
H 65.563 46.251 58.662
H 53.36 40.358 42.407
H 53.804 50.032 48.986
H 64.854 40.371 50.009
H 64.485 39.191 49.126
H 53.029 41.699 41.775
H 54.439 49.401 51.389
H 53.259 48.104 50.963
H 52.442 51.33 43.891
H 65.748 42.647 56.232
H 66.58 43.772 56.822
H 51.955 49.598 44.042
H 66.299 40.936 53.024
H 51.038 50.892 45.952
H 62.868 46.052 56.809
H 63.819 47.098 57.365
H 53.991 51.68 46.508
H 53.645 50.102 44.466
H 52.726 52.754 45.787
H 62.806 53.46 44.157
H 67.88 43.892 47.153
H 55.955 35.762 48.482
H 67.267 44.382 48.453
H 56.359 40.384 57.943
H 56.737 39.515 56.757
H 57.412 36.192 48.493
H 54.594 40.404 56.598
H 58.232 51.655 44.266
H 56.945 52.252 43.725
H 52.561 47.933 53.083
H 63.651 50.978 47.854
H 52.051 49.664 53.13
H 64.837 50.073 47.571
H 60.432 54.382 55.729
H 61.574 53.443 56.077
H 62.068 52.136 44.067
H 64.364 46.721 59.467
H 58.193 41.501 58.42
H 58.195 42.874 57.771
H 54.96 38.828 41.606
H 56.412 39.272 41.607
H 59.517 42.169 39.515
H 60.501 41.013 39.542
H 59.744 50.716 39.572
H 55.196 42.98 54.564
H 59.2 49.505 40.31
H 57.658 43.835 50.322
H 57.335 42.445 49.804
H 53.998 42.077 54.804
H 60.562 37.0 42.491
H 61.67 38.034 42.586
H 67.686 55.121 45.512
H 67.005 54.794 44.195
H 53.716 54.235 43.438
H 56.605 43.972 42.56
H 58.042 44.465 42.54
H 60.613 45.028 41.273
H 60.141 43.6 41.066
H 61.892 37.759 45.249
H 66.295 42.461 50.622
H 67.407 41.695 49.926
H 61.572 38.657 46.431
H 63.578 41.631 53.698
H 64.218 40.633 54.647
H 60.032 35.849 47.915
H 56.568 39.522 49.47
H 57.341 39.91 50.718
H 61.322 36.583 47.591
H 67.849 46.221 42.313
H 61.546 48.383 58.805
H 61.877 47.797 60.167
H 65.953 48.365 59.116
H 66.27 49.093 60.41
H 66.29 50.784 43.315
H 66.857 51.225 41.977
H 60.208 48.851 44.202
H 58.804 48.354 44.498
H 57.052 42.978 60.651
H 57.661 41.587 60.63
H 66.563 47.803 53.349
H 66.301 46.896 52.16
H 60.811 44.255 56.363
H 60.09 42.948 56.643
H 61.499 50.319 49.313
H 61.597 51.7 49.938
H 69.732 48.338 48.869
H 68.506 49.158 48.507
H 62.27 42.329 39.149
H 62.153 43.688 39.818
H 65.026 51.987 52.605
H 63.693 51.531 53.172
H 64.235 41.736 57.535
H 63.989 40.248 57.353
H 59.987 40.51 46.103
H 59.06 41.024 45.015
H 57.267 36.254 44.34
H 56.33 35.582 45.329
H 57.784 44.494 59.201
H 57.228 45.547 58.259
H 53.92 41.01 50.532
H 62.037 52.042 57.831
H 63.447 52.36 58.298
H 64.615 56.175 48.167
H 63.699 54.986 48.4
H 56.66 50.152 47.804
H 57.307 51.463 48.213
H 57.059 42.505 40.36
H 64.721 36.984 50.534
H 63.379 37.679 50.688
H 64.092 43.539 55.047
H 62.754 43.714 54.35
H 60.586 37.739 49.312
H 60.635 39.061 50.058
H 61.781 42.897 45.714
H 61.894 44.407 45.599
H 60.803 55.315 50.729
H 61.123 56.749 51.111
H 65.63 49.662 54.727
H 64.164 50.056 54.737
H 59.215 41.171 50.694
H 59.046 41.815 52.059
H 63.609 39.764 44.492
H 63.292 39.45 43.04
H 71.06 46.53 45.37
H 69.984 45.656 44.751
H 66.305 35.962 46.785
H 65.641 37.216 47.328
H 59.517 45.909 59.025
H 55.86 40.846 43.462
H 55.516 42.324 43.527
H 68.507 42.758 44.47
H 68.568 42.226 45.891
H 61.866 52.299 46.461
H 63.056 53.242 46.421
H 57.15 40.991 40.448
H 59.813 43.731 49.319
H 59.614 45.235 49.385
H 62.258 51.468 59.976
H 61.969 50.004 60.261
H 65.913 46.087 48.857
H 59.221 44.403 60.865
H 66.261 47.565 48.881
H 63.261 40.438 39.677
H 64.584 41.086 40.05
H 62.126 55.729 46.845
H 62.294 51.415 55.616
H 60.914 51.401 54.981
H 56.956 38.636 45.046
H 62.006 54.987 45.525
H 57.521 39.447 43.893
H 68.649 45.181 56.567
H 57.204 55.861 43.757
H 57.525 54.376 43.735
H 66.155 43.108 52.727
H 65.279 44.222 53.274
H 64.753 54.345 53.661
H 65.39 55.715 53.511
H 58.419 49.622 52.995
H 59.896 49.281 52.897
H 61.651 46.72 40.324
H 60.583 47.797 40.408
H 63.119 52.069 41.12
H 64.24 51.139 40.691
H 70.174 44.494 49.253
H 70.63 45.943 49.285
H 61.722 41.195 55.921
H 62.471 42.496 56.155
H 63.962 45.689 41.765
H 64.512 44.34 42.195
H 67.686 39.449 48.234
H 66.339 40.13 48.402
H 62.01 54.729 41.698
H 60.854 55.398 40.975
H 62.986 36.758 53.515
H 61.678 36.943 52.766
H 65.37 49.502 57.234
H 64.734 50.88 57.294
H 66.558 39.828 46.234
H 65.137 39.448 46.611
H 61.371 48.078 47.232
H 61.621 47.75 48.693
H 57.029 39.712 47.046
H 57.456 40.955 47.807
H 66.602 44.13 43.32
H 66.314 43.076 42.265
H 63.435 43.753 57.95
H 62.75 49.369 56.283
H 62.834 49.843 57.724
H 62.213 43.013 58.466
H 68.535 46.485 48.818
H 69.389 46.52 47.563
H 66.066 46.248 43.605
H 66.372 47.661 43.139
H 66.855 48.367 56.066
H 67.685 49.554 55.608
H 54.164 38.089 54.285
H 55.62 38.51 54.185
H 62.389 44.481 36.926
H 61.213 43.592 37.294
H 56.737 56.448 46.539
H 56.55 54.996 46.943
H 56.05 50.338 39.582
H 56.093 50.483 41.093
H 64.667 47.081 50.478
H 63.263 47.444 50.93
H 57.998 37.461 46.6
H 59.065 38.45 46.164
H 63.812 50.677 51.149
H 63.794 49.728 49.963
H 65.426 48.856 40.233
H 66.176 49.185 41.511
H 61.282 48.21 36.965
H 60.556 49.419 37.527
H 60.517 40.788 48.719
H 60.105 41.931 47.808
H 69.542 46.328 51.998
H 59.497 44.631 46.733
H 58.293 44.766 47.65
H 57.92 41.433 42.951
H 59.27 41.912 42.447
H 64.111 45.758 52.218
H 63.301 46.734 53.053
H 59.43 47.536 51.577
H 59.048 46.077 51.397
H 66.443 42.006 44.331
H 65.448 53.984 47.377
H 54.711 40.957 52.79
H 69.201 51.56 45.909
H 69.015 50.741 44.643
H 61.528 45.592 47.8
H 61.845 44.842 49.082
H 65.551 52.758 54.992
H 64.289 52.521 55.802
H 53.798 39.747 52.881
H 64.823 52.659 45.248
H 66.269 52.248 45.031
H 59.713 53.832 39.609
H 58.821 52.836 40.33
H 65.298 55.949 45.878
H 64.193 55.076 45.309
H 66.377 42.039 45.848
H 66.452 54.994 47.907
H 59.008 41.449 54.69
H 58.249 42.705 54.301
H 68.082 53.198 46.86
H 68.379 53.852 48.198
H 63.749 47.196 39.78
H 62.991 48.502 39.941
H 62.429 41.917 48.529
H 62.988 43.16 47.859
H 70.42 48.277 46.732
H 68.949 48.327 46.359
H 65.315 40.484 42.415
H 64.614 41.779 42.788
H 67.306 48.652 51.294
H 60.536 55.62 38.575
H 59.426 55.398 37.562
H 58.493 42.296 37.572
H 57.11 42.923 37.56
H 66.6 49.41 50.183
H 63.397 47.541 55.252
H 64.67 47.718 54.442
H 58.898 46.42 41.316
H 63.274 48.61 46.244
H 62.142 48.826 45.255
H 59.0 46.478 42.83
H 62.477 43.573 43.101
H 61.974 44.967 43.432
H 57.278 55.714 51.718
H 59.695 53.099 37.401
H 60.972 53.748 36.898
H 59.823 43.841 52.686
H 60.942 44.543 53.436
H 58.83 53.645 48.265
H 57.561 53.53 49.091
H 58.769 55.771 51.434
H 59.516 48.606 49.204
H 58.583 49.756 48.871
H 61.547 45.113 58.303
H 62.793 40.988 46.128
H 64.219 41.511 46.128
H 60.955 52.271 41.631
H 60.194 52.508 42.924
H 66.084 51.876 47.389
H 61.279 42.362 53.431
H 66.789 51.354 48.629
H 60.365 42.471 60.02
H 60.981 40.934 53.852
H 68.807 44.28 42.886
H 60.22 50.359 42.451
H 58.973 49.494 42.499
H 55.118 54.032 41.3
H 63.637 48.505 43.18
H 64.095 47.884 41.872
H 55.042 49.189 37.006
H 61.31 39.333 52.138
H 59.892 38.788 52.111
H 53.813 50.075 37.102
H 67.938 46.44 45.779
H 67.8 45.321 44.761
H 68.338 43.926 54.048
H 67.497 43.045 54.956
H 62.361 50.531 39.103
H 62.071 51.917 38.553
H 63.766 45.75 48.52
H 63.349 46.838 47.545
H 61.654 49.027 34.861
H 55.772 52.959 40.447
H 59.755 51.369 51.222
H 61.025 50.884 51.9
H 58.545 46.767 53.851
H 59.984 46.506 53.441
H 65.69 44.741 46.743
H 64.681 44.108 45.8
