433
xyz format
Cl 39.106 49.969 60.184
Cl 31.247 50.946 48.398
Na 35.918 45.033 51.34
Na 36.045 52.744 54.029
O 24.901 52.29 51.995
O 34.03 51.908 48.431
O 28.13 60.544 48.062
O 30.136 64.261 49.929
O 24.435 52.12 58.149
O 39.645 51.124 52.771
O 29.178 61.196 49.884
O 26.849 60.057 54.334
O 31.718 50.328 50.467
O 42.228 51.872 52.946
O 30.798 55.98 50.701
O 36.137 54.707 47.034
O 30.685 62.111 51.835
O 32.848 56.56 52.79
O 32.229 48.197 51.93
O 31.491 59.184 57.652
O 39.083 52.778 54.927
O 26.166 52.854 46.693
O 25.545 57.242 53.404
O 30.128 53.045 49.088
O 35.998 54.064 51.222
O 38.11 53.8 52.342
O 29.555 46.662 46.322
O 26.051 54.568 53.65
O 38.685 57.888 54.719
O 36.685 59.221 51.626
O 29.172 50.2 48.425
O 29.263 57.353 47.75
O 27.97 51.193 54.054
O 24.982 60.288 44.773
O 26.283 62.573 46.28
O 39.375 60.307 55.966
O 24.853 62.174 53.682
O 36.115 47.947 57.122
O 29.977 50.025 55.681
O 38.696 57.437 57.182
O 33.794 56.833 46.106
O 37.775 60.29 59.145
O 34.983 47.227 55.413
O 32.254 53.515 45.469
O 33.895 62.403 48.551
O 31.879 55.375 48.019
O 25.847 57.847 47.837
O 33.429 56.825 48.595
O 32.823 52.029 52.37
O 30.114 49.385 53.351
O 27.409 57.141 42.66
O 32.252 49.193 47.517
O 33.878 56.475 59.72
O 31.547 56.696 55.17
O 28.487 47.652 53.572
O 33.453 54.701 51.781
O 31.427 60.912 59.062
O 28.664 61.178 56.943
O 36.04 57.475 57.67
O 33.386 46.348 50.318
O 29.931 55.761 44.616
O 35.803 57.681 53.654
O 36.313 55.225 62.82
O 32.081 47.191 54.461
O 34.074 64.267 46.582
O 28.566 60.137 43.225
O 36.399 47.621 52.922
O 39.372 47.593 53.489
O 24.667 54.222 59.785
O 23.41 55.128 53.207
O 32.843 62.11 56.765
O 28.001 55.325 50.766
O 31.681 64.007 47.357
O 37.42 62.98 54.343
O 26.362 55.899 44.144
O 32.129 64.169 59.621
O 26.647 49.718 47.157
O 31.815 57.263 45.075
O 40.293 57.193 52.427
O 34.687 59.579 60.557
O 30.135 65.473 56.644
O 27.349 60.726 52.297
O 36.032 56.502 49.186
O 24.665 52.096 48.669
O 38.01 56.638 51.62
O 36.959 55.005 57.413
O 31.949 61.294 48.233
O 25.714 49.599 55.099
O 33.56 58.405 51.13
O 38.568 53.967 50.198
O 35.002 50.37 53.825
O 34.865 50.637 46.801
O 39.239 49.041 51.133
O 32.846 50.038 56.493
O 38.094 50.989 49.754
O 26.554 55.236 47.178
O 23.282 58.677 55.427
O 40.461 51.484 50.229
O 23.237 53.586 54.766
O 26.397 50.49 49.722
O 34.066 53.885 49.408
O 26.615 54.378 57.226
O 29.309 49.506 45.239
O 30.982 59.397 51.281
O 23.653 50.053 56.377
O 34.394 52.84 46.177
O 34.127 65.404 56.244
O 32.798 64.958 50.387
O 37.019 62.904 56.579
O 30.955 54.379 56.495
O 34.107 60.949 58.473
O 28.495 54.48 53.532
O 24.858 59.765 52.328
O 35.656 53.484 58.677
O 28.553 66.023 53.282
O 36.171 58.634 61.883
O 34.377 62.425 61.472
O 37.91 49.795 57.98
O 36.382 62.745 59.865
O 36.446 54.914 54.061
O 36.941 52.18 56.464
O 28.277 58.144 45.471
O 26.198 57.436 59.973
O 29.399 52.358 46.08
O 30.695 53.439 53.104
O 34.831 63.241 53.989
O 31.187 61.561 44.972
O 32.056 63.298 53.082
O 34.279 58.0 56.305
O 27.778 54.359 59.092
O 35.492 58.963 47.841
O 22.733 55.279 57.197
O 41.558 54.762 51.557
O 41.164 55.004 53.881
O 35.976 50.126 56.944
O 40.52 56.216 56.62
O 26.679 52.413 55.351
O 30.114 62.254 55.04
O 34.128 64.994 52.731
O 31.733 59.795 54.694
O 26.254 53.848 50.583
O 27.727 63.301 54.51
O 36.632 47.66 50.624
O 33.772 47.17 47.384
O 24.417 57.124 57.337
O 33.372 60.588 52.768
O 38.712 52.742 57.567
O 29.809 57.686 52.617
O 37.263 50.647 53.136
O 41.481 52.655 56.237
O 28.119 58.058 51.151
O 34.262 46.965 52.847
O 31.771 65.823 54.513
O 37.87 56.507 47.514
O 32.8 48.774 45.137
O 25.51 60.993 57.648
O 25.482 63.546 50.171
O 37.492 54.612 60.328
O 27.915 63.368 51.704
O 36.74 60.665 55.989
O 35.062 50.156 51.212
O 37.765 49.304 54.806
O 28.73 51.543 51.349
O 32.35 53.405 61.08
O 24.315 54.869 47.922
O 28.419 58.854 61.089
O 27.274 56.449 55.15
O 27.133 58.615 57.404
O 27.628 63.755 58.981
H 32.406 63.661 52.259
H 32.675 63.613 53.753
H 34.804 62.462 54.558
H 34.685 63.975 54.599
H 26.901 55.283 57.048
H 25.663 54.404 57.07
H 36.12 52.629 56.226
H 37.133 51.629 55.694
H 38.003 54.412 59.534
H 36.734 55.108 59.993
H 30.335 52.209 46.263
H 28.948 51.757 46.686
H 37.253 55.153 54.533
H 35.792 54.81 54.764
H 35.791 62.417 59.176
H 35.941 59.571 48.441
H 35.045 58.346 48.433
H 27.748 55.321 59.153
H 34.222 58.802 56.839
H 33.928 57.313 56.884
H 27.525 54.065 59.976
H 27.922 57.249 45.543
H 27.568 58.7 45.819
H 27.156 57.344 59.901
H 26.034 58.346 59.698
H 34.721 49.736 50.412
H 33.975 61.552 61.382
H 34.188 62.854 60.628
H 34.124 53.641 46.644
H 30.041 49.453 45.866
H 31.593 59.294 52.022
H 31.561 59.566 50.528
H 38.266 49.035 57.503
H 38.099 50.541 57.398
H 33.967 50.691 46.451
H 33.829 54.491 48.694
H 33.219 53.519 49.69
H 31.496 53.928 55.834
H 30.228 54.75 55.98
H 36.339 63.389 57.065
H 37.611 62.584 57.271
H 34.971 65.48 56.706
H 33.478 65.672 56.907
H 35.606 50.88 50.877
H 34.623 51.159 53.418
H 35.356 50.691 54.664
H 31.938 65.247 50.717
H 32.578 64.417 49.618
H 26.965 50.52 47.59
H 25.991 56.634 44.649
H 25.826 55.143 44.412
H 23.885 54.065 55.297
H 31.605 56.699 45.83
H 24.803 55.486 48.482
H 30.68 57.406 52.927
H 29.313 57.834 53.432
H 32.973 49.305 57.108
H 32.698 50.798 57.069
H 41.165 51.824 55.86
H 31.706 63.5 60.173
H 32.828 64.524 60.185
H 36.893 63.76 54.557
H 36.89 62.52 53.68
H 38.366 50.997 50.681
H 37.723 51.87 49.617
H 23.36 57.915 54.839
H 23.173 59.422 54.823
H 24.81 56.391 57.828
H 23.831 54.321 48.553
H 26.803 51.363 49.655
H 26.06 55.935 46.731
H 27.379 55.666 47.433
H 26.291 50.359 50.672
H 39.259 53.371 50.512
H 31.352 60.967 47.549
H 31.553 62.133 48.501
H 30.619 52.512 53.364
H 30.101 53.514 52.347
H 27.438 62.786 55.274
H 28.415 63.876 54.867
H 30.772 59.786 54.785
H 31.921 59.004 54.174
H 33.817 58.675 50.24
H 25.58 50.204 54.359
H 36.375 55.472 56.802
H 37.454 55.713 57.843
H 32.827 57.794 50.982
H 38.015 57.433 52.167
H 38.375 56.936 50.778
H 28.145 61.271 52.337
H 38.878 54.239 49.325
H 26.927 60.996 51.471
H 29.499 64.75 56.577
H 34.231 59.196 59.797
H 35.314 60.197 60.16
H 25.364 52.757 48.74
H 24.286 52.255 47.796
H 36.566 57.216 49.556
H 36.083 55.808 49.856
H 23.914 55.345 52.413
H 22.539 54.888 52.867
H 33.281 61.758 55.981
H 32.153 62.682 56.405
H 37.662 50.033 52.507
H 36.804 51.284 52.575
H 29.601 55.605 45.509
H 29.763 56.7 44.469
H 24.413 54.434 58.878
H 33.305 60.795 51.827
H 33.345 61.452 53.196
H 38.828 53.699 57.606
H 38.133 52.55 58.315
H 31.93 64.916 47.568
H 31.465 47.934 54.47
H 34.526 46.575 47.292
H 36.098 48.538 52.913
H 37.237 47.66 53.401
H 33.969 47.886 46.767
H 28.305 59.886 44.12
H 29.344 59.592 43.052
H 30.972 64.109 46.71
H 27.664 55.654 51.609
H 28.608 56.018 50.476
H 27.677 58.605 51.812
H 27.996 58.549 50.329
H 30.601 56.925 50.707
H 30.488 55.676 51.563
H 35.472 55.266 47.455
H 36.415 54.11 47.739
H 26.583 60.985 54.341
H 27.286 59.936 55.186
H 31.072 49.863 51.014
H 32.567 50.082 50.855
H 28.129 48.462 53.956
H 29.286 47.487 54.087
H 35.831 50.638 57.749
H 35.085 49.892 56.657
H 36.382 58.188 58.224
H 35.6 56.889 58.297
H 32.63 54.894 51.315
H 34.117 55.202 51.29
H 40.33 55.489 53.83
H 40.058 55.421 56.914
H 27.259 53.169 55.504
H 26.016 52.488 56.049
H 30.001 62.64 55.917
H 41.209 54.723 54.803
H 30.398 63.0 54.496
H 35.786 58.569 54.032
H 35.948 57.109 54.418
H 31.148 61.79 58.776
H 28.287 62.039 57.164
H 29.286 61.008 57.661
H 31.902 61.078 59.885
H 27.235 57.712 57.73
H 27.773 59.119 57.922
H 27.455 64.121 59.857
H 27.686 62.804 59.137
H 31.911 56.412 56.018
H 30.613 56.848 55.361
H 32.155 54.341 45.958
H 34.105 61.673 47.955
H 34.584 62.352 49.226
H 29.676 51.4 51.477
H 28.36 50.652 51.365
H 33.149 55.999 60.135
H 34.18 57.08 60.409
H 27.701 56.614 54.3
H 27.911 56.781 55.795
H 31.497 48.593 47.463
H 32.735 48.884 48.294
H 30.347 50.32 53.297
H 29.616 49.225 52.54
H 26.809 57.834 47.758
H 32.618 57.281 48.853
H 33.839 56.592 49.437
H 31.129 55.958 47.847
H 31.733 55.074 48.924
H 32.788 52.766 52.993
H 32.386 51.309 52.842
H 38.937 58.316 56.863
H 39.014 57.43 58.093
H 33.774 55.872 46.184
H 34.508 57.097 46.7
H 39.561 53.435 55.449
H 39.158 51.971 55.452
H 30.875 53.096 48.479
H 36.444 53.262 50.922
H 35.897 53.928 52.173
H 25.833 54.781 54.566
H 25.67 53.69 53.522
H 38.956 58.362 53.923
H 38.244 57.1 54.377
H 29.367 52.925 48.506
H 26.45 62.792 47.205
H 25.925 61.678 46.317
H 38.888 61.13 56.094
H 39.854 60.451 55.14
H 29.099 50.414 55.776
H 29.797 49.094 55.5
H 38.196 61.064 58.75
H 35.203 48.062 54.98
H 31.529 65.022 54.994
H 31.281 65.75 53.685
H 37.796 56.088 46.647
H 35.99 53.102 59.499
H 35.028 54.154 58.974
H 37.837 55.765 48.13
H 32.606 49.713 45.027
H 33.673 48.672 44.737
H 29.052 55.22 53.26
H 28.95 54.123 54.305
H 25.663 59.242 52.432
H 24.149 59.13 52.494
H 33.723 61.786 58.762
H 34.669 61.199 57.728
H 28.536 51.852 53.635
H 27.407 50.882 53.334
H 25.873 57.821 54.103
H 24.913 56.67 53.858
H 38.33 52.865 52.441
H 35.764 59.128 51.899
H 36.653 59.111 50.668
H 38.881 54.256 52.7
H 28.597 50.209 49.2
H 29.206 49.268 48.175
H 29.339 56.964 48.63
H 29.119 58.291 47.926
H 32.666 55.886 53.458
H 33.076 57.341 53.309
H 25.983 54.666 50.147
H 26.977 53.523 50.032
H 28.941 60.445 47.547
H 27.523 59.914 47.655
H 31.043 61.398 52.38
H 29.978 62.481 52.379
H 30.901 58.516 57.281
H 31.708 59.743 56.896
H 32.564 48.625 52.728
H 31.552 47.593 52.261
H 33.612 65.555 53.324
H 34.242 65.539 51.942
H 36.591 59.928 56.595
H 25.858 59.932 44.967
H 24.723 63.006 53.209
H 24.111 61.628 53.395
H 25.018 60.163 57.638
H 23.876 51.915 58.909
H 30.656 63.466 50.101
H 26.257 60.824 57.061
H 38.512 49.69 55.279
H 37.184 48.992 55.511
H 25.625 51.777 52.376
H 24.828 51.949 51.095
H 35.864 61.058 55.887
H 34.706 51.801 49.111
H 33.457 51.141 48.554
H 27.048 63.16 52.074
H 26.039 62.768 50.046
H 27.929 64.333 51.685
H 40.449 50.625 52.579
H 39.393 50.821 53.652
H 29.228 60.523 50.574
H 29.024 62.014 50.372
