289
xyz format
Na 46.336 56.344 34.969
O 48.262 50.179 24.401
O 44.251 57.008 30.865
O 34.331 51.095 28.381
O 37.519 46.932 31.979
O 38.108 54.297 27.379
O 37.534 56.033 29.941
O 35.646 45.563 28.761
O 43.128 47.633 32.968
O 38.829 49.07 31.297
O 38.916 52.01 32.064
O 34.669 53.535 32.647
O 47.015 56.218 24.12
O 40.307 48.273 23.517
O 36.757 48.855 30.077
O 41.465 50.784 30.986
O 32.903 48.551 33.609
O 42.509 44.712 31.816
O 38.092 51.296 27.954
O 41.971 55.703 32.339
O 38.091 53.985 32.814
O 48.387 53.642 30.03
O 34.394 51.205 31.691
O 43.681 50.692 23.486
O 32.331 50.555 27.192
O 44.636 45.743 30.719
O 45.616 58.072 22.814
O 39.352 44.169 24.83
O 42.253 57.387 25.26
O 40.502 58.425 30.405
O 35.981 47.245 25.677
O 42.652 54.309 27.015
O 38.927 54.71 24.712
O 42.196 50.038 26.32
O 35.277 59.994 30.358
O 33.377 48.493 26.461
O 44.903 46.984 25.397
O 44.429 56.073 26.017
O 42.041 49.464 28.779
O 33.687 53.546 30.518
O 43.851 58.259 29.088
O 41.24 62.051 28.177
O 48.498 54.113 21.474
O 41.344 52.15 24.261
O 41.784 54.903 23.623
O 39.495 59.998 27.26
O 32.397 53.663 28.188
O 35.683 51.386 26.597
O 41.037 47.328 30.485
O 44.469 54.002 29.164
O 37.055 42.936 31.153
O 40.068 52.462 29.522
O 40.437 55.974 29.266
O 44.267 51.138 30.976
O 36.886 51.982 29.661
O 41.266 46.155 26.218
O 35.44 54.642 28.067
O 39.134 55.815 32.179
O 47.394 50.357 29.947
O 46.539 55.3 29.686
O 42.724 55.002 30.394
O 42.843 53.455 32.678
O 43.822 55.229 35.077
O 45.371 53.799 33.656
O 34.707 55.884 33.208
O 44.749 49.803 27.586
O 39.988 57.619 27.493
O 44.893 51.368 25.879
O 38.848 47.839 25.813
O 38.686 49.873 33.379
O 43.197 60.591 29.351
O 45.152 54.968 22.919
O 41.364 43.526 26.576
O 35.865 45.491 31.816
O 37.132 45.325 27.148
O 33.038 56.375 30.754
O 39.405 45.462 29.705
O 45.648 52.248 27.755
O 40.098 53.051 26.619
O 38.443 43.813 32.62
O 35.059 57.15 28.243
O 49.153 52.077 26.007
O 35.275 54.96 31.084
O 39.247 47.14 34.961
O 31.907 51.609 30.454
O 40.338 50.895 27.642
O 30.718 55.772 29.42
O 46.627 52.684 24.989
O 43.399 62.901 25.854
O 38.084 50.946 24.48
O 46.74 54.581 27.217
O 47.77 49.6 26.866
O 42.973 49.986 33.639
O 42.271 46.033 28.182
O 46.348 51.833 31.199
O 35.725 48.453 33.013
O 41.843 53.022 34.695
O 34.196 51.64 34.002
O 38.956 49.056 28.378
O 36.483 51.152 35.074
O 33.741 48.832 30.02
O 36.132 57.776 33.006
O 42.38 58.904 26.848
O 44.126 45.483 23.225
H 38.792 48.246 28.876
H 33.239 51.649 34.134
H 34.46 50.762 34.303
H 39.143 49.712 29.062
H 41.15 53.047 34.023
H 35.114 45.976 31.453
H 36.352 45.204 31.034
H 37.55 44.88 27.896
H 37.294 44.729 26.406
H 32.141 54.501 27.784
H 33.219 53.433 27.738
H 37.947 49.704 33.977
H 39.427 50.044 33.974
H 36.229 47.811 33.528
H 35.104 47.908 32.513
H 41.722 52.163 35.118
H 35.456 55.846 33.815
H 33.939 55.891 33.793
H 44.395 50.602 25.565
H 44.211 52.029 26.053
H 41.865 45.587 28.936
H 41.872 46.912 28.194
H 39.138 57.662 27.947
H 40.625 57.873 28.172
H 43.141 50.784 34.155
H 43.441 50.145 32.81
H 44.026 49.252 27.262
H 44.518 49.966 28.509
H 42.513 60.266 29.951
H 43.138 61.551 29.435
H 42.256 54.185 23.183
H 41.946 54.743 24.561
H 44.762 54.875 22.041
H 45.595 54.123 23.064
H 42.071 43.704 25.944
H 41.503 44.186 27.267
H 48.272 48.931 27.349
H 46.929 49.641 27.338
H 43.45 54.072 32.251
H 42.234 53.207 31.971
H 40.287 60.022 27.812
H 38.83 60.449 27.794
H 40.627 45.882 25.548
H 42.022 46.462 25.703
H 47.158 55.091 26.512
H 47.462 54.049 27.574
H 43.471 54.553 34.484
H 45.181 52.905 33.346
H 45.892 54.185 32.94
H 41.815 54.677 30.39
H 42.686 55.798 29.85
H 45.809 55.929 29.748
H 46.826 55.191 30.601
H 34.966 54.698 27.228
H 35.317 53.725 28.34
H 37.815 50.019 24.498
H 38.41 51.108 25.374
H 44.201 51.511 30.088
H 44.008 51.868 31.552
H 37.214 51.628 30.496
H 36.002 52.304 29.88
H 39.533 55.687 29.088
H 40.941 55.62 28.522
H 39.152 47.897 34.371
H 42.104 53.933 27.715
H 43.254 54.898 27.486
H 37.532 43.206 30.359
H 35.26 59.762 29.421
H 42.046 49.363 25.647
H 42.225 50.861 25.816
H 39.01 54.873 23.764
H 39.46 53.211 29.567
H 39.769 55.017 25.072
H 31.733 52.445 30.905
H 35.009 51.063 25.986
H 36.228 51.967 26.052
H 31.696 50.942 31.118
H 40.903 47.07 31.405
H 41.992 47.256 30.363
H 44.719 54.05 30.095
H 43.684 53.44 29.165
H 49.428 52.561 25.218
H 49.639 51.245 25.946
H 42.712 48.795 28.966
H 41.261 49.143 29.248
H 39.101 43.692 31.924
H 38.05 44.671 32.418
H 43.388 57.548 28.627
H 44.327 58.717 28.384
H 47.772 54.089 22.11
H 33.616 52.858 29.845
H 45.092 56.417 25.406
H 43.723 55.76 25.438
H 33.117 54.251 30.186
H 39.225 48.618 26.239
H 38.938 47.147 26.48
H 40.927 52.874 29.366
H 40.379 52.144 24.238
H 34.073 48.918 26.978
H 32.658 48.378 27.095
H 41.596 52.059 23.333
H 44.994 47.695 26.044
H 41.646 56.983 24.627
H 42.913 57.817 24.701
H 46.911 51.768 25.101
H 47.33 53.195 25.408
H 35.243 47.185 26.296
H 36.756 47.307 26.248
H 39.584 58.228 30.182
H 40.84 57.588 30.746
H 45.65 58.069 23.779
H 44.87 57.494 22.61
H 38.728 43.466 24.61
H 39.088 45.462 30.616
H 32.661 51.437 26.981
H 31.692 50.712 27.898
H 38.814 46.078 29.256
H 37.333 55.72 29.05
H 37.838 56.939 29.803
H 43.838 46.062 30.279
H 33.628 51.778 31.826
H 43.104 50.045 23.062
H 44.196 51.055 22.754
H 34.156 50.392 32.155
H 46.424 51.79 27.409
H 45.839 52.344 28.696
H 40.813 53.337 26.036
H 39.334 52.992 26.033
H 36.929 51.651 34.378
H 41.719 59.3 26.266
H 42.427 59.517 27.592
H 42.414 55.966 33.156
H 41.198 55.213 32.645
H 37.431 54.322 32.197
H 37.618 53.942 33.655
H 33.057 49.321 30.495
H 40.173 50.819 26.693
H 41.155 51.406 27.693
H 41.867 45.079 31.196
H 31.045 54.893 29.65
H 37.913 52.106 27.46
H 37.536 50.636 27.522
H 35.772 54.471 30.416
H 35.877 55.667 31.346
H 47.55 53.341 29.656
H 33.011 48.58 32.65
H 32.737 49.471 33.849
H 42.06 51.432 30.587
H 42.026 50.01 31.12
H 34.496 48.853 30.621
H 36.688 49.689 29.596
H 36.648 49.112 31.001
H 47.109 55.279 24.321
H 47.533 56.652 24.81
H 40.259 47.546 24.15
H 39.694 48.928 23.872
H 46.015 52.735 31.29
H 46.391 51.511 32.108
H 39.471 55.637 31.293
H 38.835 56.732 32.131
H 46.897 49.637 29.538
H 47.823 49.939 30.703
H 42.982 48.102 32.137
H 35.851 56.79 27.825
H 35.227 57.038 29.187
H 35.111 45.781 27.987
H 35.562 46.342 29.325
H 43.898 56.461 31.578
H 44.254 57.898 31.239
H 38.89 54.823 27.17
H 37.377 54.828 27.039
H 39.5 52.294 32.779
H 38.087 51.806 32.513
H 38.647 50.012 31.184
H 39.782 49.003 31.163
H 49.037 49.627 24.564
H 34.001 53.745 33.311
H 35.502 53.746 33.085
H 33.641 50.826 29.001
H 34.958 50.362 28.405
H 47.851 49.776 23.626
H 33.504 56.707 31.532
H 32.178 56.106 31.099
H 38.322 47.216 32.434
H 37.703 47.12 31.05
