557
xyz format
Cl 37.891 57.32 40.296
Na 48.975 68.159 49.288
O 32.315 48.439 42.319
O 37.674 62.161 44.145
O 43.446 66.895 46.21
O 37.167 57.728 61.695
O 43.506 68.356 54.798
O 34.309 52.397 48.948
O 36.606 63.094 56.505
O 37.31 55.407 44.233
O 40.088 57.549 58.42
O 46.663 66.699 59.117
O 41.103 62.508 44.769
O 37.931 60.471 53.901
O 38.342 50.601 56.584
O 42.323 55.043 62.03
O 39.285 53.007 47.473
O 32.132 58.5 47.734
O 35.102 57.256 39.707
O 37.08 55.562 47.297
O 44.185 65.414 55.893
O 37.755 62.105 46.953
O 43.263 64.222 46.716
O 41.774 61.694 60.902
O 32.711 47.389 52.324
O 38.707 66.183 47.045
O 38.847 60.131 61.901
O 37.168 54.316 59.855
O 41.235 57.933 63.952
O 37.108 46.612 55.579
O 43.669 65.302 42.072
O 33.977 48.138 50.666
O 40.968 65.539 56.943
O 42.694 60.723 64.855
O 36.858 61.114 59.291
O 40.171 65.209 50.172
O 39.125 47.015 42.626
O 35.131 59.576 59.841
O 39.03 53.908 61.234
O 32.671 58.778 54.834
O 31.409 55.62 55.136
O 35.319 59.972 44.317
O 40.068 57.162 60.948
O 33.244 55.411 51.551
O 37.686 50.475 43.12
O 32.561 53.784 56.523
O 34.655 55.46 41.57
O 42.585 54.301 45.253
O 40.061 46.537 56.663
O 42.794 57.222 59.934
O 33.199 56.0 47.064
O 38.138 55.175 35.939
O 36.562 56.608 42.523
O 39.156 57.735 51.869
O 31.782 54.176 49.463
O 43.249 60.23 49.49
O 42.154 56.081 49.342
O 36.404 63.408 51.707
O 43.199 59.069 52.856
O 41.6 55.027 59.031
O 38.965 66.823 53.141
O 37.117 53.611 49.614
O 37.529 49.065 38.5
O 42.118 66.791 44.111
O 37.765 58.814 36.107
O 35.956 45.954 53.551
O 36.173 48.838 53.007
O 37.98 61.849 49.584
O 39.922 59.249 36.609
O 41.536 55.91 53.992
O 42.476 63.403 52.692
O 45.974 59.007 58.176
O 35.53 54.791 50.58
O 41.833 52.719 51.41
O 44.1 51.001 41.247
O 39.231 55.662 52.602
O 39.093 54.841 49.408
O 35.632 49.123 47.64
O 42.942 56.44 51.365
O 39.626 61.927 41.175
O 38.257 56.669 38.227
O 40.015 62.522 39.093
O 37.167 62.634 53.935
O 41.478 52.254 60.711
O 36.416 56.658 52.697
O 42.506 62.982 40.486
O 38.444 52.753 37.304
O 45.817 65.168 60.873
O 34.273 53.97 43.81
O 44.089 68.264 49.773
O 37.486 64.982 49.031
O 33.895 50.813 56.35
O 39.885 48.691 45.835
O 33.535 52.256 39.381
O 47.071 61.295 47.107
O 34.535 62.237 44.918
O 39.322 50.272 48.05
O 37.083 59.265 52.119
O 36.396 49.685 50.159
O 37.662 60.621 56.757
O 38.521 63.858 59.186
O 40.999 51.611 41.83
O 39.313 55.61 40.56
O 39.74 52.968 53.647
O 43.588 59.374 62.572
O 38.254 58.189 56.949
O 44.002 62.785 44.306
O 38.747 53.595 56.121
O 35.165 51.964 54.815
O 32.35 53.583 59.82
O 38.456 59.041 42.329
O 34.51 56.651 43.926
O 34.253 58.878 52.678
O 33.76 56.562 49.115
O 37.44 56.953 63.736
O 40.844 53.566 39.733
O 44.797 67.402 57.67
O 40.901 56.159 56.451
O 37.066 57.394 59.342
O 36.942 57.388 49.056
O 34.138 58.556 42.15
O 32.503 58.575 43.62
O 35.855 63.398 47.553
O 39.793 57.161 47.521
O 41.092 67.564 52.382
O 41.817 51.745 38.294
O 31.536 52.431 47.024
O 34.155 46.117 42.69
O 40.389 53.345 57.947
O 42.701 49.659 39.971
O 34.218 56.081 54.224
O 41.744 67.989 47.641
O 39.622 62.98 55.82
O 42.318 62.905 58.41
O 41.805 65.784 53.786
O 32.279 49.543 48.727
O 40.971 57.859 43.256
O 43.132 65.754 58.639
O 43.843 52.176 57.88
O 36.748 52.714 41.824
O 48.726 62.739 49.232
O 43.031 60.31 55.824
O 35.084 50.509 42.688
O 45.391 66.611 47.344
O 39.851 50.768 53.654
O 39.742 60.3 45.758
O 34.835 54.276 59.283
O 33.446 62.059 48.928
O 38.651 51.289 39.796
O 40.423 58.447 55.45
O 35.619 56.798 56.599
O 36.579 57.889 54.513
O 39.903 62.408 52.407
O 36.645 48.305 43.311
O 36.793 49.098 45.475
O 40.932 48.292 54.682
O 45.599 69.227 53.604
O 38.981 64.24 53.934
O 36.11 60.84 47.736
O 37.343 47.734 49.293
O 36.951 51.32 47.826
O 43.585 58.357 41.564
O 38.238 60.056 48.334
O 37.082 53.834 53.931
O 33.647 60.381 46.524
O 39.385 48.62 57.146
O 33.487 59.015 49.763
O 34.455 48.584 40.111
O 46.157 67.02 54.495
O 46.581 64.699 56.404
O 31.222 51.663 51.661
O 35.683 53.865 36.088
O 39.694 54.139 43.373
O 36.593 54.58 39.25
O 40.401 59.478 49.978
O 34.45 56.846 61.065
O 31.232 57.247 52.366
O 45.712 60.726 43.639
O 46.503 65.648 51.363
O 32.165 51.476 44.716
O 38.775 64.348 45.338
O 43.422 58.873 58.018
O 41.3 51.34 56.462
O 32.408 51.339 58.644
O 35.945 53.944 56.814
O 38.735 47.524 51.681
O 40.747 56.994 36.653
O 43.161 65.48 50.217
O 37.222 65.602 51.125
O 36.283 51.769 52.254
O 39.863 60.972 59.542
O 40.291 60.584 57.416
O 40.201 59.807 64.456
O 41.906 55.174 37.849
O 37.324 58.12 45.849
O 45.279 62.692 49.255
O 37.604 51.545 59.594
O 48.062 49.495 54.971
O 47.135 64.545 47.548
N 47.582 49.311 51.473
N 48.411 51.553 54.037
C 51.055 54.819 50.684
C 48.205 50.485 51.84
C 47.358 48.43 49.217
C 46.197 52.397 51.069
C 47.511 51.339 52.935
C 47.032 52.668 52.302
C 49.413 50.996 56.292
C 48.154 46.94 51.113
C 48.588 50.626 55.037
C 46.223 53.463 53.307
H 40.898 58.846 34.586
H 36.794 65.554 51.989
H 37.758 66.403 51.179
H 34.124 56.917 49.935
H 44.947 69.645 53.028
H 46.333 69.854 53.612
H 35.202 49.066 40.488
H 36.269 47.645 43.907
H 40.652 48.728 53.868
H 36.538 47.911 42.436
H 36.832 50.024 45.744
H 37.222 48.629 46.202
H 41.971 62.951 57.51
H 36.39 53.579 42.062
H 37.507 52.611 42.412
H 42.539 65.047 58.921
H 43.753 65.311 58.048
H 43.262 62.744 58.283
H 41.548 66.171 54.633
H 35.233 53.401 59.381
H 39.959 59.576 45.157
H 39.519 61.03 45.166
H 33.578 55.49 53.809
H 34.854 55.481 54.632
H 34.959 54.682 60.15
H 42.548 66.331 53.502
H 33.7 56.733 60.468
H 35.203 56.944 60.47
H 40.794 54.002 40.593
H 40.216 52.837 39.808
H 41.636 58.138 42.614
H 40.322 57.384 42.722
H 39.26 62.885 56.71
H 40.089 55.908 56.909
H 41.562 56.184 57.154
H 40.475 63.407 55.963
H 45.71 62.107 49.89
H 36.587 57.131 58.546
H 37.977 57.497 59.038
H 36.153 57.668 49.536
H 37.603 57.272 49.749
H 44.167 67.849 58.249
H 41.057 67.638 48.22
H 33.065 55.962 49.414
H 42.394 68.356 48.253
H 45.3 62.191 48.43
H 34.553 59.319 41.729
H 33.376 58.37 41.586
H 32.913 59.165 44.265
H 37.593 57.541 64.486
H 32.052 57.918 44.164
H 35.992 51.42 47.872
H 33.785 62.043 48.025
H 33.672 61.187 49.274
H 38.814 64.719 54.755
H 39.941 64.139 53.918
H 35.748 61.207 48.553
H 35.591 61.267 47.043
H 39.577 63.152 51.886
H 40.276 61.811 51.747
H 39.755 58.512 54.756
H 41.149 57.973 55.027
H 35.049 57.23 55.951
H 36.284 56.353 56.059
H 35.991 58.645 54.389
H 37.457 58.249 54.336
H 37.209 51.159 48.742
H 38.829 48.451 56.375
H 39.102 50.545 40.213
H 38.361 51.829 40.541
H 44.997 68.062 56.994
H 38.4 57.578 56.216
H 37.312 58.391 56.895
H 38.213 52.87 55.774
H 38.144 54.06 56.714
H 44.113 58.684 62.997
H 44.25 59.951 62.171
H 38.702 55.565 48.903
H 38.723 54.952 50.293
H 46.609 51.625 47.418
H 38.591 54.967 52.801
H 39.274 56.175 53.418
H 35.515 48.396 48.265
H 38.592 57.548 38.012
H 40.054 61.267 41.735
H 39.309 62.589 41.802
H 34.787 49.59 47.67
H 43.114 62.836 43.931
H 44.358 63.672 44.174
H 33.029 53.051 39.173
H 34.396 52.596 39.651
H 41.502 52.427 41.945
H 41.274 51.293 40.961
H 38.405 64.178 58.283
H 37.859 63.16 59.269
H 38.096 61.103 57.472
H 36.744 60.916 56.805
H 38.79 55.404 41.345
H 40.063 56.108 40.908
H 32.691 54.483 59.749
H 34.442 52.573 55.011
H 35.679 51.948 55.632
H 34.068 57.148 44.626
H 35.331 56.355 44.339
H 37.977 59.406 43.083
H 39.37 59.31 42.486
H 37.376 56.657 37.833
H 38.574 49.718 47.793
H 39.524 50.77 47.248
H 35.485 62.263 45.085
H 34.472 61.976 43.991
H 47.631 61.073 46.352
H 40.437 53.244 53.039
H 38.983 52.805 53.07
H 36.036 48.913 50.613
H 36.368 59.786 52.506
H 36.71 58.946 51.288
H 36.855 50.168 50.857
H 36.422 63.126 54.303
H 37.78 62.558 54.677
H 38.107 65.716 49.109
H 36.622 65.412 49.014
H 43.834 68.153 50.697
H 44.875 67.711 49.685
H 34.644 50.383 56.781
H 33.164 50.201 56.495
H 39.255 49.372 45.57
H 42.874 60.971 56.509
H 42.149 59.971 55.625
H 38.003 63.907 45.716
H 38.591 64.361 44.391
H 34.384 49.993 43.107
H 45.921 59.792 43.762
H 39.134 50.301 54.102
H 40.501 50.913 54.353
H 45.23 60.961 44.441
H 44.94 66.132 48.05
H 45.949 67.242 47.814
H 34.825 51.424 42.853
H 34.184 59.735 52.238
H 34.561 58.286 51.98
H 36.041 55.127 38.677
H 37.486 54.727 38.917
H 36.604 55.849 53.19
H 35.729 56.392 52.073
H 46.605 50.784 53.329
H 48.927 52.406 54.021
H 39.059 62.385 39.1
H 40.374 61.628 39.031
H 46.828 53.709 54.212
H 45.319 52.89 53.627
H 45.816 53.364 50.657
H 46.803 51.894 50.278
H 45.886 54.423 52.845
H 47.941 53.268 52.003
H 43.229 56.992 52.103
H 43.308 55.572 51.573
H 45.319 51.753 51.316
H 42.535 63.112 41.442
H 34.212 53.534 42.951
H 35.063 53.582 44.208
H 44.934 65.531 60.736
H 41.432 56.595 53.319
H 41.552 55.09 53.483
H 34.394 59.241 50.001
H 32.956 59.462 50.434
H 42.042 63.613 53.528
H 42.807 64.256 52.384
H 47.327 62.528 58.816
H 46.875 61.087 58.654
H 36.0 55.455 50.061
H 34.709 54.657 50.09
H 46.091 59.436 57.319
H 45.522 58.182 57.959
H 32.987 60.689 45.891
H 33.848 59.484 46.228
H 36.975 49.223 53.381
H 35.798 48.333 53.739
H 36.407 46.268 52.758
H 35.345 45.285 53.219
H 38.39 59.746 47.433
H 38.699 61.953 50.219
H 37.211 61.66 50.137
H 37.552 59.465 48.668
H 38.277 47.695 49.533
H 42.578 52.395 50.888
H 41.886 53.678 51.315
H 37.068 46.809 49.29
H 40.719 57.242 37.586
H 39.906 56.54 36.512
H 42.708 59.702 52.317
H 44.12 59.331 52.737
H 37.926 48.051 51.679
H 42.541 55.244 59.005
H 41.181 55.856 59.292
H 43.279 65.966 51.042
H 43.315 66.145 49.535
H 39.686 66.279 53.482
H 38.171 66.394 53.484
H 36.394 53.158 49.163
H 36.297 63.562 50.76
H 37.33 63.147 51.793
H 42.179 55.615 48.496
H 42.194 57.013 49.091
H 43.62 60.483 50.345
H 33.279 51.591 58.313
H 31.804 51.642 57.955
H 42.025 65.964 44.6
H 37.612 52.895 50.031
H 43.567 60.915 48.89
H 37.698 57.855 36.023
H 37.319 59.003 36.942
H 31.469 53.386 49.004
H 31.08 54.821 49.311
H 39.121 58.65 51.564
H 39.389 57.238 51.075
H 40.724 61.253 56.871
H 41.025 60.067 57.77
H 37.382 57.109 42.426
H 43.672 56.836 60.042
H 34.15 55.908 46.928
H 36.771 55.75 42.134
H 32.856 56.171 46.178
H 38.278 54.904 36.854
H 37.243 55.536 35.941
H 42.374 57.079 60.79
H 46.334 64.018 47.658
H 34.119 56.251 41.707
H 34.038 54.83 41.178
H 41.695 54.027 45.505
H 42.601 55.244 45.458
H 33.122 54.15 55.828
H 32.399 52.877 56.234
H 38.645 50.485 43.011
H 37.363 50.122 42.282
H 31.165 55.415 56.047
H 32.099 56.288 55.228
H 33.157 56.333 51.822
H 32.335 55.139 51.369
H 33.072 58.527 55.675
H 40.3 57.923 61.495
H 40.153 56.412 61.55
H 35.146 59.025 44.252
H 35.706 60.075 45.195
H 32.93 58.066 54.235
H 46.27 67.132 53.543
H 46.868 67.551 54.874
H 39.732 54.396 60.786
H 44.482 66.321 55.742
H 44.185 65.024 55.01
H 30.97 51.918 52.557
H 30.466 51.151 51.347
H 42.951 65.305 42.717
H 46.998 62.676 53.801
H 39.857 53.006 46.695
H 33.035 58.162 47.787
H 38.394 53.01 47.101
H 31.654 57.804 47.266
H 35.408 58.17 39.65
H 36.576 55.605 46.475
H 36.46 55.172 47.926
H 35.755 56.831 40.277
H 41.026 64.952 50.54
H 39.58 65.196 50.935
H 36.167 61.519 59.829
H 37.44 60.699 59.94
H 36.717 54.15 54.767
H 36.302 53.678 53.385
H 42.274 60.408 64.045
H 40.498 64.946 57.543
H 40.261 66.025 56.5
H 33.784 47.236 50.382
H 33.994 48.64 49.841
H 41.357 55.401 38.61
H 40.59 59.841 65.338
H 39.276 59.584 64.621
H 39.815 54.095 58.15
H 40.659 53.022 58.815
H 34.422 58.925 59.915
H 35.506 59.409 58.968
H 40.667 57.551 47.394
H 39.884 56.271 47.16
H 36.153 64.248 47.206
H 35.273 63.64 48.284
H 40.995 68.156 53.139
H 40.789 68.095 51.635
H 31.167 52.91 46.271
H 32.449 52.26 46.762
H 37.522 58.827 45.221
H 46.632 63.993 55.748
H 38.808 66.661 46.212
H 39.462 65.582 47.057
H 41.455 62.443 60.383
H 42.243 61.151 60.257
H 38.705 62.111 47.124
H 47.087 65.418 56.006
H 37.652 61.449 46.252
H 41.8 54.991 61.22
H 42.478 63.706 46.935
H 37.245 57.336 45.292
H 43.962 63.559 46.649
H 40.258 60.429 49.895
H 38.191 60.282 62.593
H 41.598 61.748 45.1
H 40.899 63.013 45.566
H 38.766 60.528 54.382
H 37.267 60.424 54.6
H 32.868 50.839 44.537
H 37.49 51.025 56.741
H 43.639 67.618 45.599
H 43.872 66.131 45.802
H 37.822 57.089 61.386
H 37.377 58.529 61.198
H 42.811 68.729 54.241
H 44.022 67.814 54.188
H 38.188 55.77 44.06
H 40.542 59.187 49.069
H 40.356 57.979 57.598
H 40.035 58.277 59.052
H 39.709 53.245 43.009
H 39.629 53.997 44.326
H 37.477 54.469 44.391
H 46.993 66.444 51.123
H 46.821 65.442 52.251
H 31.328 58.193 52.199
H 31.087 57.196 53.319
H 42.738 59.029 58.681
H 43.904 59.71 57.984
H 39.691 60.233 62.358
H 33.898 51.641 48.511
H 33.756 53.143 48.684
H 37.07 55.173 59.421
H 37.382 53.715 59.131
H 41.51 58.515 63.233
H 35.983 54.669 57.45
H 41.173 51.352 57.419
H 37.128 62.849 43.742
H 40.828 52.126 56.158
H 35.019 53.671 56.834
H 37.891 61.58 43.406
H 35.675 63.032 56.752
H 36.847 63.998 56.74
H 40.202 60.333 60.181
H 37.168 52.094 52.049
H 36.392 51.326 53.105
H 39.426 61.635 60.091
