54
xyz format
Cl 47.816 30.708 60.247
Na 47.489 37.29 62.212
O 43.578 31.445 62.935
O 50.286 29.566 63.09
O 38.841 33.212 60.586
O 44.171 35.509 60.377
O 41.856 27.655 60.228
O 43.991 33.441 61.356
O 48.415 31.171 65.467
O 47.945 31.018 63.198
O 40.033 31.071 63.284
O 44.969 37.1 62.414
O 39.719 29.182 61.997
O 45.519 31.339 64.045
O 41.656 30.611 61.007
O 49.787 33.289 62.008
O 47.192 36.49 59.657
O 41.42 33.649 61.33
H 48.046 34.895 63.844
H 45.245 36.179 62.327
H 44.616 37.317 61.542
H 47.833 31.934 63.482
H 48.406 31.094 62.353
H 49.904 32.808 62.836
H 48.849 33.178 61.809
H 41.732 31.202 61.766
H 42.247 29.88 61.225
H 49.622 33.708 64.825
H 40.431 30.327 63.752
H 45.05 35.113 60.411
H 44.592 32.997 60.745
H 44.571 33.751 62.063
H 44.181 36.018 59.556
H 41.204 28.15 59.717
H 41.472 27.616 61.113
H 45.173 36.512 65.107
H 39.632 28.961 61.061
H 45.662 36.1 57.386
H 47.89 31.934 65.741
H 38.748 33.656 61.438
H 39.191 32.343 60.818
H 49.409 29.231 63.317
H 41.913 33.131 60.682
H 40.907 34.263 60.791
H 43.044 38.102 60.091
H 45.48 32.297 63.935
H 45.759 31.017 63.167
H 47.471 35.7 59.177
H 42.723 36.461 57.965
H 47.772 28.846 61.893
H 43.912 31.371 62.032
H 43.618 30.541 63.269
H 41.971 31.801 58.2
H 40.868 32.842 58.267
