425
xyz format
Na 46.336 56.344 34.969
O 59.902 61.888 26.734
O 56.075 66.348 33.949
O 55.605 54.552 33.093
O 57.564 54.032 32.004
O 56.077 50.987 30.501
O 44.251 57.008 30.865
O 59.583 55.722 38.457
O 54.182 49.336 31.495
O 55.752 53.306 41.348
O 55.09 53.194 37.529
O 54.453 56.755 39.842
O 56.497 66.826 36.579
O 63.318 56.846 29.469
O 61.382 64.936 39.073
O 61.956 55.119 25.085
O 63.17 64.233 36.155
O 45.023 54.088 36.793
O 59.172 64.393 37.053
O 65.638 56.162 29.199
O 56.128 49.545 27.927
O 42.6 59.874 35.929
O 56.718 50.371 36.194
O 60.603 53.293 37.665
O 52.703 53.557 40.845
O 52.563 51.837 35.898
O 67.057 60.849 37.867
O 50.118 59.605 35.868
O 60.002 66.629 37.379
O 65.861 53.496 29.931
O 46.047 61.631 35.735
O 62.045 61.952 28.079
O 55.795 60.641 40.337
O 60.892 54.228 28.697
O 64.727 61.208 39.209
O 53.649 54.883 36.971
O 62.799 56.683 39.336
O 65.234 55.066 32.016
O 59.207 60.993 29.047
O 53.349 65.643 36.061
O 61.694 59.243 29.052
O 57.768 51.798 33.928
O 50.403 59.846 32.747
O 52.378 67.52 35.425
O 55.916 56.593 25.711
O 58.569 52.523 28.233
O 41.971 55.703 32.339
O 61.402 58.089 26.958
O 60.787 51.273 31.003
O 47.059 58.37 29.734
O 60.733 58.5 38.045
O 46.576 56.266 38.022
O 49.874 57.374 30.519
O 48.387 53.642 30.03
O 48.247 55.485 32.451
O 63.355 58.652 38.526
O 58.535 63.213 32.341
O 50.964 58.471 40.09
O 49.969 54.723 33.618
O 63.686 62.219 31.398
O 62.539 54.401 30.282
O 60.548 62.869 33.163
O 56.982 56.852 31.554
O 41.915 55.924 36.92
O 57.12 58.002 29.495
O 57.059 61.949 36.604
O 59.8 52.798 25.368
O 58.31 55.312 26.587
O 65.461 65.494 37.627
O 59.065 53.587 33.812
O 54.237 59.335 38.115
O 59.951 56.297 35.449
O 53.706 55.812 28.714
O 61.051 62.737 39.649
O 60.357 65.634 33.812
O 51.207 52.913 38.078
O 54.616 60.248 35.118
O 66.095 62.975 38.981
O 56.504 64.575 30.294
O 52.165 58.072 35.945
O 52.399 54.986 31.057
O 59.425 57.438 41.472
O 57.741 58.74 36.33
O 45.506 59.699 32.804
O 48.706 59.716 30.628
O 49.989 55.99 41.873
O 50.844 62.099 37.121
O 61.668 51.737 35.816
O 51.132 54.952 35.903
O 63.753 63.686 33.301
O 59.849 56.469 30.648
O 63.637 61.443 37.313
O 44.15 58.19 34.028
O 65.072 65.336 34.765
O 46.923 54.191 35.632
O 48.282 52.62 32.825
O 57.302 55.255 38.117
O 56.273 59.946 33.503
O 62.378 50.704 28.496
O 53.953 64.891 39.245
O 46.539 55.3 29.686
O 42.724 55.002 30.394
O 42.843 53.455 32.678
O 57.233 58.595 38.722
O 43.822 55.229 35.077
O 57.225 52.662 37.699
O 45.371 53.799 33.656
O 55.261 57.088 32.938
O 66.721 59.471 35.239
O 58.081 64.754 39.87
O 57.528 54.975 41.331
O 55.716 50.3 33.078
O 54.721 68.268 34.616
O 60.364 48.822 31.943
O 54.748 63.329 34.566
O 50.591 53.675 28.484
O 59.491 59.983 35.846
O 59.194 50.643 35.513
O 58.972 60.969 41.817
O 63.094 53.899 32.832
O 54.064 53.309 35.06
O 51.332 56.014 38.196
O 55.293 63.072 41.956
O 52.03 62.043 33.772
O 56.157 66.826 39.98
O 50.103 65.286 32.566
O 60.752 60.641 31.628
O 55.5 60.524 43.901
O 52.464 67.473 38.615
O 58.176 49.376 31.163
O 46.129 57.247 32.393
O 50.159 65.868 36.503
O 49.132 54.37 36.61
O 59.683 64.357 29.463
O 48.047 50.59 35.994
O 48.454 60.024 37.289
O 52.727 62.421 39.125
O 43.431 54.516 38.25
O 59.652 52.897 39.842
O 52.876 52.59 28.746
O 47.215 54.53 39.914
O 62.582 54.613 34.904
O 54.759 58.174 27.922
O 61.683 63.469 29.945
O 65.47 62.538 35.031
O 60.675 62.226 35.959
O 52.591 52.933 32.31
O 52.623 59.858 41.431
O 46.348 51.833 31.199
O 65.356 57.574 30.96
O 64.169 55.732 26.589
O 41.843 53.022 34.695
O 51.146 64.523 34.918
O 45.127 59.031 38.776
O 62.801 52.843 25.943
O 56.162 64.145 38.985
H 41.15 53.047 34.023
H 63.452 56.379 26.592
H 64.836 56.131 26.016
H 54.418 62.882 41.595
H 55.779 63.427 41.202
H 56.92 47.648 36.752
H 50.568 56.014 38.786
H 52.087 56.004 38.798
H 62.385 53.25 32.746
H 62.646 54.745 32.709
H 53.645 53.367 34.192
H 54.824 52.733 34.909
H 41.722 52.163 35.118
H 60.185 49.506 32.601
H 55.236 69.061 34.421
H 65.275 63.232 38.542
H 51.686 52.916 31.975
H 56.502 49.988 33.544
H 55.17 50.68 33.778
H 53.099 52.483 31.624
H 53.675 60.06 35.224
H 55.048 59.534 35.604
H 55.222 63.812 35.254
H 54.909 62.402 34.784
H 52.767 61.874 34.372
H 51.275 62.16 34.363
H 56.71 66.603 39.22
H 56.395 66.163 40.64
H 50.001 56.851 41.436
H 57.268 56.08 38.617
H 57.233 54.572 38.796
H 43.45 54.072 32.251
H 51.624 62.05 36.554
H 42.234 53.207 31.971
H 56.493 59.211 38.8
H 57.863 58.909 39.382
H 50.107 62.084 36.498
H 43.471 54.553 34.484
H 44.172 55.9 34.478
H 45.181 52.905 33.346
H 45.892 54.185 32.94
H 58.591 65.48 39.489
H 58.545 63.964 39.566
H 57.569 52.964 36.849
H 57.492 51.735 37.739
H 62.065 55.11 35.55
H 45.809 55.929 29.748
H 46.826 55.191 30.601
H 54.516 57.202 33.54
H 56.016 56.967 33.527
H 44.837 59.828 32.121
H 46.297 59.453 32.307
H 54.034 64.341 38.456
H 54.544 65.634 39.068
H 61.25 51.289 35.07
H 56.808 55.354 40.812
H 58.306 55.107 40.775
H 55.732 59.148 33.549
H 57.0 59.765 34.112
H 62.175 51.498 27.987
H 47.59 54.415 34.97
H 46.692 53.277 35.423
H 53.33 61.77 39.504
H 44.008 51.868 31.552
H 43.773 58.237 34.915
H 45.09 58.034 34.185
H 58.753 58.083 41.217
H 60.022 57.418 40.714
H 58.313 58.165 36.854
H 47.557 52.831 33.426
H 49.01 52.39 33.416
H 65.037 65.601 33.837
H 64.338 65.815 35.168
H 56.854 58.406 36.509
H 47.607 57.156 40.645
H 60.093 53.59 25.836
H 56.912 61.978 35.65
H 58.011 61.809 36.685
H 56.875 58.73 28.91
H 57.161 57.238 28.906
H 57.893 57.169 31.516
H 56.934 56.208 30.837
H 42.414 56.625 36.483
H 42.009 55.17 36.325
H 56.865 64.223 31.117
H 57.113 65.286 30.061
H 64.584 63.223 33.138
H 63.635 64.23 32.513
H 59.381 55.956 29.977
H 60.509 56.959 30.143
H 64.37 60.876 37.043
H 62.861 61.01 36.936
H 51.963 54.573 35.591
H 50.985 55.7 35.311
H 44.719 54.05 30.095
H 60.172 62.487 39.339
H 58.945 60.207 35.082
H 58.859 51.368 36.055
H 58.991 49.856 36.034
H 60.314 59.664 35.454
H 54.479 60.094 38.66
H 53.476 58.957 38.574
H 47.015 57.312 32.772
H 45.985 56.297 32.307
H 59.744 65.519 34.549
H 61.095 66.121 34.2
H 53.358 59.364 41.048
H 52.204 60.274 40.668
H 50.743 52.927 38.925
H 51.204 53.837 37.8
H 50.785 54.601 28.675
H 55.793 60.689 42.997
H 59.913 61.028 41.609
H 58.883 60.102 42.232
H 59.021 56.475 35.637
H 59.941 55.413 35.061
H 54.106 55.098 29.226
H 53.015 56.152 29.295
H 53.219 54.905 31.561
H 52.452 54.267 30.415
H 51.911 57.313 36.485
H 52.664 58.63 36.555
H 58.844 53.532 34.75
H 59.828 53.002 33.722
H 64.528 65.318 37.804
H 60.815 61.489 31.17
H 59.913 60.699 32.102
H 62.774 62.362 31.679
H 48.614 59.083 37.436
H 47.679 60.212 37.833
H 61.018 63.696 33.0
H 61.253 62.238 33.352
H 50.535 54.855 32.847
H 50.379 53.98 34.078
H 63.4 54.642 30.645
H 62.053 55.235 30.271
H 48.721 56.157 31.944
H 48.452 54.663 31.989
H 57.88 63.109 33.043
H 58.241 62.595 31.66
H 58.461 50.26 31.426
H 57.243 49.353 31.41
H 50.611 65.296 37.137
H 63.407 58.985 37.621
H 64.278 58.603 38.805
H 51.193 58.913 39.263
H 51.533 57.691 40.098
H 50.553 56.687 30.536
H 45.734 58.568 38.186
H 47.12 56.892 38.516
H 45.99 55.892 38.693
H 44.485 59.432 38.177
H 61.607 51.156 30.506
H 60.101 51.23 30.326
H 60.867 57.826 38.723
H 60.964 59.324 38.491
H 46.243 58.371 30.251
H 47.538 57.601 30.065
H 51.832 65.092 34.548
H 51.6 64.044 35.623
H 56.347 64.472 38.095
H 56.448 63.223 38.954
H 42.414 55.966 33.156
H 41.198 55.213 32.645
H 61.484 57.379 26.309
H 61.876 58.826 26.554
H 59.373 51.989 28.26
H 57.96 51.994 27.704
H 48.746 55.252 36.686
H 49.016 53.993 37.491
H 47.853 51.308 36.61
H 50.095 60.603 33.261
H 51.326 60.057 32.56
H 59.334 60.505 29.87
H 59.874 61.69 29.088
H 60.985 59.058 29.68
H 61.288 59.848 28.419
H 53.049 67.83 36.046
H 51.631 68.111 35.581
H 57.057 52.109 33.354
H 58.388 51.38 33.318
H 55.895 56.269 26.621
H 59.216 63.971 30.214
H 59.205 64.018 28.696
H 53.556 64.745 36.346
H 54.191 65.975 35.723
H 60.785 67.186 37.284
H 59.447 67.117 37.999
H 50.638 59.48 36.671
H 50.617 60.265 35.372
H 65.172 54.644 32.882
H 53.073 53.784 39.983
H 53.483 51.922 29.088
H 52.107 52.079 28.464
H 62.497 55.796 39.566
H 63.282 56.971 40.12
H 53.422 55.817 37.055
H 53.335 54.495 37.797
H 65.163 58.348 31.503
H 66.319 57.516 30.977
H 56.506 60.386 40.938
H 55.074 60.891 40.927
H 46.015 52.735 31.29
H 46.391 51.511 32.108
H 46.869 54.091 40.701
H 48.17 54.41 39.984
H 55.005 57.599 28.657
H 54.247 57.597 27.341
H 65.133 53.292 30.531
H 53.13 51.332 35.302
H 52.026 52.374 35.303
H 42.647 54.285 38.764
H 43.509 55.471 38.366
H 44.456 52.035 38.25
H 44.765 53.072 39.316
H 46.03 61.192 34.875
H 52.864 66.723 38.157
H 56.476 48.815 27.399
H 43.898 56.461 31.578
H 44.254 57.898 31.239
H 56.124 65.741 34.698
H 60.536 55.62 38.575
H 59.426 55.398 37.562
H 56.854 66.127 33.424
H 59.813 63.828 37.503
H 58.324 63.971 37.241
H 65.45 56.863 28.562
H 65.415 55.353 28.72
H 63.485 63.321 36.176
H 62.696 64.292 35.316
H 45.669 53.765 37.434
H 45.086 55.048 36.869
H 59.695 53.099 37.401
H 60.972 53.748 36.898
H 43.392 60.348 35.645
H 56.473 51.032 35.534
H 56.839 49.565 35.677
H 42.917 59.302 36.639
H 54.799 56.23 40.574
H 54.346 56.113 39.129
H 54.451 52.605 37.109
H 55.486 53.668 36.787
H 53.486 49.532 30.855
H 54.326 48.387 31.395
H 55.816 66.991 37.244
H 57.256 67.33 36.899
H 62.293 61.467 27.282
H 62.065 62.876 27.801
H 60.96 54.281 27.736
H 61.033 53.292 28.886
H 63.923 60.709 39.399
H 65.206 61.198 40.047
H 62.377 64.061 29.631
H 56.186 54.101 33.718
H 54.985 55.028 33.659
H 61.388 63.877 30.769
H 58.037 54.856 32.178
H 57.405 54.055 31.052
H 63.373 56.171 28.781
H 63.233 57.671 28.975
H 61.236 65.419 39.896
H 62.208 65.305 38.734
H 60.061 62.128 35.221
H 59.439 62.71 26.94
H 61.514 62.44 35.533
H 56.147 51.587 29.748
H 55.732 51.547 31.208
H 64.886 61.773 35.101
H 65.914 62.568 35.888
