36
xyz format
O 55.605 54.552 33.093
O 57.564 54.032 32.004
O 63.318 56.846 29.469
O 60.892 54.228 28.697
O 61.694 59.243 29.052
O 57.768 51.798 33.928
O 56.982 56.852 31.554
O 57.12 58.002 29.495
O 59.065 53.587 33.812
O 59.849 56.469 30.648
O 56.273 59.946 33.503
O 55.261 57.088 32.938
O 54.064 53.309 35.06
O 54.759 58.174 27.922
H 53.645 53.367 34.192
H 54.824 52.733 34.909
H 54.516 57.202 33.54
H 56.016 56.967 33.527
H 55.732 59.148 33.549
H 56.875 58.73 28.91
H 57.161 57.238 28.906
H 57.893 57.169 31.516
H 56.934 56.208 30.837
H 59.381 55.956 29.977
H 60.509 56.959 30.143
H 53.219 54.905 31.561
H 58.844 53.532 34.75
H 62.053 55.235 30.271
H 60.985 59.058 29.68
H 57.057 52.109 33.354
H 55.895 56.269 26.621
H 55.005 57.599 28.657
H 56.186 54.101 33.718
H 54.985 55.028 33.659
H 58.037 54.856 32.178
H 57.405 54.055 31.052
