222
xyz format
O 59.509 53.567 70.493
O 58.228 51.797 74.53
O 58.796 59.374 64.961
O 63.682 51.245 66.618
O 64.423 56.929 66.829
O 56.041 56.892 75.006
O 56.871 54.921 68.371
O 57.393 50.847 72.057
O 62.268 49.56 69.406
O 59.521 47.544 70.035
O 59.514 53.361 75.42
O 57.996 62.756 72.8
O 59.315 59.568 71.552
O 63.065 48.889 72.287
O 51.219 52.43 70.538
O 63.319 59.946 67.882
O 62.184 60.764 71.62
O 55.974 50.296 69.876
O 56.347 56.773 69.443
O 49.298 56.784 75.844
O 62.87 59.15 73.204
O 59.769 50.395 70.355
O 61.378 51.59 68.789
O 53.87 53.66 68.672
O 51.126 56.387 77.589
O 55.016 54.74 74.581
O 55.715 59.118 75.927
O 58.954 55.719 71.991
O 64.364 61.958 70.047
O 60.088 50.102 73.471
O 53.887 51.634 67.558
O 52.723 54.884 75.119
O 60.257 52.488 65.709
O 62.059 55.315 65.918
O 54.183 62.051 70.321
O 61.444 47.632 73.521
O 60.761 57.636 74.462
O 54.925 60.006 67.785
O 52.347 55.403 73.0
O 53.994 56.471 77.582
O 52.045 49.715 73.938
O 60.418 62.155 72.505
O 61.329 57.219 66.991
O 58.218 51.392 64.638
O 58.174 58.5 75.385
O 62.029 62.718 69.551
O 57.734 62.056 70.046
O 59.26 56.624 70.009
O 59.672 53.905 63.461
O 51.398 61.435 71.409
O 61.479 55.336 74.924
O 58.291 55.897 65.975
O 55.395 58.188 65.856
O 53.821 50.34 72.797
O 59.971 48.903 67.52
O 60.908 65.06 71.969
O 57.868 52.088 68.687
O 51.159 60.212 73.222
O 55.106 54.612 70.907
O 54.29 59.603 71.774
O 58.977 48.314 76.715
O 63.215 53.304 68.294
O 65.422 51.232 71.391
O 58.313 64.255 69.655
O 54.572 51.969 70.214
O 50.516 53.01 74.369
O 57.144 58.857 72.231
O 55.033 62.941 73.36
O 53.678 52.437 73.681
O 56.957 60.557 66.723
O 57.812 48.611 72.06
O 59.477 54.624 67.64
O 58.118 55.763 75.911
O 56.405 50.712 66.119
O 62.105 55.706 69.222
O 61.067 53.359 73.111
O 63.539 52.401 73.384
O 60.517 60.802 70.185
O 62.754 63.941 71.446
O 59.188 61.6 68.093
O 58.454 57.81 67.415
O 62.08 57.686 71.165
H 53.972 60.508 71.883
H 54.331 59.265 72.677
H 60.765 60.61 69.273
H 60.007 61.619 70.117
H 61.296 52.978 73.968
H 61.081 52.601 72.513
H 62.719 56.111 68.596
H 61.247 55.79 68.788
H 54.539 50.737 72.289
H 53.283 49.899 72.128
H 63.065 51.726 72.882
H 64.058 52.863 72.714
H 54.436 55.2 70.535
H 55.914 55.138 70.879
H 56.53 51.468 66.706
H 56.297 49.967 66.724
H 59.461 57.353 69.409
H 59.131 55.871 69.42
H 57.06 61.458 70.391
H 57.393 62.312 69.18
H 58.521 56.391 76.523
H 57.679 55.128 76.491
H 52.008 62.149 71.633
H 51.93 60.841 70.865
H 59.214 56.161 66.07
H 57.892 56.63 65.489
H 60.68 55.175 74.407
H 62.165 55.456 74.256
H 53.592 52.949 74.495
H 53.645 53.106 72.985
H 55.61 59.365 68.012
H 55.16 60.785 68.304
H 55.163 62.128 72.856
H 61.466 58.1 67.362
H 61.037 57.394 66.088
H 57.531 57.983 72.369
H 56.279 58.667 71.848
H 64.888 62.586 69.535
H 65.023 61.354 70.412
H 50.118 53.175 73.505
H 51.406 52.703 74.157
H 61.118 61.948 73.137
H 59.787 61.434 72.618
H 59.912 49.591 74.272
H 60.348 49.433 72.825
H 59.622 55.961 72.644
H 58.123 55.784 72.478
H 54.238 52.482 70.96
H 53.808 51.454 69.928
H 58.653 60.802 68.194
H 59.541 61.528 67.198
H 51.768 50.587 73.63
H 60.029 51.764 66.305
H 61.095 52.816 66.057
H 52.857 55.181 76.028
H 51.785 54.661 75.086
H 51.68 54.719 72.863
H 52.259 55.969 72.223
H 53.352 55.915 78.042
H 53.543 57.32 77.497
H 55.074 62.366 70.123
H 53.617 62.596 69.76
H 65.996 51.975 71.616
H 65.809 50.49 71.871
H 60.312 64.305 72.047
H 57.204 52.096 69.388
H 58.384 51.293 68.87
H 60.141 49.668 66.957
H 59.196 49.164 68.033
H 61.089 57.27 73.631
H 60.001 58.167 74.194
H 62.814 55.358 66.518
H 61.335 55.016 66.482
H 60.823 47.288 74.176
H 62.219 47.871 74.044
H 55.76 58.813 76.841
H 54.093 54.561 68.406
H 53.216 53.783 69.372
H 55.803 54.328 74.202
H 54.49 54.982 73.809
H 56.131 59.989 75.955
H 50.735 55.813 78.259
H 50.563 57.172 77.601
H 59.201 49.747 70.789
H 60.287 50.768 71.079
H 60.548 51.215 68.469
H 61.099 52.35 69.315
H 62.022 59.262 73.651
H 63.419 59.851 73.576
H 62.593 59.649 68.444
H 49.021 57.324 75.092
H 49.685 56.001 75.434
H 56.608 57.143 70.296
H 55.385 56.856 69.442
H 57.545 57.758 67.735
H 58.774 58.649 67.769
H 55.874 49.9 70.751
H 56.701 49.799 69.481
H 62.74 57.302 71.756
H 61.258 57.255 71.429
H 62.219 59.88 71.233
H 63.111 61.026 71.68
H 60.399 47.926 69.909
H 59.263 47.268 69.147
H 58.823 53.884 74.995
H 59.89 53.966 76.072
H 63.094 49.766 71.884
H 51.946 52.831 71.031
H 57.141 63.05 72.464
H 59.174 58.723 71.107
H 62.141 49.246 68.502
H 63.193 49.358 69.592
H 63.467 63.314 71.624
H 58.297 63.497 73.341
H 58.654 60.149 71.156
H 57.481 55.567 67.994
H 57.453 54.248 68.745
H 57.484 51.647 71.524
H 56.681 51.061 72.673
H 62.902 50.931 67.092
H 63.928 57.532 67.396
H 64.937 56.399 67.451
H 62.339 62.131 68.849
H 62.394 63.578 69.308
H 57.799 58.226 74.539
H 58.231 59.461 75.311
H 57.462 48.38 71.191
H 57.563 47.861 72.614
H 59.286 54.093 66.857
H 59.66 53.968 68.323
H 58.999 58.527 65.378
H 59.295 59.347 64.135
H 63.808 53.811 67.725
H 62.391 53.27 67.792
H 56.61 56.379 74.418
H 55.413 57.314 74.406
H 58.294 52.192 73.652
H 58.091 50.859 74.349
H 59.305 52.73 70.928
H 60.101 54.01 71.115
