199
xyz format
Cl 62.646 58.926 60.688
O 48.289 54.675 60.198
O 55.968 59.682 62.992
O 58.119 54.41 60.805
O 49.199 54.548 65.05
O 58.796 59.374 64.961
O 45.343 58.568 57.018
O 49.235 60.47 57.866
O 51.694 59.22 57.721
O 52.85 63.112 63.59
O 44.439 61.737 54.351
O 45.731 53.856 60.759
O 61.826 62.956 59.73
O 44.804 60.501 60.742
O 47.926 61.005 61.121
O 51.385 60.879 53.472
O 55.729 60.392 59.571
O 51.724 53.542 64.725
O 52.78 57.819 67.129
O 49.581 59.632 54.869
O 60.777 65.268 60.86
O 58.991 62.781 56.522
O 56.551 62.57 64.886
O 52.149 60.996 55.772
O 45.306 56.67 62.387
O 47.052 57.775 61.629
O 44.16 58.405 59.33
O 53.335 59.822 59.477
O 52.648 62.02 61.581
O 59.661 62.547 61.16
O 47.15 59.032 58.231
O 42.88 56.545 56.125
O 47.78 58.377 55.011
O 52.245 51.887 61.515
O 54.925 60.006 67.785
O 61.59 60.384 58.908
O 54.662 56.543 64.089
O 52.916 55.211 65.598
O 59.691 61.441 58.761
O 50.022 54.357 61.744
O 43.627 58.729 63.446
O 54.39 58.038 61.041
O 51.36 54.265 68.284
O 45.654 62.323 59.04
O 42.855 56.962 61.352
O 55.395 58.188 65.856
O 49.094 57.43 60.789
O 47.129 60.991 55.846
O 54.031 61.468 65.908
O 59.831 58.823 61.169
O 53.778 58.748 63.227
O 56.364 54.83 63.474
O 43.674 60.899 63.094
O 45.143 55.064 64.304
O 57.663 61.028 61.846
O 50.522 60.756 60.53
O 55.939 60.065 56.213
O 56.236 63.753 58.922
O 45.915 63.195 61.624
O 51.743 56.608 61.237
O 58.796 56.877 59.666
O 49.576 58.58 52.507
O 57.798 60.473 57.314
O 60.544 60.771 65.385
O 50.585 56.881 63.867
O 56.957 60.557 66.723
O 53.589 53.425 63.084
O 51.17 59.369 62.253
O 48.602 65.852 62.258
O 56.131 58.195 58.527
O 47.472 63.353 60.031
O 46.676 54.87 62.737
O 45.936 66.161 60.452
C 48.124 52.651 57.501
H 53.717 56.416 63.94
H 44.285 59.029 64.086
H 54.834 56.055 64.904
H 43.225 60.715 62.26
H 44.557 61.179 62.823
H 56.188 59.276 55.716
H 56.147 60.79 55.611
H 60.056 59.601 61.693
H 60.56 58.213 61.339
H 49.166 57.257 59.842
H 48.836 56.576 61.159
H 43.34 56.484 60.668
H 42.975 57.89 61.111
H 47.936 53.024 58.534
H 57.063 55.246 63.993
H 55.89 54.289 64.118
H 52.996 58.483 63.727
H 53.729 59.712 63.219
H 56.07 57.841 65.259
H 54.717 58.532 65.261
H 51.996 59.137 61.81
H 50.743 58.516 62.403
H 53.866 57.27 60.781
H 60.06 61.316 64.752
H 55.021 57.679 61.677
H 60.824 55.595 59.465
H 57.709 60.843 66.19
H 56.236 60.492 66.085
H 51.373 56.572 64.331
H 50.306 57.651 64.378
H 57.892 56.63 65.489
H 57.48 61.384 57.351
H 57.259 60.015 57.971
H 48.918 58.254 53.133
H 55.61 59.365 68.012
H 58.401 57.716 59.4
H 58.217 56.565 60.373
H 51.934 55.783 60.774
H 50.949 56.406 61.748
H 45.991 62.268 58.137
H 52.824 59.013 59.601
H 53.859 59.644 58.686
H 58.645 57.378 63.401
H 43.74 58.773 58.543
H 44.771 57.746 58.977
H 53.215 64.64 58.54
H 43.158 60.619 56.919
H 58.653 60.802 68.194
H 59.541 61.528 67.198
H 53.56 54.808 66.194
H 52.279 55.623 66.194
H 59.275 60.602 58.994
H 59.94 61.325 57.836
H 52.619 61.279 60.963
H 52.599 62.796 61.009
H 59.517 62.579 62.113
H 59.584 61.609 60.947
H 46.957 59.579 59.002
H 47.376 58.173 58.611
H 50.956 54.17 61.906
H 49.563 53.632 62.186
H 47.452 60.45 56.577
H 46.262 61.291 56.148
H 45.029 55.997 64.522
H 47.132 58.827 54.454
H 47.611 57.441 54.849
H 42.498 57.431 56.156
H 43.628 56.596 56.734
H 45.253 62.649 61.181
H 46.162 62.674 62.398
H 57.38 62.238 64.52
H 46.846 57.686 60.69
H 46.996 58.725 61.787
H 44.903 57.508 62.127
H 45.323 56.16 61.568
H 50.258 58.952 54.765
H 49.447 59.678 55.824
H 43.69 54.437 61.394
H 56.568 60.642 59.977
H 55.109 61.054 59.9
H 51.067 53.562 64.018
H 51.225 53.806 65.508
H 60.303 64.644 61.423
H 55.573 62.913 56.614
H 54.46 62.172 55.894
H 47.204 64.28 60.002
H 48.163 63.334 60.704
H 52.079 60.238 53.273
H 50.588 60.476 53.105
H 47.304 54.178 62.981
H 47.239 55.623 62.516
H 48.487 60.222 61.173
H 47.885 61.196 60.175
H 55.369 63.333 58.861
H 56.082 64.646 58.592
H 52.033 60.087 55.468
H 52.764 60.913 56.512
H 60.983 63.291 59.402
H 45.068 60.35 59.826
H 45.119 59.714 61.205
H 44.534 58.638 56.496
H 46.038 58.488 56.352
H 53.197 52.59 63.37
H 53.735 53.905 63.909
H 50.836 58.953 57.369
H 51.519 60.08 58.123
H 48.838 61.286 58.194
H 49.155 59.86 58.61
H 53.454 63.496 64.238
H 52.442 63.882 63.174
H 58.999 58.527 65.378
H 59.295 59.347 64.135
H 50.577 61.345 59.767
H 50.717 59.885 60.162
H 49.091 54.498 59.69
H 48.068 53.818 60.583
H 58.032 60.418 62.498
H 57.47 61.822 62.359
H 49.361 55.443 65.373
H 55.929 58.108 59.467
H 56.484 57.329 58.287
H 48.189 64.985 62.158
H 61.728 59.697 63.43
H 55.971 59.639 62.028
H 56.11 58.767 63.263
