691
xyz format
Cl 39.106 49.969 60.184
Cl 31.247 50.946 48.398
Na 35.918 45.033 51.34
Na 41.179 68.089 69.505
Na 36.045 52.744 54.029
O 34.03 51.908 48.431
O 30.247 50.397 57.83
O 33.994 67.104 54.839
O 28.13 60.544 48.062
O 40.501 62.894 63.585
O 41.834 69.645 59.551
O 42.041 62.691 62.027
O 30.136 64.261 49.929
O 40.864 56.219 58.793
O 39.645 51.124 52.771
O 29.178 61.196 49.884
O 33.588 72.568 49.856
O 38.806 41.967 52.515
O 26.849 60.057 54.334
O 31.718 50.328 50.467
O 42.228 51.872 52.946
O 30.798 55.98 50.701
O 36.137 54.707 47.034
O 30.685 62.111 51.835
O 32.708 61.385 63.482
O 32.848 56.56 52.79
O 41.751 65.527 63.853
O 32.229 48.197 51.93
O 37.82 65.132 59.359
O 31.491 59.184 57.652
O 45.343 58.568 57.018
O 39.083 52.778 54.927
O 25.545 57.242 53.404
O 30.128 53.045 49.088
O 35.998 54.064 51.222
O 38.11 53.8 52.342
O 38.685 57.888 54.719
O 37.013 71.187 63.435
O 36.685 59.221 51.626
O 39.582 63.43 60.735
O 39.93 54.031 60.539
O 29.263 57.353 47.75
O 35.527 64.484 62.437
O 24.982 60.288 44.773
O 39.239 72.091 57.694
O 44.439 61.737 54.351
O 26.283 62.573 46.28
O 39.375 60.307 55.966
O 41.376 64.83 58.256
O 24.853 62.174 53.682
O 43.637 63.062 63.495
O 36.115 47.947 57.122
O 29.977 50.025 55.681
O 39.841 71.263 61.205
O 38.696 57.437 57.182
O 33.794 56.833 46.106
O 43.983 64.926 61.101
O 38.371 70.189 48.289
O 37.775 60.29 59.145
O 32.782 67.915 58.422
O 34.983 47.227 55.413
O 39.659 72.374 53.94
O 33.895 62.403 48.551
O 42.458 57.269 53.963
O 31.879 55.375 48.019
O 41.645 65.357 60.377
O 35.516 72.018 57.872
O 39.261 63.363 48.649
O 42.7 66.81 51.56
O 42.547 54.312 57.931
O 39.899 60.189 68.296
O 36.158 68.14 47.875
O 25.847 57.847 47.837
O 33.429 56.825 48.595
O 32.823 52.029 52.37
O 44.804 60.501 60.742
O 44.145 66.322 55.699
O 30.114 49.385 53.351
O 36.647 56.414 65.243
O 33.878 56.475 59.72
O 31.547 56.696 55.17
O 33.453 54.701 51.781
O 37.778 52.699 61.682
O 31.427 60.912 59.062
O 28.664 61.178 56.943
O 36.026 71.251 53.232
O 36.04 57.475 57.67
O 33.386 46.348 50.318
O 35.803 57.681 53.654
O 38.784 44.157 50.705
O 36.313 55.225 62.82
O 34.184 48.452 59.501
O 32.081 47.191 54.461
O 34.074 64.267 46.582
O 40.58 66.22 48.573
O 35.956 53.697 65.118
O 44.576 64.489 65.446
O 36.625 68.739 52.341
O 41.727 60.218 65.82
O 36.399 47.621 52.922
O 30.054 65.574 59.418
O 39.372 47.593 53.489
O 38.772 59.287 62.177
O 32.843 62.11 56.765
O 28.001 55.325 50.766
O 29.895 70.243 51.165
O 31.681 64.007 47.357
O 44.16 58.405 59.33
O 38.35 61.942 61.796
O 37.42 62.98 54.343
O 42.291 57.22 66.609
O 38.248 67.756 61.842
O 32.129 64.169 59.621
O 34.353 42.37 49.495
O 40.293 57.193 52.427
O 39.605 58.243 60.413
O 34.687 59.579 60.557
O 43.485 63.394 56.677
O 40.328 58.319 65.298
O 42.88 56.545 56.125
O 38.714 68.244 49.258
O 30.135 65.473 56.644
O 27.349 60.726 52.297
O 41.098 59.129 57.18
O 29.409 64.522 61.444
O 36.032 56.502 49.186
O 33.071 56.098 65.026
O 38.01 56.638 51.62
O 36.959 55.005 57.413
O 35.314 65.152 59.461
O 37.86 65.411 53.471
O 31.949 61.294 48.233
O 33.56 58.405 51.13
O 29.75 66.513 51.072
O 38.568 53.967 50.198
O 36.886 65.07 47.437
O 39.761 69.231 57.438
O 37.459 63.726 63.168
O 35.002 50.37 53.825
O 34.865 50.637 46.801
O 39.239 49.041 51.133
O 34.204 69.5 60.717
O 32.718 71.191 58.814
O 39.539 65.561 66.666
O 32.846 50.038 56.493
O 42.262 60.957 56.794
O 32.416 70.089 49.615
O 38.094 50.989 49.754
O 42.977 69.149 57.488
O 41.194 61.252 59.64
O 40.461 51.484 50.229
O 43.83 66.339 58.582
O 35.955 69.295 58.382
O 43.627 58.729 63.446
O 43.634 67.596 53.742
O 37.313 73.439 56.155
O 34.639 70.179 56.839
O 34.066 53.885 49.408
O 26.615 54.378 57.226
O 41.672 65.82 55.48
O 40.68 60.52 63.249
O 40.225 56.434 62.301
O 30.982 59.397 51.281
O 34.394 52.84 46.177
O 34.127 65.404 56.244
O 43.63 68.584 47.013
O 32.798 64.958 50.387
O 37.019 62.904 56.579
O 37.205 51.46 46.884
O 30.955 54.379 56.495
O 39.893 67.174 52.309
O 34.107 60.949 58.473
O 37.689 60.247 64.995
O 28.495 54.48 53.532
O 40.951 70.726 63.494
O 24.858 59.765 52.328
O 40.517 45.963 51.754
O 40.938 68.178 49.511
O 38.789 62.81 65.645
O 27.82 67.286 56.005
O 35.656 53.484 58.677
O 35.661 60.035 66.811
O 28.553 66.023 53.282
O 36.171 58.634 61.883
O 34.377 62.425 61.472
O 44.499 64.204 53.591
O 37.91 49.795 57.98
O 42.855 56.962 61.352
O 36.382 62.745 59.865
O 36.446 54.914 54.061
O 36.941 52.18 56.464
O 28.277 58.144 45.471
O 26.198 57.436 59.973
O 35.709 42.973 52.475
O 33.973 58.652 63.702
O 27.203 64.702 56.516
O 47.129 60.991 55.846
O 39.358 65.408 61.99
O 35.522 60.678 62.854
O 30.695 53.439 53.104
O 40.191 69.018 55.291
O 37.406 67.172 63.96
O 34.831 63.241 53.989
O 38.105 64.816 56.457
O 31.187 61.561 44.972
O 28.05 64.412 46.663
O 32.056 63.298 53.082
O 34.279 58.0 56.305
O 24.032 62.468 48.26
O 27.778 54.359 59.092
O 35.492 58.963 47.841
O 41.558 54.762 51.557
O 33.695 66.003 62.934
O 46.555 64.265 64.237
O 43.674 60.899 63.094
O 44.074 66.51 62.768
O 37.411 49.635 61.542
O 38.824 72.795 48.166
O 41.164 55.004 53.881
O 35.976 50.126 56.944
O 40.52 56.216 56.62
O 30.114 62.254 55.04
O 34.128 64.994 52.731
O 31.733 59.795 54.694
O 27.727 63.301 54.51
O 26.189 66.308 50.019
O 26.172 65.533 53.707
O 36.632 47.66 50.624
O 37.526 45.597 52.84
O 32.643 70.762 53.145
O 40.443 52.733 48.418
O 34.86 72.365 55.699
O 24.417 57.124 57.337
O 31.202 67.111 60.721
O 32.728 63.924 62.354
O 33.372 60.588 52.768
O 38.043 57.227 62.013
O 36.908 47.584 47.915
O 40.496 68.562 45.922
O 38.712 52.742 57.567
O 29.809 57.686 52.617
O 37.263 50.647 53.136
O 41.481 52.655 56.237
O 30.183 62.742 64.217
O 45.915 63.195 61.624
O 41.748 55.727 63.732
O 28.119 58.058 51.151
O 37.832 70.091 54.695
O 36.339 63.293 50.164
O 38.747 46.415 48.462
O 42.133 66.588 46.963
O 30.045 68.417 54.438
O 40.689 60.948 52.072
O 34.262 46.965 52.847
O 35.371 50.464 60.959
O 39.716 67.168 59.899
O 31.771 65.823 54.513
O 37.87 56.507 47.514
O 38.197 65.74 51.026
O 34.507 67.204 46.762
O 25.51 60.993 57.648
O 25.482 63.546 50.171
O 37.492 54.612 60.328
O 42.354 69.544 51.287
O 27.915 63.368 51.704
O 35.559 67.152 51.233
O 36.74 60.665 55.989
O 27.673 64.819 49.37
O 35.062 50.156 51.212
O 37.765 49.304 54.806
O 33.943 44.592 49.112
O 40.618 48.928 58.161
O 32.35 53.405 61.08
O 31.841 68.853 61.903
O 28.419 58.854 61.089
O 27.274 56.449 55.15
O 27.133 58.615 57.404
O 27.628 63.755 58.981
H 32.406 63.661 52.259
H 32.675 63.613 53.753
H 44.285 59.029 64.086
H 44.302 66.018 63.566
H 44.668 67.27 62.788
H 43.225 60.715 62.26
H 44.557 61.179 62.823
H 38.742 65.061 57.14
H 37.724 65.66 56.185
H 43.01 58.21 63.978
H 28.679 65.066 46.992
H 38.816 65.598 66.027
H 34.804 62.462 54.558
H 34.685 63.975 54.599
H 32.22 70.367 58.748
H 26.901 55.283 57.048
H 33.015 71.206 59.733
H 33.146 66.758 63.179
H 36.12 52.629 56.226
H 37.133 51.629 55.694
H 34.915 58.446 63.734
H 33.853 59.043 62.828
H 26.745 65.363 55.981
H 38.003 54.412 59.534
H 36.734 55.108 59.993
H 27.444 65.183 57.318
H 37.253 55.153 54.533
H 35.792 54.81 54.764
H 37.165 63.032 59.378
H 35.791 62.417 59.176
H 42.975 57.89 61.111
H 33.703 66.029 61.969
H 34.642 70.333 60.931
H 34.933 68.873 60.632
H 41.371 53.965 51.047
H 35.941 59.571 48.441
H 35.045 58.346 48.433
H 34.222 58.802 56.839
H 33.928 57.313 56.884
H 34.813 67.242 50.627
H 36.262 66.79 50.68
H 27.922 57.249 45.543
H 27.568 58.7 45.819
H 27.156 57.344 59.901
H 26.034 58.346 59.698
H 30.194 67.042 51.746
H 28.836 66.822 51.104
H 34.721 49.736 50.412
H 33.975 61.552 61.382
H 34.188 62.854 60.628
H 34.24 66.785 47.589
H 36.453 73.853 56.297
H 31.593 59.294 52.022
H 31.561 59.566 50.528
H 38.295 65.428 50.117
H 38.266 49.035 57.503
H 38.099 50.541 57.398
H 38.852 65.226 51.515
H 43.173 68.226 53.175
H 43.064 66.817 53.729
H 28.382 66.109 54.229
H 29.175 65.286 53.228
H 35.825 57.749 61.713
H 36.752 58.801 61.131
H 35.113 59.276 66.571
H 39.072 67.617 59.338
H 40.221 66.626 59.28
H 33.829 54.491 48.694
H 34.362 47.513 52.059
H 33.219 53.519 49.69
H 35.802 50.867 60.195
H 31.496 53.928 55.834
H 30.228 54.75 55.98
H 36.339 63.389 57.065
H 37.611 62.584 57.271
H 34.971 65.48 56.706
H 33.478 65.672 56.907
H 35.606 50.88 50.877
H 40.094 60.579 64.014
H 41.552 60.379 63.638
H 36.85 63.194 63.695
H 35.393 70.153 56.237
H 40.823 57.189 62.371
H 40.362 56.116 61.4
H 37.963 64.218 63.828
H 34.623 51.159 53.418
H 41.484 65.54 54.575
H 35.356 50.691 54.664
H 41.425 66.753 55.488
H 31.938 65.247 50.717
H 32.578 64.417 49.618
H 34.24 69.305 56.745
H 41.492 55.071 64.392
H 33.113 53.67 60.55
H 40.145 58.063 52.036
H 40.361 56.607 51.663
H 35.662 72.094 55.234
H 31.635 53.961 60.745
H 34.194 72.408 55.001
H 40.071 58.592 59.643
H 38.684 58.209 60.128
H 33.184 69.989 52.94
H 32.208 70.524 53.973
H 37.701 68.07 61.112
H 39.072 68.248 61.74
H 30.68 57.406 52.927
H 29.313 57.834 53.432
H 32.973 49.305 57.108
H 43.74 58.773 58.543
H 32.698 50.798 57.069
H 41.165 51.824 55.86
H 31.706 63.5 60.173
H 32.828 64.524 60.185
H 37.394 62.019 61.679
H 38.447 61.684 62.721
H 36.893 63.76 54.557
H 36.89 62.52 53.68
H 37.591 65.692 47.218
H 42.193 61.076 55.838
H 43.158 60.619 56.919
H 38.366 50.997 50.681
H 37.723 51.87 49.617
H 23.905 57.597 58.004
H 24.81 56.391 57.828
H 31.108 67.518 59.851
H 31.932 66.489 60.605
H 32.541 69.463 62.168
H 31.679 68.331 62.698
H 38.445 70.545 54.104
H 37.445 70.805 55.217
H 32.612 70.661 50.367
H 40.917 61.518 58.754
H 41.545 60.362 59.513
H 39.259 53.371 50.512
H 31.352 60.967 47.549
H 31.553 62.133 48.501
H 30.619 52.512 53.364
H 30.101 53.514 52.347
H 37.481 66.12 54.005
H 38.426 65.586 62.168
H 39.807 66.203 62.302
H 36.376 60.877 63.258
H 34.899 61.215 63.359
H 38.796 65.421 53.708
H 44.214 65.47 58.411
H 27.438 62.786 55.274
H 28.415 63.876 54.867
H 39.486 58.643 64.953
H 40.875 58.217 64.51
H 35.32 66.01 59.018
H 30.772 59.786 54.785
H 31.921 59.004 54.174
H 33.817 58.675 50.24
H 39.384 68.564 55.019
H 40.39 69.599 54.546
H 36.375 55.472 56.802
H 37.454 55.713 57.843
H 34.861 64.574 58.835
H 37.308 66.269 64.288
H 36.59 67.327 63.469
H 32.827 57.794 50.982
H 35.666 70.045 58.918
H 38.851 68.923 57.532
H 29.825 63.652 61.476
H 28.516 64.362 61.774
H 40.289 68.447 57.632
H 38.015 57.433 52.167
H 38.375 56.936 50.778
H 28.145 61.271 52.337
H 33.726 56.785 64.851
H 32.723 56.329 65.897
H 38.878 54.239 49.325
H 26.927 60.996 51.471
H 36.445 68.744 59.005
H 38.676 67.625 49.999
H 38.928 67.683 48.502
H 29.499 64.75 56.577
H 40.479 59.616 57.739
H 41.561 58.553 57.801
H 29.791 66.138 56.034
H 34.231 59.196 59.797
H 35.314 60.197 60.16
H 44.565 66.948 58.436
H 43.654 64.068 56.006
H 36.566 57.216 49.556
H 36.083 55.808 49.856
H 42.522 63.356 56.726
H 42.498 57.431 56.156
H 43.628 56.596 56.734
H 39.379 58.815 62.761
H 38.038 59.528 62.755
H 40.259 68.211 46.79
H 29.239 65.564 58.902
H 30.747 65.647 58.75
H 33.281 61.758 55.981
H 29.174 69.648 51.405
H 30.047 70.755 51.969
H 32.153 62.682 56.405
H 45.253 62.649 61.181
H 37.662 50.033 52.507
H 36.804 51.284 52.575
H 33.305 60.795 51.827
H 33.345 61.452 53.196
H 37.711 56.548 61.413
H 37.732 56.938 62.88
H 38.828 53.699 57.606
H 38.133 52.55 58.315
H 36.872 63.862 50.733
H 31.93 64.916 47.568
H 32.929 47.593 54.684
H 41.348 61.094 65.967
H 42.594 60.27 66.241
H 36.098 48.538 52.913
H 37.237 47.66 53.401
H 30.972 64.109 46.71
H 27.664 55.654 51.609
H 28.608 56.018 50.476
H 36.957 62.608 49.881
H 40.153 66.017 47.731
H 41.079 65.419 48.776
H 27.677 58.605 51.812
H 27.996 58.549 50.329
H 30.601 56.925 50.707
H 30.488 55.676 51.563
H 41.656 52.63 52.774
H 26.583 60.985 54.341
H 27.286 59.936 55.186
H 31.072 49.863 51.014
H 32.567 50.082 50.855
H 35.831 50.638 57.749
H 35.085 49.892 56.657
H 26.377 65.455 52.767
H 36.382 58.188 58.224
H 35.6 56.889 58.297
H 26.008 64.623 53.983
H 32.63 54.894 51.315
H 34.117 55.202 51.29
H 35.828 72.175 53.035
H 40.33 55.489 53.83
H 36.935 54.568 62.484
H 35.712 55.372 62.079
H 40.058 55.421 56.914
H 40.095 56.43 55.779
H 30.001 62.64 55.917
H 41.209 54.723 54.803
H 34.306 49.18 58.879
H 30.398 63.0 54.496
H 35.786 58.569 54.032
H 35.948 57.109 54.418
H 31.148 61.79 58.776
H 28.287 62.039 57.164
H 29.286 61.008 57.661
H 35.158 70.861 53.398
H 31.902 61.078 59.885
H 27.235 57.712 57.73
H 27.773 59.119 57.922
H 27.455 64.121 59.857
H 27.686 62.804 59.137
H 31.911 56.412 56.018
H 30.613 56.848 55.361
H 34.105 61.673 47.955
H 34.584 62.352 49.226
H 33.149 55.999 60.135
H 34.18 57.08 60.409
H 27.701 56.614 54.3
H 27.911 56.781 55.795
H 28.046 59.464 60.44
H 36.98 57.28 64.976
H 35.864 56.289 64.692
H 30.347 50.32 53.297
H 25.565 58.412 47.108
H 26.809 57.834 47.758
H 32.618 57.281 48.853
H 33.839 56.592 49.437
H 44.669 65.966 54.97
H 44.798 66.768 56.253
H 36.207 72.143 58.535
H 34.699 72.047 58.384
H 38.386 63.77 48.673
H 39.732 63.871 47.978
H 43.039 65.92 51.397
H 43.279 67.375 51.033
H 31.988 64.03 62.965
H 33.491 63.811 62.936
H 41.689 64.541 60.89
H 37.408 69.092 52.781
H 35.931 68.824 53.007
H 36.512 69.032 47.985
H 36.671 67.611 48.499
H 31.733 55.074 48.924
H 41.609 66.049 61.049
H 40.362 72.142 54.559
H 39.028 72.864 54.482
H 32.788 52.766 52.993
H 32.386 51.309 52.842
H 38.937 58.316 56.863
H 39.014 57.43 58.093
H 39.561 53.435 55.449
H 39.158 51.971 55.452
H 44.534 58.638 56.496
H 36.444 53.262 50.922
H 35.897 53.928 52.173
H 37.664 70.582 63.059
H 38.956 58.362 53.923
H 38.244 57.1 54.377
H 41.918 65.467 57.774
H 40.81 64.448 57.574
H 26.45 62.792 47.205
H 25.925 61.678 46.317
H 38.888 61.13 56.094
H 39.854 60.451 55.14
H 38.722 71.277 57.657
H 45.208 61.177 54.183
H 44.26 61.605 55.29
H 29.492 68.809 53.751
H 30.643 67.838 53.949
H 37.657 60.541 60.07
H 38.196 61.064 58.75
H 32.447 68.451 57.692
H 35.203 48.062 54.98
H 35.235 46.559 54.763
H 37.731 70.886 48.098
H 39.162 70.466 47.811
H 33.544 68.413 58.741
H 43.779 65.785 60.71
H 43.833 64.304 60.378
H 31.529 65.022 54.994
H 31.281 65.75 53.685
H 28.188 68.061 55.564
H 28.119 67.378 56.918
H 35.99 53.102 59.499
H 35.028 54.154 58.974
H 39.647 64.193 60.148
H 39.591 62.676 60.132
H 41.832 67.821 49.434
H 40.898 68.848 48.817
H 29.052 55.22 53.26
H 28.95 54.123 54.305
H 39.806 68.132 52.396
H 40.27 67.057 51.428
H 25.663 59.242 52.432
H 24.149 59.13 52.494
H 38.614 62.358 64.81
H 38.738 62.105 66.303
H 37.063 60.892 65.348
H 33.723 61.786 58.762
H 34.669 61.199 57.728
H 37.144 59.468 64.825
H 35.698 65.117 63.146
H 35.637 65.007 61.633
H 38.33 52.865 52.441
H 35.764 59.128 51.899
H 36.653 59.111 50.668
H 38.881 54.256 52.7
H 29.339 56.964 48.63
H 29.119 58.291 47.926
H 32.666 55.886 53.458
H 33.076 57.341 53.309
H 32.692 60.565 63.992
H 32.906 62.061 64.142
H 34.573 67.535 55.48
H 33.65 67.836 54.312
H 28.941 60.445 47.547
H 27.523 59.914 47.655
H 31.043 61.398 52.38
H 33.997 72.338 50.7
H 25.783 65.677 50.626
H 26.638 66.933 50.602
H 29.978 62.481 52.379
H 30.901 58.516 57.281
H 31.708 59.743 56.896
H 32.564 48.625 52.728
H 37.423 65.225 60.234
H 37.65 65.984 58.938
H 33.612 65.555 53.324
H 42.019 66.403 63.548
H 41.655 65.02 63.037
H 34.242 65.539 51.942
H 36.591 59.928 56.595
H 25.858 59.932 44.967
H 24.723 63.006 53.209
H 24.111 61.628 53.395
H 40.879 69.573 59.427
H 42.129 68.727 59.59
H 25.018 60.163 57.638
H 30.656 63.466 50.101
H 41.295 62.258 61.594
H 42.739 62.665 61.361
H 30.256 64.412 48.983
H 26.257 60.824 57.061
H 28.057 65.647 49.056
H 27.079 64.556 48.656
H 38.512 49.69 55.279
H 37.184 48.992 55.511
H 43.897 62.704 64.353
H 44.218 63.824 63.379
H 36.41 47.032 57.03
H 41.269 62.762 64.155
H 40.104 63.708 63.919
H 35.864 61.058 55.887
H 34.706 51.801 49.111
H 42.202 69.789 50.365
H 41.648 68.914 51.476
H 27.048 63.16 52.074
H 25.114 63.424 51.055
H 26.039 62.768 50.046
H 27.929 64.333 51.685
H 40.083 55.86 59.234
H 41.464 56.423 59.521
H 40.449 50.625 52.579
H 39.393 50.821 53.652
H 29.228 60.523 50.574
H 29.024 62.014 50.372
