143
xyz format
O 32.33 43.493 36.27
O 32.586 46.087 34.72
O 25.972 52.103 35.086
O 28.288 44.115 42.157
O 26.166 52.854 46.693
O 31.442 49.918 38.638
O 27.779 46.239 43.778
O 29.555 46.662 46.322
O 25.063 46.875 39.686
O 31.434 51.37 36.637
O 25.132 49.206 37.179
O 32.099 40.922 43.526
O 33.548 46.777 43.633
O 27.21 44.915 40.162
O 30.16 50.975 34.524
O 31.749 47.537 40.849
O 29.147 42.049 40.598
O 25.959 43.248 47.027
O 26.055 42.137 41.776
O 31.602 42.544 45.783
O 26.374 53.253 41.419
O 30.109 48.309 36.131
O 30.816 47.124 43.877
O 34.092 44.254 44.32
O 26.284 47.246 41.59
O 29.347 42.171 45.413
O 27.725 46.583 48.447
O 28.584 45.546 34.732
O 22.985 51.131 41.585
O 27.125 44.516 37.501
O 31.234 43.464 43.251
O 29.291 53.725 39.126
O 29.503 53.396 43.912
O 29.309 49.506 45.239
O 26.765 48.709 43.978
O 27.948 43.245 48.572
O 30.996 43.925 48.06
O 23.17 48.138 40.886
O 29.174 51.139 37.763
O 27.037 51.918 43.553
O 29.399 52.358 46.08
O 27.318 50.233 41.013
O 28.841 40.928 42.861
O 23.707 51.944 43.647
O 29.516 50.703 41.081
O 30.592 46.561 48.669
O 25.801 44.315 43.516
O 30.83 45.234 41.651
O 30.927 53.199 40.867
O 29.254 46.596 38.507
O 30.721 49.255 42.815
O 26.011 55.067 40.228
O 26.41 39.619 43.42
O 26.018 45.269 48.0
O 27.327 49.045 38.502
O 30.609 45.454 35.664
O 28.574 44.703 46.284
H 28.923 40.134 43.405
H 28.492 41.589 43.472
H 29.477 50.486 37.119
H 27.783 51.795 44.153
H 26.281 52.019 44.145
H 30.335 52.209 46.263
H 28.948 51.757 46.686
H 28.842 51.862 37.216
H 30.213 50.563 40.428
H 29.982 51.086 41.835
H 30.041 49.453 45.866
H 29.304 50.434 44.971
H 27.721 48.576 43.969
H 26.547 48.869 43.051
H 31.05 48.136 36.002
H 29.678 47.537 35.742
H 31.205 46.474 44.475
H 30.426 47.777 44.472
H 27.193 44.968 36.651
H 27.498 43.643 37.328
H 30.585 42.954 43.75
H 31.742 43.92 43.934
H 25.821 55.865 39.719
H 25.695 46.54 41.886
H 27.167 46.881 41.728
H 26.195 54.402 39.553
H 31.548 48.788 42.642
H 30.901 49.748 43.625
H 29.565 41.233 45.361
H 28.692 42.215 46.121
H 27.108 41.472 39.634
H 29.152 45.95 37.797
H 29.618 47.371 38.061
H 31.364 52.526 40.33
H 27.49 50.506 41.923
H 26.363 50.095 40.992
H 29.503 52.785 39.184
H 27.646 45.417 34.545
H 28.47 47.187 48.338
H 28.918 45.985 33.94
H 30.495 45.408 42.54
H 26.188 44.541 42.661
H 26.428 43.685 43.892
H 31.776 45.095 41.786
H 26.455 52.316 41.203
H 25.878 53.256 42.247
H 31.118 43.359 45.965
H 26.933 42.382 42.092
H 25.508 42.166 42.571
H 28.455 42.508 35.703
H 31.092 45.958 36.331
H 30.423 44.614 36.101
H 26.772 48.278 38.314
H 28.019 48.998 37.83
H 28.443 44.289 45.422
H 27.763 44.495 46.764
H 30.814 47.356 41.009
H 32.056 46.755 40.374
H 29.5 42.44 41.407
H 29.843 41.444 40.313
H 26.747 44.193 39.719
H 27.744 45.309 39.46
H 29.88 50.168 34.976
H 30.47 46.917 46.494
H 29.091 47.506 46.25
H 32.488 41.693 43.956
H 31.222 40.855 43.924
H 26.842 39.803 44.263
H 26.723 40.325 42.842
H 23.022 47.849 39.977
H 30.058 43.837 47.85
H 22.613 48.921 40.972
H 24.568 49.939 36.902
H 25.862 49.226 36.547
H 31.533 49.467 37.79
H 28.468 46.382 44.439
H 27.003 46.003 44.302
H 24.688 47.016 38.807
H 25.973 46.61 39.506
H 32.043 51.162 35.917
H 30.916 52.108 36.292
H 25.553 51.522 35.733
H 31.993 46.634 34.189
H 33.304 45.87 34.112
H 28.386 45.065 42.017
H 28.785 43.95 42.968
