293
xyz format
Cl 62.646 58.926 60.688
O 62.038 56.92 63.279
O 55.968 59.682 62.992
O 55.282 69.903 61.529
O 52.342 61.133 68.723
O 48.127 70.555 66.133
O 49.134 68.801 64.594
O 49.25 73.189 64.786
O 58.796 59.374 64.961
O 55.515 65.421 64.893
O 56.1 64.089 69.08
O 46.05 68.408 64.582
O 52.85 63.112 63.59
O 50.124 71.066 62.912
O 57.164 67.559 68.051
O 43.637 63.062 63.495
O 56.871 54.921 68.371
O 48.699 60.73 73.193
O 57.344 71.035 68.34
O 60.909 67.098 67.833
O 61.224 67.401 63.609
O 57.996 62.756 72.8
O 59.315 59.568 71.552
O 58.319 68.869 61.621
O 56.806 65.979 70.41
O 57.278 73.401 62.757
O 59.054 65.661 65.039
O 51.441 73.722 65.643
O 56.347 56.773 69.443
O 55.562 72.896 65.901
O 59.342 70.725 66.173
O 55.729 60.392 59.571
O 56.02 70.466 65.296
O 53.87 53.66 68.672
O 60.838 65.916 69.691
O 52.78 57.819 67.129
O 53.677 64.195 67.324
O 60.777 65.268 60.86
O 57.848 68.567 65.353
O 56.971 65.614 66.749
O 56.551 62.57 64.886
O 44.576 64.489 65.446
O 59.414 68.975 68.099
O 48.548 71.202 59.898
O 59.051 56.579 63.042
O 53.335 59.822 59.477
O 52.648 62.02 61.581
O 59.661 62.547 61.16
O 48.689 62.27 64.54
O 52.154 68.613 63.906
O 54.183 62.051 70.321
O 61.481 62.579 66.845
O 50.248 60.15 67.523
O 54.925 60.006 67.785
O 54.662 56.543 64.089
O 63.496 63.416 65.077
O 54.666 67.197 63.153
O 59.336 67.61 69.825
O 56.04 65.471 60.968
O 47.029 71.051 63.464
O 61.329 57.219 66.991
O 53.56 66.679 68.589
O 55.027 68.219 70.958
O 52.026 64.899 71.153
O 57.734 62.056 70.046
O 59.26 56.624 70.009
O 51.398 61.435 71.409
O 58.291 55.897 65.975
O 54.649 69.424 67.89
O 55.395 58.188 65.856
O 58.262 65.909 72.617
O 60.908 65.06 71.969
O 52.356 71.258 64.071
O 51.519 74.229 62.427
O 54.031 61.468 65.908
O 59.831 58.823 61.169
O 51.159 60.212 73.222
O 53.778 58.748 63.227
O 53.114 71.179 59.877
O 56.364 54.83 63.474
O 49.961 72.902 59.884
O 55.106 54.612 70.907
O 50.457 68.681 61.555
O 53.651 66.875 65.295
O 54.29 59.603 71.774
O 46.555 64.265 64.237
O 44.074 66.51 62.768
O 49.121 61.069 69.859
O 57.663 61.028 61.846
O 50.522 60.756 60.53
O 51.672 68.261 59.316
O 58.313 64.255 69.655
O 56.236 63.753 58.922
O 45.915 63.195 61.624
O 57.144 58.857 72.231
O 55.033 62.941 73.36
O 58.791 66.438 62.945
O 60.544 60.771 65.385
O 56.957 60.557 66.723
O 51.17 59.369 62.253
O 62.406 59.781 62.749
O 48.602 65.852 62.258
O 57.065 70.114 59.193
O 60.825 67.465 60.918
O 48.404 63.435 69.29
O 56.036 67.297 59.66
O 60.517 60.802 70.185
O 59.188 61.6 68.093
O 58.454 57.81 67.415
O 45.936 66.161 60.452
H 53.972 60.508 71.883
H 52.734 66.987 65.575
H 54.149 67.425 65.912
H 53.717 56.416 63.94
H 60.765 60.61 69.273
H 60.007 61.619 70.117
H 54.834 56.055 64.904
H 44.302 66.018 63.566
H 46.187 64.799 63.522
H 47.333 63.854 63.839
H 50.777 67.808 61.295
H 49.644 68.789 61.046
H 60.056 59.601 61.693
H 60.627 68.235 61.466
H 57.331 70.644 59.954
H 56.149 70.377 59.04
H 53.767 69.815 67.938
H 55.134 70.025 67.311
H 51.476 59.531 73.829
H 50.865 60.921 73.807
H 53.801 71.796 60.16
H 54.436 55.2 70.535
H 55.914 55.138 70.879
H 52.996 58.483 63.727
H 53.729 59.712 63.219
H 56.07 57.841 65.259
H 54.717 58.532 65.261
H 46.866 70.1 63.435
H 51.996 59.137 61.81
H 59.461 57.353 69.409
H 59.131 55.871 69.42
H 50.743 58.516 62.403
H 57.06 61.458 70.391
H 57.393 62.312 69.18
H 60.06 61.316 64.752
H 61.469 60.991 65.217
H 57.709 60.843 66.19
H 56.236 60.492 66.085
H 52.008 62.149 71.633
H 51.93 60.841 70.865
H 59.214 56.161 66.07
H 57.892 56.63 65.489
H 55.61 59.365 68.012
H 55.16 60.785 68.304
H 55.163 62.128 72.856
H 61.037 57.394 66.088
H 56.552 65.032 61.658
H 55.399 66.0 61.459
H 54.133 67.289 68.108
H 54.013 66.558 69.433
H 56.279 58.667 71.848
H 52.824 59.013 59.601
H 53.859 59.644 58.686
H 58.645 57.378 63.401
H 58.653 60.802 68.194
H 59.541 61.528 67.198
H 54.647 68.0 63.688
H 53.738 66.938 63.097
H 49.553 62.252 64.971
H 48.288 61.43 64.794
H 52.619 61.279 60.963
H 52.599 62.796 61.009
H 59.517 62.579 62.113
H 59.584 61.609 60.947
H 58.743 66.85 69.774
H 59.645 67.599 70.739
H 50.401 59.529 68.246
H 50.229 61.011 67.959
H 62.402 62.354 66.66
H 61.187 63.022 66.039
H 55.074 62.366 70.123
H 53.617 62.596 69.76
H 51.576 73.349 62.034
H 60.314 65.808 71.83
H 60.312 64.305 72.047
H 53.116 61.725 65.74
H 54.534 62.268 65.71
H 53.04 70.641 64.358
H 51.574 70.98 64.564
H 57.952 66.693 72.146
H 58.196 65.205 71.959
H 52.665 68.858 63.124
H 51.627 67.862 63.608
H 56.43 71.189 64.805
H 55.074 70.628 65.196
H 45.253 62.649 61.181
H 46.162 62.674 62.398
H 56.645 63.529 64.834
H 57.38 62.238 64.52
H 60.125 69.121 67.462
H 59.556 69.661 68.762
H 49.267 70.565 59.803
H 48.146 70.97 60.744
H 52.881 63.885 66.875
H 54.28 64.407 66.601
H 57.431 68.095 64.621
H 57.958 69.464 65.015
H 52.619 57.117 67.772
H 52.026 58.411 67.243
H 49.083 70.443 66.059
H 47.788 69.651 66.113
H 57.431 65.266 67.523
H 56.568 60.642 59.977
H 55.109 61.054 59.9
H 61.784 65.986 69.867
H 60.71 64.981 69.492
H 61.659 64.884 60.784
H 60.303 64.644 61.423
H 56.054 65.69 67.042
H 49.458 61.794 70.4
H 48.72 60.471 70.502
H 60.03 70.511 65.531
H 59.695 71.492 66.641
H 55.602 72.235 66.603
H 52.177 73.706 65.018
H 51.226 72.789 65.767
H 56.608 57.143 70.296
H 55.385 56.856 69.442
H 57.545 57.758 67.735
H 58.774 58.649 67.769
H 59.979 65.771 65.29
H 58.617 66.427 65.431
H 61.967 67.83 63.167
H 55.369 63.333 58.861
H 56.082 64.646 58.592
H 56.409 66.776 70.037
H 56.227 65.76 71.15
H 43.91 64.84 66.05
H 45.255 64.135 66.034
H 58.911 63.894 70.322
H 58.793 64.133 68.827
H 60.988 66.68 63.012
H 57.141 63.05 72.464
H 58.297 63.497 73.341
H 58.654 60.149 71.156
H 58.824 69.41 61.001
H 57.799 68.291 61.049
H 60.635 66.331 67.315
H 56.761 70.383 68.748
H 57.204 70.908 67.394
H 54.803 65.234 64.269
H 56.266 65.635 64.325
H 55.381 64.665 69.368
H 55.838 63.822 68.19
H 57.481 55.567 67.994
H 57.453 54.248 68.745
H 49.035 59.972 72.698
H 52.309 64.108 70.678
H 52.63 65.584 70.84
H 54.436 68.828 71.417
H 54.933 68.466 70.029
H 58.904 67.373 63.154
H 58.471 66.443 62.035
H 46.372 67.988 65.39
H 53.454 63.496 64.238
H 52.442 63.882 63.174
H 58.999 58.527 65.378
H 59.295 59.347 64.135
H 50.577 61.345 59.767
H 49.326 68.968 63.663
H 49.913 68.325 64.907
H 50.717 59.885 60.162
H 58.032 60.418 62.498
H 52.395 61.348 67.784
H 53.046 60.486 68.851
H 51.13 68.268 58.517
H 52.245 69.031 59.21
H 57.47 61.822 62.359
H 50.769 70.739 62.272
H 49.499 71.566 62.373
H 55.319 66.847 59.196
H 55.983 68.206 59.338
H 43.897 62.704 64.353
H 44.218 63.824 63.379
H 56.407 67.997 67.641
H 57.841 67.579 67.363
H 48.189 64.985 62.158
H 48.023 66.31 62.881
H 55.43 70.853 61.437
H 55.388 69.745 62.475
H 61.728 59.697 63.43
H 55.971 59.639 62.028
H 56.11 58.767 63.263
