293
xyz format
O 61.925 48.975 33.936
O 55.605 54.552 33.093
O 64.275 48.624 42.465
O 57.564 54.032 32.004
O 59.583 55.722 38.457
O 55.752 53.306 41.348
O 55.09 53.194 37.529
O 54.453 56.755 39.842
O 54.774 50.098 37.186
O 62.752 58.048 44.383
O 56.718 50.371 36.194
O 60.951 62.205 43.16
O 60.603 53.293 37.665
O 63.103 48.738 45.302
O 61.539 55.57 41.633
O 52.703 53.557 40.845
O 52.563 51.837 35.898
O 63.678 51.852 40.364
O 61.097 47.285 39.771
O 65.141 55.078 45.493
O 65.816 54.329 48.2
O 62.79 61.89 41.071
O 65.525 52.671 44.585
O 55.795 60.641 40.337
O 53.649 54.883 36.971
O 61.746 48.45 48.04
O 62.799 56.683 39.336
O 57.768 51.798 33.928
O 62.787 52.349 46.174
O 60.733 58.5 38.045
O 57.069 50.944 47.434
O 63.355 58.652 38.526
O 59.399 49.094 44.669
O 50.964 58.471 40.09
O 60.062 44.345 41.674
O 57.482 43.742 42.228
O 56.906 48.665 42.027
O 53.237 47.776 37.279
O 59.223 46.933 46.829
O 58.972 44.967 38.96
O 63.951 57.903 46.767
O 59.065 53.587 33.812
O 54.237 59.335 38.115
O 59.951 56.297 35.449
O 58.264 59.554 45.095
O 63.897 50.046 47.79
O 57.548 52.303 44.476
O 61.051 62.737 39.649
O 51.207 52.913 38.078
O 65.48 57.043 37.414
O 61.369 48.486 42.344
O 59.425 57.438 41.472
O 57.741 58.74 36.33
O 49.989 55.99 41.873
O 61.668 51.737 35.816
O 51.132 54.952 35.903
O 62.31 52.908 43.54
O 59.547 53.745 45.963
O 59.739 56.869 45.804
O 62.898 54.962 51.608
O 57.302 55.255 38.117
O 61.818 53.825 48.639
O 60.701 48.478 37.688
O 65.993 48.457 40.905
O 56.446 50.871 40.283
O 57.216 55.613 46.616
O 57.233 58.595 38.722
O 56.784 47.336 45.397
O 57.225 52.662 37.699
O 60.816 46.482 35.409
O 57.528 54.975 41.331
O 55.716 50.3 33.078
O 59.491 59.983 35.846
O 59.194 50.643 35.513
O 58.972 60.969 41.817
O 63.094 53.899 32.832
O 51.325 55.259 43.721
O 54.064 53.309 35.06
O 51.332 56.014 38.196
O 56.146 47.272 36.315
O 59.949 43.914 44.681
O 63.68 50.758 43.388
O 61.48 51.258 49.088
O 66.182 51.454 42.628
O 58.034 60.286 47.16
O 64.109 55.729 48.859
O 59.438 46.785 42.027
O 58.58 48.821 49.111
O 55.5 60.524 43.901
O 60.41 58.431 47.998
O 58.316 54.111 48.936
O 61.716 55.792 45.973
O 56.998 55.032 44.209
O 60.976 59.705 44.48
O 59.429 55.082 42.667
O 54.216 54.975 43.071
O 59.719 49.752 39.534
O 52.253 49.144 35.857
O 59.652 52.897 39.842
O 60.461 57.639 43.872
O 56.121 58.474 44.4
O 62.582 54.613 34.904
O 63.8 55.418 37.834
O 61.838 51.324 39.278
O 63.232 47.84 39.281
O 59.887 50.759 47.083
O 62.766 59.39 42.403
O 58.618 46.359 37.294
O 60.246 52.807 42.008
O 59.295 50.375 42.726
O 60.832 46.359 45.268
H 51.685 56.05 43.3
H 51.284 54.616 43.003
H 63.975 50.553 44.284
H 64.068 51.625 43.212
H 60.514 46.676 44.414
H 59.73 44.599 44.038
H 56.92 47.648 36.752
H 55.849 46.585 36.924
H 52.087 56.004 38.798
H 53.645 53.367 34.192
H 59.218 47.031 36.947
H 54.824 52.733 34.909
H 60.765 50.376 47.203
H 59.906 51.096 46.178
H 56.502 49.988 33.544
H 55.17 50.68 33.778
H 57.268 56.08 38.617
H 57.233 54.572 38.796
H 62.5 53.147 48.548
H 60.993 53.336 48.529
H 56.493 59.211 38.8
H 57.863 58.909 39.382
H 61.811 47.628 42.321
H 61.969 49.066 41.859
H 57.569 52.964 36.849
H 57.492 51.735 37.739
H 62.065 55.11 35.55
H 62.317 53.697 35.054
H 57.513 46.716 45.269
H 57.151 48.004 45.988
H 59.99 46.227 34.981
H 61.455 45.839 35.076
H 56.94 57.967 44.337
H 56.174 58.89 45.269
H 61.25 51.289 35.07
H 61.375 51.229 36.583
H 56.808 55.354 40.812
H 58.306 55.107 40.775
H 58.999 56.547 45.275
H 59.686 56.347 46.614
H 58.753 58.083 41.217
H 60.022 57.418 40.714
H 58.313 58.165 36.854
H 56.854 58.406 36.509
H 56.865 49.026 42.921
H 57.456 47.877 42.123
H 59.501 45.723 39.244
H 59.269 47.868 46.593
H 53.916 47.26 37.731
H 52.753 48.198 38.0
H 59.944 53.127 45.335
H 58.711 53.988 45.547
H 63.225 57.679 47.362
H 59.303 55.934 43.102
H 60.184 54.698 43.131
H 59.423 46.925 47.773
H 58.859 51.368 36.055
H 58.991 49.856 36.034
H 60.314 59.664 35.454
H 54.479 60.094 38.66
H 53.476 58.957 38.574
H 50.743 52.927 38.925
H 55.793 60.689 42.997
H 55.969 61.19 44.419
H 59.913 61.028 41.609
H 58.883 60.102 42.232
H 59.021 56.475 35.637
H 59.941 55.413 35.061
H 58.565 60.433 44.833
H 59.068 59.12 45.406
H 62.806 53.46 44.157
H 58.844 53.532 34.75
H 59.828 53.002 33.722
H 59.652 58.4 47.402
H 61.169 58.461 47.402
H 58.232 51.655 44.266
H 56.945 52.252 43.725
H 63.651 50.978 47.854
H 62.068 52.136 44.067
H 59.744 50.716 39.572
H 59.2 49.505 40.31
H 53.716 54.235 43.438
H 53.656 55.295 42.352
H 58.042 44.465 42.54
H 60.613 45.028 41.273
H 60.141 43.6 41.066
H 60.931 60.318 45.224
H 60.478 60.151 43.784
H 51.576 49.466 35.249
H 52.97 48.864 35.275
H 60.208 48.851 44.202
H 58.804 48.354 44.498
H 61.499 50.319 49.313
H 61.597 51.7 49.938
H 63.407 58.985 37.621
H 64.278 58.603 38.805
H 51.533 57.691 40.098
H 57.307 51.463 48.213
H 60.867 57.826 38.723
H 60.964 59.324 38.491
H 61.866 52.299 46.461
H 63.056 53.242 46.421
H 62.126 55.729 46.845
H 62.006 54.987 45.525
H 57.204 55.861 43.757
H 57.525 54.376 43.735
H 57.057 52.109 33.354
H 58.388 51.38 33.318
H 61.651 46.72 40.324
H 60.583 47.797 40.408
H 63.119 52.069 41.12
H 64.24 51.139 40.691
H 61.031 57.578 43.095
H 59.684 58.112 43.55
H 62.01 54.729 41.698
H 60.854 55.398 40.975
H 53.073 53.784 39.983
H 51.796 53.884 40.799
H 62.497 55.796 39.566
H 63.282 56.971 40.12
H 53.422 55.817 37.055
H 61.371 48.078 47.232
H 61.621 47.75 48.693
H 53.335 54.495 37.797
H 56.506 60.386 40.938
H 55.074 60.891 40.927
H 56.737 56.448 46.539
H 56.55 54.996 46.943
H 56.05 50.338 39.582
H 56.093 50.483 41.093
H 61.282 48.21 36.965
H 60.556 49.419 37.527
H 64.823 52.659 45.248
H 53.13 51.332 35.302
H 52.026 52.374 35.303
H 59.713 53.832 39.609
H 58.821 52.836 40.33
H 64.193 55.076 45.309
H 63.749 47.196 39.78
H 62.991 48.502 39.941
H 62.516 60.142 42.954
H 63.651 59.163 42.713
H 60.536 55.62 38.575
H 59.426 55.398 37.562
H 62.288 57.799 45.192
H 63.679 57.865 44.584
H 58.898 46.42 41.316
H 62.142 48.826 45.255
H 59.0 46.478 42.83
H 59.695 53.099 37.401
H 60.972 53.748 36.898
H 58.83 53.645 48.265
H 57.561 53.53 49.091
H 60.173 62.444 43.68
H 58.769 55.771 51.434
H 59.516 48.606 49.204
H 56.473 51.032 35.534
H 56.839 49.565 35.677
H 58.583 49.756 48.871
H 61.659 62.161 43.814
H 54.799 56.23 40.574
H 54.346 56.113 39.129
H 60.955 52.271 41.631
H 60.194 52.508 42.924
H 54.451 52.605 37.109
H 55.486 53.668 36.787
H 60.22 50.359 42.451
H 58.973 49.494 42.499
H 55.118 54.032 41.3
H 63.779 55.5 36.872
H 64.002 54.485 37.98
H 56.186 54.101 33.718
H 63.637 48.505 43.18
H 64.095 47.884 41.872
H 58.037 54.856 32.178
H 57.405 54.055 31.052
H 55.042 49.189 37.006
H 53.813 50.075 37.102
H 62.361 50.531 39.103
H 62.071 51.917 38.553
H 61.654 49.027 34.861
H 55.772 52.959 40.447
