378
xyz format
Cl 41.259 60.751 72.504
Na 41.179 68.089 69.505
O 48.289 54.675 60.198
O 46.791 61.308 68.338
O 40.501 62.894 63.585
O 41.834 69.645 59.551
O 42.041 62.691 62.027
O 40.864 56.219 58.793
O 48.127 70.555 66.133
O 49.134 68.801 64.594
O 41.751 65.527 63.853
O 37.82 65.132 59.359
O 45.343 58.568 57.018
O 46.842 66.009 72.567
O 44.544 69.498 54.368
O 49.235 60.47 57.866
O 39.582 63.43 60.735
O 46.05 68.408 64.582
O 51.694 59.22 57.721
O 35.527 64.484 62.437
O 44.98 72.035 63.862
O 37.602 63.398 67.675
O 50.124 71.066 62.912
O 44.439 61.737 54.351
O 41.376 64.83 58.256
O 43.906 67.948 71.448
O 43.637 63.062 63.495
O 45.067 66.077 70.416
O 43.983 64.926 61.101
O 45.731 53.856 60.759
O 37.775 60.29 59.145
O 41.645 65.357 60.377
O 39.899 60.189 68.296
O 44.804 60.501 60.742
O 44.145 66.322 55.699
O 47.926 61.005 61.121
O 42.543 66.263 68.848
O 47.457 65.997 56.091
O 40.726 66.261 71.97
O 49.581 59.632 54.869
O 43.351 53.627 60.992
O 42.727 71.353 65.521
O 45.332 62.126 71.237
O 44.576 64.489 65.446
O 41.727 60.218 65.82
O 38.772 59.287 62.177
O 45.306 56.67 62.387
O 47.052 57.775 61.629
O 44.16 58.405 59.33
O 38.35 61.942 61.796
O 37.42 62.98 54.343
O 42.291 57.22 66.609
O 38.248 67.756 61.842
O 53.335 59.822 59.477
O 52.648 62.02 61.581
O 47.15 59.032 58.231
O 48.689 62.27 64.54
O 39.605 58.243 60.413
O 47.057 65.904 68.424
O 39.682 63.674 72.594
O 52.154 68.613 63.906
O 43.485 63.394 56.677
O 40.328 58.319 65.298
O 47.662 68.301 55.971
O 42.88 56.545 56.125
O 41.098 59.129 57.18
O 47.78 58.377 55.011
O 37.86 65.411 53.471
O 46.702 68.89 70.75
O 39.761 69.231 57.438
O 48.334 69.772 54.208
O 37.459 63.726 63.168
O 39.539 65.561 66.666
O 52.492 64.562 57.905
O 42.262 60.957 56.794
O 50.022 54.357 61.744
O 42.977 69.149 57.488
O 41.194 61.252 59.64
O 43.83 66.339 58.582
O 35.955 69.295 58.382
O 49.8 68.0 55.179
O 45.047 71.571 66.799
O 43.627 58.729 63.446
O 43.634 67.596 53.742
O 41.672 65.82 55.48
O 40.68 60.52 63.249
O 40.225 56.434 62.301
O 47.029 71.051 63.464
O 54.39 58.038 61.041
O 34.127 65.404 56.244
O 45.654 62.323 59.04
O 37.019 62.904 56.579
O 44.738 63.208 68.548
O 37.689 60.247 64.995
O 40.951 70.726 63.494
O 38.789 62.81 65.645
O 38.217 62.174 71.924
O 34.377 62.425 61.472
O 44.499 64.204 53.591
O 42.855 56.962 61.352
O 46.19 64.401 57.621
O 36.382 62.745 59.865
O 35.882 67.647 66.446
O 49.094 57.43 60.789
O 47.129 60.991 55.846
O 39.358 65.408 61.99
O 35.522 60.678 62.854
O 52.356 71.258 64.071
O 40.191 69.018 55.291
O 37.406 67.172 63.96
O 48.587 71.379 57.705
O 38.105 64.816 56.457
O 53.778 58.748 63.227
O 50.216 64.356 56.489
O 50.457 68.681 61.555
O 45.016 57.813 65.766
O 46.555 64.265 64.237
O 43.674 60.899 63.094
O 44.074 66.51 62.768
O 40.902 70.103 67.319
O 45.143 55.064 64.304
O 50.522 60.756 60.53
O 51.672 68.261 59.316
O 41.134 62.894 68.441
O 45.915 63.195 61.624
O 41.748 55.727 63.732
O 51.743 56.608 61.237
O 37.411 64.431 70.788
O 46.554 63.974 55.049
O 39.716 67.168 59.899
O 50.585 56.881 63.867
O 42.305 63.03 71.102
O 38.013 59.058 66.887
O 51.17 59.369 62.253
O 44.667 66.524 67.253
O 48.602 65.852 62.258
O 44.961 53.241 62.831
O 48.404 63.435 69.29
O 47.396 65.304 52.568
O 47.472 63.353 60.031
O 46.676 54.87 62.737
O 45.936 66.161 60.452
H 48.913 71.058 56.855
H 44.285 59.029 64.086
H 44.302 66.018 63.566
H 44.668 67.27 62.788
H 43.225 60.715 62.26
H 44.557 61.179 62.823
H 46.187 64.799 63.522
H 47.333 63.854 63.839
H 50.53 63.626 57.038
H 49.515 64.756 57.018
H 44.875 57.855 66.72
H 45.843 58.294 65.635
H 50.777 67.808 61.295
H 49.644 68.789 61.046
H 38.742 65.061 57.14
H 37.724 65.66 56.185
H 43.01 58.21 63.978
H 38.816 65.598 66.027
H 39.67 66.484 66.917
H 47.484 65.666 53.458
H 46.544 65.642 52.266
H 46.838 65.028 57.966
H 45.738 64.896 56.927
H 49.166 57.257 59.842
H 48.836 56.576 61.159
H 37.165 63.032 59.378
H 35.791 62.417 59.176
H 45.145 70.679 66.445
H 43.34 56.484 60.668
H 42.975 57.89 61.111
H 44.355 71.479 67.466
H 52.996 58.483 63.727
H 53.729 59.712 63.219
H 46.866 70.1 63.435
H 46.968 71.265 64.403
H 51.996 59.137 61.81
H 50.743 58.516 62.403
H 44.432 63.459 52.981
H 44.58 64.97 53.01
H 41.471 63.138 70.628
H 42.893 63.671 70.682
H 43.173 68.226 53.175
H 43.064 66.817 53.729
H 51.373 56.572 64.331
H 50.306 57.651 64.378
H 39.072 67.617 59.338
H 40.221 66.626 59.28
H 36.339 63.389 57.065
H 37.611 62.584 57.271
H 44.438 64.102 68.757
H 44.242 62.979 67.753
H 40.094 60.579 64.014
H 41.552 60.379 63.638
H 36.85 63.194 63.695
H 40.823 57.189 62.371
H 40.362 56.116 61.4
H 37.963 64.218 63.828
H 37.99 64.956 70.221
H 51.934 55.783 60.774
H 41.484 65.54 54.575
H 41.425 66.753 55.488
H 50.949 56.406 61.748
H 45.091 63.107 59.027
H 45.991 62.268 58.137
H 42.013 55.195 62.971
H 40.071 58.592 59.643
H 47.447 66.6 67.881
H 47.816 65.51 68.873
H 52.824 59.013 59.601
H 53.859 59.644 58.686
H 37.701 68.07 61.112
H 39.072 68.248 61.74
H 50.252 67.172 55.383
H 43.74 58.773 58.543
H 44.771 57.746 58.977
H 41.845 56.68 65.945
H 42.428 58.065 66.163
H 49.229 67.773 54.435
H 37.394 62.019 61.679
H 38.447 61.684 62.721
H 36.893 63.76 54.557
H 53.215 64.64 58.54
H 51.841 65.201 58.22
H 42.193 61.076 55.838
H 43.158 60.619 56.919
H 49.553 62.252 64.971
H 48.288 61.43 64.794
H 52.619 61.279 60.963
H 52.599 62.796 61.009
H 40.917 61.518 58.754
H 46.957 59.579 59.002
H 47.376 58.173 58.611
H 41.545 60.362 59.513
H 43.404 69.298 56.635
H 50.956 54.17 61.906
H 49.563 53.632 62.186
H 43.713 68.945 58.079
H 48.023 68.256 56.865
H 46.725 68.488 56.111
H 37.481 66.12 54.005
H 38.426 65.586 62.168
H 39.807 66.203 62.302
H 36.376 60.877 63.258
H 34.899 61.215 63.359
H 38.796 65.421 53.708
H 44.214 65.47 58.411
H 39.486 58.643 64.953
H 40.875 58.217 64.51
H 39.384 68.564 55.019
H 47.452 60.45 56.577
H 46.262 61.291 56.148
H 37.308 66.269 64.288
H 36.59 67.327 63.469
H 38.851 68.923 57.532
H 40.289 68.447 57.632
H 36.445 68.744 59.005
H 40.479 59.616 57.739
H 41.561 58.553 57.801
H 45.029 55.997 64.522
H 45.41 54.664 65.141
H 48.784 70.064 53.405
H 48.371 70.545 54.786
H 40.694 70.853 66.749
H 41.151 69.406 66.699
H 39.637 63.829 71.642
H 44.565 66.948 58.436
H 52.665 68.858 63.124
H 51.627 67.862 63.608
H 43.654 64.068 56.006
H 47.132 58.827 54.454
H 47.611 57.441 54.849
H 42.522 63.356 56.726
H 43.628 56.596 56.734
H 39.379 58.815 62.761
H 38.038 59.528 62.755
H 45.253 62.649 61.181
H 46.162 62.674 62.398
H 41.348 61.094 65.967
H 42.594 60.27 66.241
H 46.846 57.686 60.69
H 46.996 58.725 61.787
H 44.903 57.508 62.127
H 45.323 56.16 61.568
H 49.447 59.678 55.824
H 43.69 54.437 61.394
H 49.083 70.443 66.059
H 47.788 69.651 66.113
H 41.534 66.713 71.697
H 40.283 66.06 71.136
H 44.472 62.122 70.798
H 47.204 64.28 60.002
H 48.163 63.334 60.704
H 46.396 65.895 61.258
H 46.623 66.59 59.927
H 46.816 66.334 55.452
H 48.31 66.182 55.679
H 41.807 65.649 68.967
H 47.304 54.178 62.981
H 47.239 55.623 62.516
H 42.309 66.75 68.048
H 48.487 60.222 61.173
H 47.885 61.196 60.175
H 44.669 65.966 54.97
H 44.798 66.768 56.253
H 41.689 64.541 60.89
H 43.91 64.84 66.05
H 45.255 64.135 66.034
H 41.609 66.049 61.049
H 40.859 60.162 68.399
H 39.775 60.497 67.389
H 45.068 60.35 59.826
H 45.119 59.714 61.205
H 44.534 58.638 56.496
H 46.038 58.488 56.352
H 41.918 65.467 57.774
H 40.81 64.448 57.574
H 45.208 61.177 54.183
H 44.26 61.605 55.29
H 44.357 65.653 70.913
H 45.879 52.908 60.86
H 37.657 60.541 60.07
H 38.196 61.064 58.75
H 45.624 65.339 70.136
H 43.779 65.785 60.71
H 43.833 64.304 60.378
H 39.647 64.193 60.148
H 39.591 62.676 60.132
H 38.614 62.358 64.81
H 38.738 62.105 66.303
H 37.063 60.892 65.348
H 37.144 59.468 64.825
H 50.836 58.953 57.369
H 51.519 60.08 58.123
H 35.637 65.007 61.633
H 44.642 71.135 63.778
H 45.311 68.917 54.439
H 47.35 63.445 54.914
H 45.859 63.315 55.171
H 45.273 68.9 64.875
H 46.372 67.988 65.39
H 48.838 61.286 58.194
H 49.155 59.86 58.61
H 45.516 66.237 66.892
H 44.914 67.107 67.981
H 36.923 64.019 67.967
H 50.577 61.345 59.767
H 49.326 68.968 63.663
H 49.913 68.325 64.907
H 50.717 59.885 60.162
H 46.461 61.494 67.45
H 46.198 60.619 68.663
H 49.091 54.498 59.69
H 48.068 53.818 60.583
H 41.959 62.883 67.94
H 40.457 62.746 67.769
H 37.423 65.225 60.234
H 37.65 65.984 58.938
H 42.019 66.403 63.548
H 41.655 65.02 63.037
H 37.738 62.83 68.443
H 40.879 69.573 59.427
H 42.129 68.727 59.59
H 41.295 62.258 61.594
H 42.739 62.665 61.361
H 43.805 68.34 70.571
H 50.769 70.739 62.272
H 49.499 71.566 62.373
H 43.897 62.704 64.353
H 44.218 63.824 63.379
H 44.862 67.929 71.581
H 48.189 64.985 62.158
H 48.023 66.31 62.881
H 41.269 62.762 64.155
H 40.104 63.708 63.919
H 47.556 63.321 68.843
H 41.464 56.423 59.521
