569
xyz format
O 36.431 65.411 42.414
O 48.932 74.673 45.769
O 49.082 73.724 49.746
O 39.117 70.614 42.097
O 36.862 74.537 51.0
O 34.964 69.177 43.22
O 40.58 71.96 51.324
O 41.949 71.846 45.23
O 48.972 71.83 41.053
O 41.503 67.511 37.057
O 41.578 68.754 43.816
O 33.588 72.568 49.856
O 39.268 67.762 44.279
O 43.758 73.963 38.954
O 40.043 73.587 37.153
O 38.605 65.223 44.081
O 43.198 71.925 49.376
O 42.061 72.853 36.667
O 44.78 72.802 57.887
O 44.544 69.498 54.368
O 51.394 76.14 42.596
O 47.572 65.923 41.657
O 50.752 72.257 50.495
O 41.36 64.47 42.569
O 49.587 74.158 56.85
O 51.937 69.553 51.704
O 51.37 72.079 54.307
O 49.158 68.118 50.586
O 44.064 70.738 47.13
O 39.239 72.091 57.694
O 34.149 71.105 39.703
O 48.459 67.826 37.322
O 47.46 69.791 41.186
O 36.648 67.56 41.388
O 37.697 70.486 44.696
O 44.923 69.41 49.975
O 44.215 68.372 39.428
O 38.371 70.189 48.289
O 39.659 72.374 53.94
O 48.185 65.582 49.733
O 46.719 72.536 55.898
O 39.261 63.363 48.649
O 42.7 66.81 51.56
O 42.36 74.43 51.431
O 52.739 68.798 43.274
O 36.158 68.14 47.875
O 31.974 67.306 45.976
O 45.669 62.484 44.645
O 44.145 66.322 55.699
O 45.392 75.422 45.818
O 49.004 75.83 43.481
O 54.162 71.746 44.896
O 49.436 65.964 51.511
O 49.133 66.643 45.444
O 42.549 75.651 53.252
O 34.706 64.629 41.292
O 47.457 65.997 56.091
O 44.504 70.149 44.291
O 50.941 78.844 49.76
O 52.247 72.371 38.984
O 45.743 68.597 37.768
O 49.414 73.68 39.114
O 36.026 71.251 53.232
O 29.459 67.221 47.295
O 40.217 74.827 57.991
O 52.391 73.404 45.204
O 46.392 62.363 52.051
O 40.219 71.619 35.461
O 42.018 63.872 45.28
O 39.264 72.287 46.072
O 34.074 64.267 46.582
O 40.58 66.22 48.573
O 39.046 75.707 55.203
O 40.433 75.629 51.747
O 47.555 76.079 57.71
O 36.625 68.739 52.341
O 53.628 73.72 48.648
O 35.681 68.425 39.15
O 45.906 73.678 35.492
O 43.316 64.901 49.42
O 35.843 64.144 45.28
O 40.594 75.02 44.73
O 31.681 64.007 47.357
O 48.52 64.216 44.431
O 48.912 72.1 44.547
O 48.235 71.452 38.647
O 51.26 74.535 48.122
O 47.662 68.301 55.971
O 40.987 73.689 47.57
O 38.169 64.465 40.819
O 38.714 68.244 49.258
O 45.646 66.102 46.816
O 51.35 75.601 51.898
O 52.153 70.067 46.052
O 37.86 65.411 53.471
O 46.604 71.79 52.932
O 52.438 69.578 54.231
O 48.397 65.069 39.805
O 36.886 65.07 47.437
O 48.334 69.772 54.208
O 48.328 69.737 43.505
O 41.988 74.705 42.66
O 52.317 76.433 49.131
O 49.054 74.551 35.064
O 46.897 71.322 34.432
O 45.601 66.564 49.948
O 32.416 70.089 49.615
O 45.913 75.626 50.034
O 42.977 69.149 57.488
O 38.876 74.138 40.585
O 53.33 68.67 47.642
O 36.687 71.866 49.769
O 45.055 71.826 36.919
O 49.8 68.0 55.179
O 49.537 73.242 53.011
O 43.634 67.596 53.742
O 37.313 73.439 56.155
O 34.639 70.179 56.839
O 46.061 73.681 54.138
O 46.679 73.192 38.953
O 41.672 65.82 55.48
O 45.906 77.328 42.59
O 43.588 75.185 57.835
O 44.778 74.834 55.99
O 51.514 77.722 47.032
O 43.63 68.584 47.013
O 51.483 70.953 41.956
O 47.284 70.715 45.176
O 39.893 67.174 52.309
O 44.951 63.541 49.997
O 50.798 67.973 52.906
O 40.938 68.178 49.511
O 43.137 74.945 48.592
O 42.982 73.392 53.7
O 38.662 70.096 38.776
O 44.499 64.204 53.591
O 36.061 67.482 45.142
O 45.857 68.714 34.18
O 45.801 64.68 44.688
O 51.139 69.684 39.343
O 45.012 65.452 37.908
O 47.516 66.958 35.533
O 46.99 75.288 48.146
O 38.92 76.07 49.131
O 49.549 69.373 47.7
O 36.981 68.8 36.949
O 44.197 62.054 47.458
O 40.191 69.018 55.291
O 44.177 64.688 41.352
O 38.029 73.072 42.967
O 48.587 71.379 57.705
O 50.899 67.52 41.25
O 44.074 77.278 46.493
O 47.592 70.041 36.215
O 39.413 66.158 35.805
O 34.786 72.078 41.96
O 40.528 62.488 46.463
O 37.305 72.804 37.689
O 45.492 72.766 46.761
O 43.908 72.08 41.848
O 36.464 71.509 40.554
O 45.407 72.069 49.331
O 38.824 72.795 48.166
O 43.051 65.884 44.539
O 44.864 75.995 53.24
O 46.644 68.847 52.456
O 47.759 65.644 47.534
O 32.643 70.762 53.145
O 49.831 75.433 54.553
O 34.86 72.365 55.699
O 40.529 69.2 35.079
O 41.049 76.021 56.058
O 40.496 68.562 45.922
O 46.269 67.635 39.724
O 49.873 69.62 45.066
O 50.93 71.658 47.087
O 37.832 70.091 54.695
O 41.966 73.232 56.525
O 44.655 67.068 42.12
O 42.133 66.588 46.963
O 43.944 71.675 52.405
O 43.992 75.074 41.265
O 38.197 65.74 51.026
O 33.263 70.338 46.724
O 44.975 72.911 43.91
O 38.49 63.281 46.223
O 41.782 73.087 39.81
O 46.46 73.561 50.56
O 51.192 66.775 48.366
O 34.507 67.204 46.762
O 41.787 76.941 48.916
O 53.207 72.816 52.667
O 42.354 69.544 51.287
O 48.296 77.728 46.186
O 35.559 67.152 51.233
O 43.115 70.201 40.65
O 49.013 70.417 51.058
O 47.396 65.304 52.568
O 44.167 77.187 57.112
O 48.954 76.999 48.202
O 46.357 78.554 52.067
O 49.688 78.273 52.177
O 43.023 69.042 36.623
O 51.511 74.089 41.788
O 49.277 63.91 50.661
O 43.266 77.536 50.451
O 41.381 71.369 42.682
O 40.835 70.15 38.439
O 46.713 74.289 41.021
H 37.427 71.517 40.625
H 36.242 72.425 40.346
H 43.08 72.324 41.417
H 31.104 69.565 47.702
H 30.257 70.135 46.578
H 44.567 72.175 41.149
H 43.502 69.382 35.857
H 46.283 73.282 46.563
H 44.852 73.066 46.104
H 45.561 71.49 48.575
H 45.131 72.903 48.929
H 42.828 69.833 37.141
H 50.63 78.437 52.31
H 49.668 77.595 51.491
H 47.127 69.197 36.155
H 46.954 70.625 36.644
H 43.114 77.202 46.55
H 44.309 77.8 47.27
H 46.995 77.883 51.796
H 45.776 78.085 52.679
H 47.484 65.666 53.458
H 46.544 65.642 52.266
H 51.523 73.16 42.049
H 50.733 74.158 41.222
H 37.515 73.312 43.747
H 38.678 72.442 43.304
H 43.814 69.959 41.27
H 45.613 64.91 37.381
H 44.774 66.175 37.315
H 42.302 69.994 41.128
H 47.287 75.485 47.249
H 47.197 74.352 48.255
H 39.239 75.232 49.489
H 39.003 76.682 49.872
H 48.259 66.343 35.498
H 37.777 73.34 38.339
H 35.446 71.631 42.505
H 34.813 67.242 50.627
H 36.262 66.79 50.68
H 49.112 69.992 48.298
H 50.217 68.951 48.254
H 50.919 71.133 42.719
H 46.791 71.289 45.776
H 50.982 70.301 41.45
H 47.518 69.956 45.725
H 34.318 66.534 46.093
H 34.24 66.785 47.589
H 38.693 64.204 46.029
H 50.528 66.69 47.67
H 50.802 66.306 49.114
H 44.432 63.459 52.981
H 44.58 64.97 53.01
H 45.428 73.171 43.099
H 44.248 73.543 43.979
H 36.453 73.853 56.297
H 45.987 76.821 41.772
H 46.812 77.374 42.921
H 38.409 62.876 45.351
H 38.295 65.428 50.117
H 43.991 75.847 41.844
H 44.01 74.329 41.879
H 38.852 65.226 51.515
H 43.173 68.226 53.175
H 49.916 72.436 52.638
H 43.064 66.817 53.729
H 45.103 69.201 33.826
H 37.713 70.233 38.659
H 38.712 69.317 39.344
H 36.488 66.658 44.875
H 36.498 68.152 44.602
H 45.462 68.12 34.831
H 44.598 71.665 51.695
H 43.106 71.532 51.947
H 50.702 78.027 46.608
H 51.876 77.085 46.402
H 50.925 70.229 38.575
H 43.285 75.768 58.543
H 43.135 74.352 58.015
H 53.076 76.696 49.667
H 45.375 75.335 55.421
H 51.69 76.083 49.777
H 44.189 74.387 55.368
H 47.589 69.124 43.409
H 47.045 73.464 38.102
H 46.143 72.419 38.736
H 42.081 73.855 43.108
H 35.393 70.153 56.237
H 37.26 72.62 56.663
H 48.935 69.476 42.801
H 45.257 73.338 53.729
H 46.608 73.942 53.387
H 44.395 68.569 47.602
H 42.877 68.63 47.615
H 44.136 67.75 42.563
H 45.271 66.769 42.8
H 41.484 65.54 54.575
H 41.425 66.753 55.488
H 41.334 74.531 41.971
H 48.519 72.564 45.297
H 49.333 72.804 44.037
H 48.795 70.729 38.338
H 47.752 71.067 39.389
H 35.662 72.094 55.234
H 51.25 75.321 47.561
H 51.05 73.816 47.514
H 34.194 72.408 55.001
H 47.758 64.65 39.215
H 33.184 69.989 52.94
H 32.208 70.524 53.973
H 49.086 65.387 39.208
H 49.691 70.311 45.715
H 47.114 67.989 39.419
H 49.229 67.773 54.435
H 46.141 66.848 39.179
H 36.096 65.477 47.059
H 49.742 68.801 45.561
H 37.591 65.692 47.218
H 49.962 75.332 53.602
H 48.872 75.478 54.649
H 38.777 73.222 40.296
H 38.086 74.297 41.117
H 44.655 72.699 37.014
H 45.859 67.44 50.262
H 45.103 66.193 50.687
H 44.369 71.306 36.482
H 52.899 68.294 48.42
H 38.445 70.545 54.104
H 37.445 70.805 55.217
H 31.576 69.677 49.853
H 32.612 70.661 50.367
H 43.404 69.298 56.635
H 45.903 76.458 50.523
H 45.186 75.72 49.407
H 46.761 71.459 52.039
H 46.335 65.206 44.08
H 46.427 64.417 45.374
H 48.023 68.256 56.865
H 46.725 68.488 56.111
H 46.658 70.999 53.483
H 44.485 62.926 47.161
H 43.398 62.237 47.968
H 37.481 66.12 54.005
H 38.796 65.421 53.708
H 41.244 73.182 48.35
H 41.093 74.607 47.849
H 36.125 71.78 50.549
H 45.821 75.997 53.37
H 44.707 75.207 52.706
H 45.817 68.84 51.958
H 46.798 67.916 52.657
H 47.774 66.54 47.174
H 48.05 65.095 46.796
H 50.689 74.995 51.542
H 43.6 64.392 40.637
H 51.895 75.04 52.463
H 45.06 64.441 41.052
H 48.598 73.036 53.098
H 39.384 68.564 55.019
H 40.39 69.599 54.546
H 43.828 73.641 59.979
H 52.069 69.691 45.167
H 51.555 69.53 46.587
H 36.239 72.534 49.235
H 37.64 65.231 40.564
H 38.902 64.849 41.317
H 42.496 66.034 43.763
H 43.921 65.695 44.165
H 38.676 67.625 49.999
H 38.928 67.683 48.502
H 44.978 65.415 46.708
H 45.549 66.643 46.023
H 48.784 70.064 53.405
H 48.371 70.545 54.786
H 36.28 68.935 39.71
H 46.169 74.17 34.704
H 46.681 73.138 35.694
H 40.259 68.211 46.79
H 41.12 69.27 46.123
H 51.854 74.186 45.385
H 31.93 64.916 47.568
H 34.118 63.308 46.479
H 33.384 64.533 45.961
H 41.434 76.781 55.604
H 41.775 75.684 56.597
H 39.252 72.947 45.368
H 39.446 71.46 45.607
H 35.113 64.064 44.653
H 36.63 64.103 44.723
H 40.76 74.539 45.551
H 41.393 75.547 44.608
H 43.836 65.591 48.991
H 43.006 64.358 48.685
H 51.601 71.407 47.734
H 50.142 71.815 47.623
H 40.153 66.017 47.731
H 38.644 75.024 54.652
H 39.303 76.39 54.571
H 41.079 65.419 48.776
H 37.934 73.095 47.945
H 38.945 73.091 49.077
H 42.962 63.672 45.304
H 41.921 64.593 45.916
H 39.591 72.739 37.248
H 39.921 74.009 38.013
H 48.779 74.405 39.075
H 50.175 74.014 38.623
H 40.659 73.98 58.129
H 39.705 74.69 57.184
H 35.828 72.175 53.035
H 35.158 70.861 53.398
H 51.793 72.154 39.808
H 45.193 68.508 36.98
H 45.575 69.5 38.064
H 51.592 78.51 49.131
H 50.094 78.603 49.363
H 44.455 69.756 43.411
H 45.255 70.753 44.23
H 40.767 71.632 43.379
H 42.185 71.135 43.161
H 46.816 66.334 55.452
H 42.841 76.003 54.102
H 42.577 76.418 52.665
H 45.999 74.634 40.471
H 47.303 75.045 41.132
H 48.293 66.398 45.037
H 49.639 65.821 45.439
H 48.139 75.691 43.886
H 48.869 76.594 42.907
H 45.874 76.255 45.748
H 45.782 74.873 45.126
H 44.669 65.966 54.97
H 44.798 66.768 56.253
H 38.386 63.77 48.673
H 39.732 63.871 47.978
H 43.039 65.92 51.397
H 43.279 67.375 51.033
H 41.092 69.619 35.741
H 40.962 69.411 34.242
H 32.156 66.398 45.705
H 32.633 67.825 45.498
H 37.408 69.092 52.781
H 35.931 68.824 53.007
H 46.874 75.569 57.253
H 39.772 74.94 51.603
H 40.153 76.046 52.572
H 36.512 69.032 47.985
H 36.671 67.611 48.499
H 51.954 68.773 42.712
H 42.071 73.541 51.674
H 43.081 74.275 50.809
H 40.874 70.877 37.805
H 40.677 69.374 37.888
H 40.362 72.142 54.559
H 39.028 72.864 54.482
H 43.903 77.183 51.085
H 42.548 77.863 51.007
H 47.473 65.04 50.095
H 47.767 66.44 49.586
H 46.731 72.001 56.702
H 46.711 73.444 56.227
H 52.126 75.757 43.096
H 51.826 76.545 41.833
H 46.714 66.132 41.267
H 48.122 66.68 41.421
H 50.935 72.474 49.572
H 50.957 71.316 50.554
H 36.961 70.202 45.253
H 38.329 69.76 44.763
H 40.945 64.153 41.756
H 42.299 64.294 42.43
H 48.867 73.882 56.269
H 43.077 66.458 47.116
H 44.35 70.178 50.093
H 45.811 69.788 49.948
H 39.444 72.275 56.769
H 37.524 67.215 41.601
H 36.205 67.605 42.245
H 42.101 67.072 46.129
H 49.606 76.547 48.752
H 48.318 77.346 48.84
H 37.731 70.886 48.098
H 39.162 70.466 47.811
H 43.791 67.872 40.137
H 43.476 68.783 38.964
H 40.86 72.82 39.71
H 41.074 71.758 35.034
H 39.647 71.328 34.741
H 41.738 74.05 39.86
H 43.526 75.571 47.969
H 43.363 74.083 48.222
H 43.237 72.641 54.25
H 42.115 73.644 54.043
H 41.832 67.821 49.434
H 40.898 68.848 48.817
H 39.806 68.132 52.396
H 40.27 67.057 51.428
H 50.13 68.548 52.511
H 33.502 70.209 47.65
H 45.184 62.696 49.593
H 44.458 63.29 50.787
H 44.864 70.622 46.602
H 43.353 70.702 46.479
H 44.888 70.363 54.624
H 45.311 68.917 54.439
H 52.024 71.688 54.9
H 50.726 72.476 54.906
H 45.608 73.496 51.01
H 47.104 73.494 51.277
H 51.909 69.275 50.78
H 48.715 68.416 49.781
H 50.077 68.005 50.313
H 43.388 77.179 56.542
H 45.34 73.587 57.941
H 44.458 72.812 56.977
H 41.193 73.543 56.038
H 42.145 72.365 56.14
H 42.762 71.265 48.823
H 42.484 72.273 49.924
H 42.734 73.109 36.023
H 42.519 72.224 37.239
H 38.182 65.963 43.628
H 39.364 65.017 43.522
H 48.192 69.965 51.288
H 35.35 69.85 43.795
H 48.72 71.282 50.748
H 47.504 77.953 45.683
H 49.18 73.57 48.798
H 49.252 74.669 49.843
H 48.494 76.825 45.909
H 39.515 71.261 41.501
H 38.72 69.967 41.501
H 37.264 74.264 50.165
H 36.086 75.041 50.726
H 40.053 72.667 50.93
H 40.613 71.287 50.633
H 44.621 74.24 38.623
H 43.844 73.006 39.047
H 42.08 68.207 43.199
H 33.997 72.338 50.7
H 33.162 73.416 50.032
H 41.003 69.276 43.244
H 39.099 68.189 43.43
H 40.04 67.209 44.108
H 41.409 66.955 36.273
H 40.942 67.08 37.713
H 48.373 67.045 37.882
H 48.688 68.529 37.943
H 44.905 77.227 56.491
H 46.852 69.057 41.337
H 48.205 69.381 40.728
H 49.303 74.846 46.644
H 49.707 74.641 45.194
H 42.106 77.715 48.437
H 41.079 77.291 49.472
H 42.202 69.789 50.365
H 41.648 68.914 51.476
H 41.459 72.302 45.926
H 42.481 72.545 44.829
H 49.881 72.145 40.971
H 48.891 71.604 41.988
