72
xyz format
O 48.09 32.523 34.072
O 49.76 32.907 36.399
O 45.344 31.758 35.142
O 52.3 31.798 35.173
O 50.329 31.882 38.276
O 44.611 31.972 38.288
O 45.521 29.325 37.697
O 50.25 37.275 38.303
O 48.445 33.465 39.636
O 43.138 32.651 34.92
O 46.728 32.307 32.048
O 47.795 28.967 36.092
O 41.111 30.817 34.847
O 43.201 34.415 36.909
O 44.329 29.101 35.832
O 48.183 38.292 34.342
O 47.999 38.989 38.43
O 48.537 35.954 39.136
O 43.35 36.09 35.489
O 42.659 32.133 32.256
O 49.57 30.11 35.451
O 47.799 36.232 36.156
O 41.964 33.859 39.435
O 50.182 27.31 36.279
O 46.121 34.438 36.228
O 49.269 31.904 40.95
H 46.728 33.729 35.982
H 45.992 34.926 35.406
H 48.612 38.745 37.725
H 50.709 38.443 35.35
H 44.083 35.898 34.891
H 43.312 31.797 32.883
H 41.847 32.18 32.775
H 49.338 35.466 39.363
H 46.325 27.176 37.929
H 46.819 31.548 31.458
H 52.046 35.375 35.558
H 53.221 33.527 37.237
H 42.51 33.367 35.077
H 43.318 32.305 35.803
H 42.029 30.606 34.639
H 48.728 39.047 34.6
H 43.968 29.666 35.138
H 44.548 28.282 35.371
H 42.765 34.868 37.641
H 44.017 34.078 37.3
H 40.704 33.139 36.314
H 50.065 29.532 36.044
H 49.215 30.79 36.038
H 45.676 34.913 39.613
H 46.951 28.519 36.232
H 48.117 29.135 36.987
H 48.407 36.911 36.473
H 48.01 35.464 36.701
H 47.635 33.725 39.18
H 42.414 33.146 38.966
H 45.827 30.939 35.308
H 45.467 31.91 34.197
H 49.658 36.298 34.107
H 46.319 29.406 38.233
H 44.739 32.725 38.878
H 52.696 32.675 35.088
H 51.581 31.807 34.53
H 51.059 29.7 39.774
H 48.533 33.204 34.594
H 47.766 31.9 34.735
H 49.562 33.672 36.953
H 50.649 33.087 36.068
H 43.124 34.662 33.181
H 51.117 32.027 38.813
H 50.344 30.933 38.097
H 49.407 31.213 40.29
