89
xyz format
O 37.593 51.641 71.486
O 35.06 50.375 70.509
O 40.079 48.43 70.027
O 41.642 47.008 74.741
O 40.764 50.231 68.466
O 39.373 48.924 72.787
O 36.526 54.043 73.94
O 45.791 57.047 72.962
O 42.532 51.14 70.219
O 38.207 46.359 70.377
O 38.283 51.259 74.688
O 41.03 51.908 71.811
O 39.999 54.215 73.409
O 37.723 55.759 74.62
O 43.846 53.612 67.873
O 39.658 54.91 70.832
O 43.705 55.211 72.213
O 46.858 53.389 72.654
O 41.46 54.421 67.434
O 42.871 48.179 72.138
O 44.781 57.993 70.55
O 41.984 50.858 74.789
O 43.87 51.972 72.863
O 41.594 51.597 66.938
O 40.805 46.606 71.031
O 42.631 53.482 71.005
O 44.827 51.62 69.107
O 44.902 53.694 74.853
O 41.767 55.064 74.406
O 39.914 52.873 75.823
O 43.461 55.677 69.217
H 42.494 48.331 71.263
H 41.95 55.232 67.619
H 37.721 55.995 73.684
H 47.273 53.004 71.872
H 43.3 56.069 72.036
H 44.055 55.302 73.108
H 34.518 48.284 70.928
H 40.37 55.562 70.798
H 39.435 54.767 69.904
H 43.073 53.145 68.215
H 40.525 53.866 72.678
H 39.563 54.988 73.028
H 37.01 48.214 70.993
H 36.802 49.59 71.601
H 44.471 58.295 71.413
H 42.204 50.373 75.594
H 41.092 50.557 74.576
H 40.041 56.314 67.458
H 39.349 54.989 67.188
H 44.493 52.47 72.319
H 43.178 51.714 72.242
H 40.554 46.559 71.962
H 41.149 52.222 67.523
H 38.707 48.538 67.324
H 37.394 49.054 67.884
H 45.137 52.517 69.281
H 40.488 51.49 71.131
H 40.614 51.632 72.637
H 42.124 51.624 69.49
H 43.066 50.469 69.777
H 37.535 51.431 74.103
H 39.01 51.069 74.081
H 45.594 56.554 72.155
H 40.504 52.611 75.105
H 39.298 53.485 75.402
H 37.133 53.584 74.534
H 44.123 55.641 69.92
H 42.625 55.755 69.693
H 43.529 53.636 70.686
H 42.078 53.693 70.242
H 39.86 49.008 73.616
H 39.676 49.677 72.265
H 42.244 55.881 74.215
H 42.425 54.373 74.257
H 41.372 49.514 68.247
H 40.098 50.188 67.769
H 45.83 50.05 71.177
H 44.683 50.527 74.431
H 38.372 57.355 68.846
H 35.123 51.16 71.066
H 40.648 49.131 70.368
H 39.189 48.794 70.116
H 40.742 47.164 74.431
H 42.189 47.502 74.117
H 38.137 51.622 70.689
H 37.78 52.506 71.871
H 44.953 52.762 74.608
H 45.521 54.124 74.249
