107
xyz format
O 64.275 48.624 42.465
O 62.173 44.389 42.685
O 60.603 53.293 37.665
O 63.103 48.738 45.302
O 63.678 51.852 40.364
O 61.097 47.285 39.771
O 65.525 52.671 44.585
O 65.778 46.918 42.973
O 64.222 45.19 42.549
O 66.673 43.966 42.372
O 62.787 52.349 46.174
O 59.399 49.094 44.669
O 60.062 44.345 41.674
O 68.37 46.646 41.621
O 56.906 48.665 42.027
O 58.972 44.967 38.96
O 68.556 48.274 43.101
O 61.369 48.486 42.344
O 62.31 52.908 43.54
O 60.701 48.478 37.688
O 65.993 48.457 40.905
O 59.194 50.643 35.513
O 63.68 50.758 43.388
O 66.182 51.454 42.628
O 59.438 46.785 42.027
O 59.429 55.082 42.667
O 59.719 49.752 39.534
O 67.213 49.441 44.803
O 64.33 43.585 40.127
O 59.652 52.897 39.842
O 61.838 51.324 39.278
O 63.232 47.84 39.281
O 58.618 46.359 37.294
O 60.246 52.807 42.008
O 59.295 50.375 42.726
H 63.975 50.553 44.284
H 64.068 51.625 43.212
H 60.514 46.676 44.414
H 67.939 50.061 39.219
H 58.678 45.644 36.648
H 59.218 47.031 36.947
H 64.494 44.506 39.89
H 61.811 47.628 42.321
H 61.969 49.066 41.859
H 61.375 51.229 36.583
H 67.075 48.516 45.041
H 66.596 49.919 45.37
H 68.948 48.078 43.961
H 68.549 49.239 43.066
H 57.456 47.877 42.123
H 58.173 45.031 39.498
H 59.501 45.723 39.244
H 59.944 53.127 45.335
H 60.184 54.698 43.131
H 65.12 47.07 45.415
H 58.859 51.368 36.055
H 58.991 49.856 36.034
H 62.806 53.46 44.157
H 58.232 51.655 44.266
H 62.068 52.136 44.067
H 59.744 50.716 39.572
H 59.2 49.505 40.31
H 60.613 45.028 41.273
H 60.141 43.6 41.066
H 67.849 46.221 42.313
H 66.29 50.784 43.315
H 66.857 51.225 41.977
H 60.208 48.851 44.202
H 61.866 52.299 46.461
H 63.056 53.242 46.421
H 62.006 54.987 45.525
H 61.651 46.72 40.324
H 60.583 47.797 40.408
H 63.119 52.069 41.12
H 64.24 51.139 40.691
H 63.962 45.689 41.765
H 64.512 44.34 42.195
H 62.01 54.729 41.698
H 66.602 44.13 43.32
H 66.314 43.076 42.265
H 66.066 46.248 43.605
H 66.372 47.661 43.139
H 65.426 48.856 40.233
H 66.176 49.185 41.511
H 61.282 48.21 36.965
H 60.556 49.419 37.527
H 64.823 52.659 45.248
H 66.269 52.248 45.031
H 59.713 53.832 39.609
H 58.821 52.836 40.33
H 63.749 47.196 39.78
H 62.991 48.502 39.941
H 58.898 46.42 41.316
H 63.274 48.61 46.244
H 62.142 48.826 45.255
H 62.477 43.573 43.101
H 61.974 44.967 43.432
H 60.972 53.748 36.898
H 60.955 52.271 41.631
H 60.194 52.508 42.924
H 60.22 50.359 42.451
H 58.973 49.494 42.499
H 63.637 48.505 43.18
H 64.095 47.884 41.872
H 62.361 50.531 39.103
H 62.071 51.917 38.553
H 61.654 49.027 34.861
