824
xyz format
Na 46.336 56.344 34.969
O 59.902 61.888 26.734
O 56.075 66.348 33.949
O 61.925 48.975 33.936
O 55.605 54.552 33.093
O 64.275 48.624 42.465
O 57.564 54.032 32.004
O 56.077 50.987 30.501
O 64.909 40.94 43.163
O 58.357 42.165 32.213
O 59.583 55.722 38.457
O 54.182 49.336 31.495
O 55.752 53.306 41.348
O 55.09 53.194 37.529
O 54.453 56.755 39.842
O 56.497 66.826 36.579
O 68.519 57.296 37.386
O 54.774 50.098 37.186
O 63.318 56.846 29.469
O 61.382 64.936 39.073
O 61.956 55.119 25.085
O 63.17 64.233 36.155
O 45.023 54.088 36.793
O 59.172 64.393 37.053
O 65.638 56.162 29.199
O 62.752 58.048 44.383
O 66.687 42.664 35.601
O 49.594 50.321 28.425
O 56.201 49.297 25.156
O 48.66 49.362 33.595
O 62.081 40.221 36.613
O 56.128 49.545 27.927
O 62.173 44.389 42.685
O 56.718 50.371 36.194
O 60.951 62.205 43.16
O 60.603 53.293 37.665
O 50.528 47.952 30.327
O 69.707 53.004 35.096
O 63.103 48.738 45.302
O 61.539 55.57 41.633
O 52.703 53.557 40.845
O 52.563 51.837 35.898
O 67.057 60.849 37.867
O 55.942 47.335 32.968
O 57.432 47.613 30.077
O 63.678 51.852 40.364
O 50.118 59.605 35.868
O 61.097 47.285 39.771
O 67.809 53.637 41.01
O 62.119 48.05 24.336
O 60.002 66.629 37.379
O 65.141 55.078 45.493
O 50.579 51.258 36.654
O 65.861 53.496 29.931
O 62.79 61.89 41.071
O 65.525 52.671 44.585
O 68.83 44.092 41.94
O 62.045 61.952 28.079
O 55.795 60.641 40.337
O 60.892 54.228 28.697
O 66.045 49.349 32.194
O 64.727 61.208 39.209
O 53.649 54.883 36.971
O 68.661 54.588 29.39
O 62.061 43.908 37.631
O 69.679 46.657 34.673
O 65.778 46.918 42.973
O 64.222 45.19 42.549
O 66.673 43.966 42.372
O 61.746 48.45 48.04
O 62.799 56.683 39.336
O 65.234 55.066 32.016
O 53.676 55.974 24.5
O 59.207 60.993 29.047
O 53.192 61.572 27.84
O 48.723 61.078 40.356
O 53.349 65.643 36.061
O 58.721 58.317 25.544
O 55.723 41.84 36.029
O 61.694 59.243 29.052
O 57.768 51.798 33.928
O 67.857 40.342 36.176
O 50.403 59.846 32.747
O 52.378 67.52 35.425
O 65.24 50.362 26.166
O 58.688 50.203 26.442
O 55.916 56.593 25.711
O 58.569 52.523 28.233
O 62.787 52.349 46.174
O 61.402 58.089 26.958
O 48.924 50.386 40.746
O 70.551 50.08 31.041
O 62.426 43.614 45.743
O 60.787 51.273 31.003
O 60.733 58.5 38.045
O 49.874 57.374 30.519
O 63.979 46.591 31.346
O 48.387 53.642 30.03
O 60.727 45.296 32.895
O 70.108 53.36 39.458
O 57.069 50.944 47.434
O 70.575 57.224 38.166
O 63.267 47.106 33.72
O 48.247 55.485 32.451
O 63.355 58.652 38.526
O 58.175 43.39 27.245
O 58.535 63.213 32.341
O 59.399 49.094 44.669
O 50.964 58.471 40.09
O 49.969 54.723 33.618
O 60.062 44.345 41.674
O 56.982 41.707 39.823
O 59.668 41.292 39.142
O 63.686 62.219 31.398
O 57.482 43.742 42.228
O 62.539 54.401 30.282
O 60.548 62.869 33.163
O 65.031 52.972 27.961
O 68.37 46.646 41.621
O 56.982 56.852 31.554
O 56.906 48.665 42.027
O 53.237 47.776 37.279
O 65.331 49.893 29.792
O 59.223 46.933 46.829
O 58.972 44.967 38.96
O 57.12 58.002 29.495
O 57.059 61.949 36.604
O 60.145 38.919 37.668
O 53.405 46.384 31.076
O 62.057 48.702 30.499
O 59.8 52.798 25.368
O 58.31 55.312 26.587
O 65.261 61.031 30.054
O 59.065 53.587 33.812
O 58.902 49.145 28.359
O 48.9 62.315 31.863
O 54.237 59.335 38.115
O 53.542 54.461 26.093
O 59.951 56.297 35.449
O 53.706 55.812 28.714
O 58.264 59.554 45.095
O 65.088 45.87 34.132
O 69.305 52.469 30.53
O 57.548 52.303 44.476
O 61.051 62.737 39.649
O 60.357 65.634 33.812
O 51.207 52.913 38.078
O 65.48 57.043 37.414
O 54.616 60.248 35.118
O 66.095 62.975 38.981
O 51.116 50.463 33.315
O 51.25 56.499 26.035
O 56.504 64.575 30.294
O 49.416 51.428 30.997
O 52.165 58.072 35.945
O 52.399 54.986 31.057
O 61.369 48.486 42.344
O 59.425 57.438 41.472
O 65.514 48.418 35.6
O 57.741 58.74 36.33
O 49.677 47.318 35.392
O 49.989 55.99 41.873
O 50.844 62.099 37.121
O 61.668 51.737 35.816
O 52.511 51.435 24.703
O 60.942 45.956 29.562
O 51.132 54.952 35.903
O 58.318 47.048 25.715
O 63.753 63.686 33.301
O 59.849 56.469 30.648
O 68.699 56.77 31.45
O 60.14 41.978 34.969
O 62.31 52.908 43.54
O 63.637 61.443 37.313
O 59.547 53.745 45.963
O 66.758 58.695 39.359
O 44.15 58.19 34.028
O 57.365 45.403 34.892
O 59.739 56.869 45.804
O 46.923 54.191 35.632
O 48.282 52.62 32.825
O 57.302 55.255 38.117
O 56.273 59.946 33.503
O 51.232 43.383 37.162
O 58.436 47.377 32.045
O 66.913 54.088 27.641
O 62.378 50.704 28.496
O 53.953 64.891 39.245
O 65.53 42.804 37.469
O 60.701 48.478 37.688
O 65.993 48.457 40.905
O 53.069 59.277 25.674
O 58.55 44.819 46.721
O 56.446 50.871 40.283
O 67.723 55.17 34.685
O 57.216 55.613 46.616
O 67.39 45.465 35.564
O 57.233 58.595 38.722
O 56.784 47.336 45.397
O 57.225 52.662 37.699
O 51.229 50.341 30.39
O 60.816 46.482 35.409
O 45.371 53.799 33.656
O 55.261 57.088 32.938
O 66.721 59.471 35.239
O 58.081 64.754 39.87
O 57.528 54.975 41.331
O 55.716 50.3 33.078
O 60.364 48.822 31.943
O 54.748 63.329 34.566
O 53.759 44.779 36.904
O 50.591 53.675 28.484
O 59.491 59.983 35.846
O 59.194 50.643 35.513
O 58.972 60.969 41.817
O 64.349 47.257 27.192
O 67.743 50.348 36.169
O 63.094 53.899 32.832
O 51.325 55.259 43.721
O 54.064 53.309 35.06
O 51.332 56.014 38.196
O 56.146 47.272 36.315
O 59.949 43.914 44.681
O 55.293 63.072 41.956
O 52.03 62.043 33.772
O 56.157 66.826 39.98
O 51.839 62.809 41.651
O 63.68 50.758 43.388
O 50.103 65.286 32.566
O 62.93 50.149 25.631
O 47.91 51.668 39.049
O 66.182 51.454 42.628
O 60.752 60.641 31.628
O 61.243 44.699 26.709
O 61.644 42.892 39.623
O 59.438 46.785 42.027
O 55.5 60.524 43.901
O 58.176 49.376 31.163
O 50.148 46.313 31.866
O 53.613 47.024 33.713
O 46.129 57.247 32.393
O 50.159 65.868 36.503
O 49.132 54.37 36.61
O 61.716 55.792 45.973
O 64.148 40.605 39.335
O 56.998 55.032 44.209
O 60.976 59.705 44.48
O 59.683 64.357 29.463
O 59.429 55.082 42.667
O 48.047 50.59 35.994
O 54.216 54.975 43.071
O 64.485 51.869 33.805
O 48.454 60.024 37.289
O 65.226 47.043 46.374
O 65.066 40.585 34.809
O 59.719 49.752 39.534
O 52.253 49.144 35.857
O 64.33 43.585 40.127
O 47.816 63.835 36.781
O 52.727 62.421 39.125
O 59.652 52.897 39.842
O 60.461 57.639 43.872
O 67.061 43.58 29.222
O 52.876 52.59 28.746
O 56.121 58.474 44.4
O 47.215 54.53 39.914
O 58.394 41.651 42.138
O 62.582 54.613 34.904
O 54.759 58.174 27.922
O 58.439 45.375 30.012
O 62.357 41.464 42.486
O 63.8 55.418 37.834
O 52.559 49.22 28.088
O 61.683 63.469 29.945
O 65.47 62.538 35.031
O 60.785 47.793 26.633
O 61.838 51.324 39.278
O 57.805 42.605 36.97
O 59.542 64.838 41.515
O 63.232 47.84 39.281
O 59.68 39.323 41.176
O 60.675 62.226 35.959
O 59.887 50.759 47.083
O 62.766 59.39 42.403
O 52.591 52.933 32.31
O 49.821 63.232 39.043
O 52.623 59.858 41.431
O 58.618 46.359 37.294
O 56.58 44.706 27.996
O 65.356 57.574 30.96
O 64.169 55.732 26.589
O 60.246 52.807 42.008
O 51.981 58.893 29.032
O 67.305 50.844 30.686
O 59.295 50.375 42.726
O 60.832 46.359 45.268
O 66.557 54.01 37.138
O 51.146 64.523 34.918
O 62.801 52.843 25.943
O 63.671 43.581 35.382
O 56.162 64.145 38.985
O 66.205 46.987 28.342
O 51.804 48.349 33.324
C 52.893 51.882 46.466
C 52.571 50.405 44.506
H 51.685 56.05 43.3
H 51.284 54.616 43.003
H 63.285 50.493 24.802
H 62.172 50.719 25.811
H 50.006 64.449 33.037
H 63.975 50.553 44.284
H 64.068 51.625 43.212
H 61.772 46.577 45.259
H 60.514 46.676 44.414
H 52.386 62.065 41.933
H 63.452 56.379 26.592
H 64.836 56.131 26.016
H 54.418 62.882 41.595
H 55.779 63.427 41.202
H 59.73 44.599 44.038
H 56.951 45.537 28.32
H 55.869 44.987 27.407
H 56.92 47.648 36.752
H 55.849 46.585 36.924
H 50.568 56.014 38.786
H 52.087 56.004 38.798
H 59.645 43.1 44.261
H 62.385 53.25 32.746
H 62.646 54.745 32.709
H 53.645 53.367 34.192
H 58.678 45.644 36.648
H 59.218 47.031 36.947
H 54.824 52.733 34.909
H 67.394 50.84 35.415
H 68.439 49.801 35.783
H 52.92 51.905 25.441
H 51.777 51.145 33.489
H 60.497 48.025 32.471
H 60.185 49.506 32.601
H 60.765 50.376 47.203
H 59.906 51.096 46.178
H 49.247 63.066 38.285
H 50.569 63.711 38.665
H 50.373 50.713 33.879
H 52.456 48.412 28.606
H 52.64 49.912 28.756
H 65.275 63.232 38.542
H 54.39 44.496 37.578
H 54.286 44.81 36.096
H 51.686 52.916 31.975
H 56.502 49.988 33.544
H 55.17 50.68 33.778
H 53.099 52.483 31.624
H 53.675 60.06 35.224
H 55.048 59.534 35.604
H 55.222 63.812 35.254
H 54.909 62.402 34.784
H 52.767 61.874 34.372
H 51.275 62.16 34.363
H 60.203 47.252 27.181
H 61.341 48.254 27.274
H 66.678 59.608 39.662
H 66.446 58.729 38.446
H 65.161 57.173 36.512
H 66.366 56.679 37.294
H 56.71 66.603 39.22
H 56.395 66.163 40.64
H 51.33 49.833 31.204
H 51.625 51.195 30.602
H 50.001 56.851 41.436
H 57.268 56.08 38.617
H 57.233 54.572 38.796
H 49.175 55.581 41.552
H 61.452 41.697 42.244
H 51.624 62.05 36.554
H 62.793 41.322 41.637
H 56.493 59.211 38.8
H 57.863 58.909 39.382
H 66.705 44.851 35.855
H 67.015 46.334 35.753
H 64.494 44.506 39.89
H 61.811 47.628 42.321
H 61.969 49.066 41.859
H 64.317 43.129 39.276
H 50.107 62.084 36.498
H 65.782 59.407 35.02
H 66.974 58.56 35.43
H 58.591 65.48 39.489
H 58.545 63.964 39.566
H 57.569 52.964 36.849
H 57.492 51.735 37.739
H 62.065 55.11 35.55
H 62.317 53.697 35.054
H 52.633 58.573 26.17
H 57.513 46.716 45.269
H 57.151 48.004 45.988
H 59.99 46.227 34.981
H 61.455 45.839 35.076
H 54.516 57.202 33.54
H 56.016 56.967 33.527
H 56.94 57.967 44.337
H 56.174 58.89 45.269
H 67.463 53.326 27.42
H 66.577 54.383 26.786
H 50.649 43.047 36.469
H 60.51 46.007 30.424
H 61.04 46.88 29.299
H 54.034 64.341 38.456
H 54.544 65.634 39.068
H 61.25 51.289 35.07
H 66.195 43.02 38.135
H 61.375 51.229 36.583
H 65.203 43.666 37.183
H 51.524 44.238 36.821
H 58.65 46.475 32.313
H 58.093 47.781 32.852
H 66.315 44.16 29.417
H 56.808 55.354 40.812
H 58.306 55.107 40.775
H 55.732 59.148 33.549
H 57.0 59.765 34.112
H 62.752 50.101 27.841
H 62.175 51.498 27.987
H 47.59 54.415 34.97
H 51.855 62.024 39.248
H 53.33 61.77 39.504
H 65.84 48.064 36.436
H 66.272 48.343 35.007
H 57.811 46.017 34.294
H 56.917 44.788 34.298
H 58.999 56.547 45.275
H 59.686 56.347 46.614
H 58.753 58.083 41.217
H 60.022 57.418 40.714
H 50.528 47.547 34.998
H 49.212 46.859 34.682
H 58.313 58.165 36.854
H 47.557 52.831 33.426
H 49.01 52.39 33.416
H 56.854 58.406 36.509
H 47.607 57.156 40.645
H 56.865 49.026 42.921
H 60.093 53.59 25.836
H 59.57 52.185 26.077
H 62.289 48.784 29.566
H 62.798 49.116 30.957
H 52.555 45.927 31.089
H 53.538 46.594 30.143
H 57.96 54.601 27.139
H 57.719 55.322 25.824
H 57.456 47.877 42.123
H 56.912 61.978 35.65
H 58.011 61.809 36.685
H 58.173 45.031 39.498
H 59.501 45.723 39.244
H 56.875 58.73 28.91
H 57.161 57.238 28.906
H 65.238 48.935 29.721
H 64.686 50.138 30.467
H 59.269 47.868 46.593
H 53.916 47.26 37.731
H 52.753 48.198 38.0
H 57.893 57.169 31.516
H 56.934 56.208 30.837
H 56.865 64.223 31.117
H 57.113 65.286 30.061
H 64.584 63.223 33.138
H 63.635 64.23 32.513
H 58.379 46.281 25.132
H 59.381 55.956 29.977
H 60.509 56.959 30.143
H 57.976 47.746 25.142
H 61.424 45.494 24.571
H 64.37 60.876 37.043
H 62.861 61.01 36.936
H 59.944 53.127 45.335
H 58.711 53.988 45.547
H 51.963 54.573 35.591
H 50.985 55.7 35.311
H 68.285 56.423 32.25
H 59.303 55.934 43.102
H 60.184 54.698 43.131
H 63.578 52.58 25.436
H 65.12 47.07 45.415
H 60.83 42.447 35.455
H 59.477 41.782 35.643
H 62.092 52.854 25.288
H 59.423 46.925 47.773
H 60.172 62.487 39.339
H 60.886 63.121 40.519
H 59.811 49.149 28.682
H 58.443 49.745 28.959
H 49.721 62.772 31.641
H 58.945 60.207 35.082
H 58.859 51.368 36.055
H 58.991 49.856 36.034
H 60.314 59.664 35.454
H 53.651 59.689 26.324
H 54.479 60.094 38.66
H 53.476 58.957 38.574
H 59.744 65.519 34.549
H 61.095 66.121 34.2
H 59.232 63.991 41.857
H 60.412 64.945 41.92
H 53.358 59.364 41.048
H 52.204 60.274 40.668
H 50.743 52.927 38.925
H 50.491 53.277 29.358
H 51.204 53.837 37.8
H 50.785 54.601 28.675
H 55.793 60.689 42.997
H 55.969 61.19 44.419
H 59.913 61.028 41.609
H 58.883 60.102 42.232
H 54.105 54.843 26.777
H 53.029 53.793 26.565
H 59.021 56.475 35.637
H 59.941 55.413 35.061
H 54.106 55.098 29.226
H 53.015 56.152 29.295
H 53.219 54.905 31.561
H 52.452 54.267 30.415
H 58.565 60.433 44.833
H 64.578 45.354 33.495
H 65.616 46.459 33.579
H 64.67 60.272 30.135
H 51.911 57.313 36.485
H 52.664 58.63 36.555
H 62.806 53.46 44.157
H 58.844 53.532 34.75
H 59.828 53.002 33.722
H 53.664 46.791 34.649
H 53.004 46.37 33.347
H 49.718 52.325 31.185
H 49.549 50.962 31.832
H 58.232 51.655 44.266
H 56.945 52.252 43.725
H 69.021 52.048 31.351
H 69.794 53.246 30.828
H 60.349 44.877 26.389
H 61.114 44.489 27.643
H 60.815 61.489 31.17
H 62.068 52.136 44.067
H 59.913 60.699 32.102
H 62.774 62.362 31.679
H 59.517 42.169 39.515
H 60.501 41.013 39.542
H 48.614 59.083 37.436
H 59.744 50.716 39.572
H 59.2 49.505 40.31
H 64.205 52.552 28.229
H 47.679 60.212 37.833
H 65.094 52.775 27.018
H 61.018 63.696 33.0
H 61.253 62.238 33.352
H 53.716 54.235 43.438
H 53.656 55.295 42.352
H 56.605 43.972 42.56
H 58.042 44.465 42.54
H 60.613 45.028 41.273
H 60.141 43.6 41.066
H 50.535 54.855 32.847
H 64.431 40.987 35.414
H 50.379 53.98 34.078
H 54.16 41.795 33.428
H 60.931 60.318 45.224
H 60.478 60.151 43.784
H 65.453 41.34 34.348
H 63.4 54.642 30.645
H 62.053 55.235 30.271
H 51.576 49.466 35.249
H 52.97 48.864 35.275
H 63.616 51.584 33.496
H 66.29 50.784 43.315
H 66.857 51.225 41.977
H 63.753 47.876 33.399
H 63.142 47.289 34.659
H 47.494 51.871 39.896
H 48.536 52.391 38.921
H 48.721 56.157 31.944
H 48.452 54.663 31.989
H 57.88 63.109 33.043
H 60.208 48.851 44.202
H 58.804 48.354 44.498
H 58.241 62.595 31.66
H 58.461 50.26 31.426
H 57.243 49.353 31.41
H 62.27 42.329 39.149
H 62.153 43.688 39.818
H 60.879 44.698 32.153
H 61.448 45.934 32.826
H 50.611 65.296 37.137
H 69.516 43.688 37.618
H 65.049 51.767 33.028
H 63.407 58.985 37.621
H 64.278 58.603 38.805
H 51.193 58.913 39.263
H 51.533 57.691 40.098
H 58.001 42.606 26.709
H 58.305 44.089 26.592
H 57.059 42.505 40.36
H 50.553 56.687 30.536
H 64.126 47.37 30.794
H 64.597 45.939 30.991
H 61.607 51.156 30.506
H 60.101 51.23 30.326
H 60.867 57.826 38.723
H 60.964 59.324 38.491
H 51.832 65.092 34.548
H 51.6 64.044 35.623
H 67.32 54.294 37.655
H 66.237 53.23 37.61
H 56.347 64.472 38.095
H 65.525 46.798 29.001
H 67.026 46.723 28.777
H 56.448 63.223 38.954
H 69.807 49.487 31.202
H 71.322 49.551 31.283
H 50.981 48.114 32.878
H 52.423 48.501 32.599
H 49.862 50.579 40.627
H 61.866 52.299 46.461
H 63.056 53.242 46.421
H 61.484 57.379 26.309
H 61.876 58.826 26.554
H 57.15 40.991 40.448
H 57.934 50.449 25.892
H 59.243 49.681 25.849
H 59.373 51.989 28.26
H 57.96 51.994 27.704
H 63.261 40.438 39.677
H 64.584 41.086 40.05
H 48.746 55.252 36.686
H 49.016 53.993 37.491
H 62.006 54.987 45.525
H 47.368 49.932 36.188
H 47.853 51.308 36.61
H 57.204 55.861 43.757
H 57.525 54.376 43.735
H 50.095 60.603 33.261
H 51.326 60.057 32.56
H 59.334 60.505 29.87
H 59.874 61.69 29.088
H 63.242 42.805 35.763
H 63.141 43.774 34.599
H 53.748 60.861 28.183
H 54.954 42.365 36.287
H 60.985 59.058 29.68
H 61.288 59.848 28.419
H 55.563 40.982 36.44
H 57.057 52.109 33.354
H 58.388 51.38 33.318
H 55.895 56.269 26.621
H 55.823 57.549 25.806
H 59.216 63.971 30.214
H 59.205 64.018 28.696
H 53.556 64.745 36.346
H 54.191 65.975 35.723
H 61.651 46.72 40.324
H 60.583 47.797 40.408
H 60.785 67.186 37.284
H 59.447 67.117 37.999
H 63.119 52.069 41.12
H 64.24 51.139 40.691
H 50.638 59.48 36.671
H 50.617 60.265 35.372
H 61.031 57.578 43.095
H 59.684 58.112 43.55
H 62.055 61.266 41.1
H 65.172 54.644 32.882
H 64.641 55.824 32.088
H 63.962 45.689 41.765
H 64.512 44.34 42.195
H 62.01 54.729 41.698
H 60.854 55.398 40.975
H 53.073 53.784 39.983
H 51.796 53.884 40.799
H 55.832 46.495 33.431
H 55.591 47.986 33.589
H 47.825 64.771 37.015
H 53.483 51.922 29.088
H 52.107 52.079 28.464
H 56.54 47.509 30.429
H 57.293 47.728 29.129
H 62.497 55.796 39.566
H 63.282 56.971 40.12
H 68.659 55.374 28.83
H 69.103 53.922 28.849
H 53.422 55.817 37.055
H 61.371 48.078 47.232
H 53.335 54.495 37.797
H 65.163 58.348 31.503
H 66.319 57.516 30.977
H 66.602 44.13 43.32
H 66.314 43.076 42.265
H 56.506 60.386 40.938
H 55.074 60.891 40.927
H 66.066 46.248 43.605
H 66.372 47.661 43.139
H 62.389 44.481 36.926
H 61.213 43.592 37.294
H 69.269 46.078 34.019
H 69.445 46.251 35.517
H 56.737 56.448 46.539
H 56.55 54.996 46.943
H 56.05 50.338 39.582
H 56.093 50.483 41.093
H 48.17 54.41 39.984
H 67.026 55.137 34.018
H 67.313 55.642 35.421
H 65.426 48.856 40.233
H 66.176 49.185 41.511
H 61.282 48.21 36.965
H 60.556 49.419 37.527
H 57.92 41.433 42.951
H 59.27 41.912 42.447
H 55.005 57.599 28.657
H 54.247 57.597 27.341
H 64.823 52.659 45.248
H 66.269 52.248 45.031
H 65.133 53.292 30.531
H 66.572 53.777 30.519
H 53.13 51.332 35.302
H 52.026 52.374 35.303
H 59.713 53.832 39.609
H 58.821 52.836 40.33
H 66.648 60.812 36.993
H 67.841 60.294 37.776
H 64.193 55.076 45.309
H 50.252 50.801 37.439
H 49.947 51.977 36.528
H 57.751 44.791 30.355
H 58.846 44.86 29.305
H 63.749 47.196 39.78
H 62.991 48.502 39.941
H 56.334 50.327 27.4
H 56.476 48.815 27.399
H 55.844 50.188 25.258
H 55.79 48.976 24.344
H 67.112 42.849 34.754
H 67.395 42.789 36.245
H 56.124 65.741 34.698
H 64.614 41.779 42.788
H 60.536 55.62 38.575
H 59.426 55.398 37.562
H 58.493 42.296 37.572
H 57.11 42.923 37.56
H 56.854 66.127 33.424
H 59.813 63.828 37.503
H 58.324 63.971 37.241
H 65.45 56.863 28.562
H 65.415 55.353 28.72
H 63.485 63.321 36.176
H 62.696 64.292 35.316
H 58.898 46.42 41.316
H 63.274 48.61 46.244
H 62.142 48.826 45.255
H 59.0 46.478 42.83
H 62.477 43.573 43.101
H 61.974 44.967 43.432
H 51.45 47.744 30.522
H 69.295 53.033 35.969
H 59.695 53.099 37.401
H 60.972 53.748 36.898
H 60.173 62.444 43.68
H 56.473 51.032 35.534
H 56.839 49.565 35.677
H 61.659 62.161 43.814
H 48.41 48.755 32.888
H 48.244 48.985 34.38
H 52.94 58.908 28.923
H 54.799 56.23 40.574
H 54.346 56.113 39.129
H 51.649 58.827 28.128
H 60.955 52.271 41.631
H 60.194 52.508 42.924
H 54.451 52.605 37.109
H 55.486 53.668 36.787
H 53.486 49.532 30.855
H 54.326 48.387 31.395
H 55.816 66.991 37.244
H 67.639 50.595 29.815
H 66.64 51.517 30.493
H 62.293 61.467 27.282
H 62.065 62.876 27.801
H 60.96 54.281 27.736
H 61.033 53.292 28.886
H 60.22 50.359 42.451
H 58.973 49.494 42.499
H 65.728 48.731 32.865
H 66.486 50.038 32.707
H 63.923 60.709 39.399
H 65.206 61.198 40.047
H 55.118 54.032 41.3
H 63.779 55.5 36.872
H 64.002 54.485 37.98
H 62.377 64.061 29.631
H 56.186 54.101 33.718
H 54.985 55.028 33.659
H 61.388 63.877 30.769
H 63.637 48.505 43.18
H 64.095 47.884 41.872
H 58.037 54.856 32.178
H 57.405 54.055 31.052
H 68.707 56.957 36.502
H 68.194 58.191 37.224
H 55.042 49.189 37.006
H 63.373 56.171 28.781
H 63.233 57.671 28.975
H 61.236 65.419 39.896
H 62.208 65.305 38.734
H 53.813 50.075 37.102
H 60.061 62.128 35.221
H 61.514 62.44 35.533
H 62.361 50.531 39.103
H 56.147 51.587 29.748
H 55.732 51.547 31.208
H 62.071 51.917 38.553
H 61.654 49.027 34.861
H 62.271 49.856 33.748
H 55.772 52.959 40.447
H 62.604 55.703 24.672
H 64.886 61.773 35.101
H 65.914 62.568 35.888
