442
xyz format
Na 46.336 56.344 34.969
O 48.637 63.626 27.633
O 48.262 50.179 24.401
O 55.605 54.552 33.093
O 56.077 50.987 30.501
O 44.251 57.008 30.865
O 43.167 63.664 30.895
O 55.09 53.194 37.529
O 54.453 56.755 39.842
O 47.057 60.214 27.955
O 54.774 50.098 37.186
O 45.733 48.509 31.953
O 42.55 60.666 40.761
O 45.023 54.088 36.793
O 49.36 58.68 25.953
O 38.108 54.297 27.379
O 37.534 56.033 29.941
O 49.496 57.744 28.383
O 49.594 50.321 28.425
O 48.66 49.362 33.595
O 43.128 47.633 32.968
O 42.6 59.874 35.929
O 50.528 47.952 30.327
O 38.916 52.01 32.064
O 52.703 53.557 40.845
O 52.563 51.837 35.898
O 47.015 56.218 24.12
O 50.118 59.605 35.868
O 50.579 51.258 36.654
O 44.851 52.129 39.126
O 46.047 61.631 35.735
O 53.649 54.883 36.971
O 43.266 61.36 31.959
O 40.028 61.029 33.684
O 53.192 61.572 27.84
O 48.723 61.078 40.356
O 51.38 53.206 23.962
O 41.465 50.784 30.986
O 50.403 59.846 32.747
O 46.858 63.734 30.549
O 42.983 62.232 36.705
O 38.092 51.296 27.954
O 41.971 55.703 32.339
O 38.091 53.985 32.814
O 46.756 45.28 28.776
O 47.059 58.37 29.734
O 46.576 56.266 38.022
O 49.874 57.374 30.519
O 48.387 53.642 30.03
O 48.247 55.485 32.451
O 45.453 62.692 38.486
O 44.636 45.743 30.719
O 50.964 58.471 40.09
O 49.969 54.723 33.618
O 45.616 58.072 22.814
O 46.178 62.324 32.096
O 51.96 57.512 23.057
O 42.253 57.387 25.26
O 40.502 58.425 30.405
O 49.702 57.878 23.027
O 41.915 55.924 36.92
O 42.652 54.309 27.015
O 38.278 56.39 34.887
O 40.227 57.338 34.477
O 47.869 57.755 41.356
O 44.429 56.073 26.017
O 48.9 62.315 31.863
O 43.851 58.259 29.088
O 53.542 54.461 26.093
O 53.706 55.812 28.714
O 40.535 57.907 37.278
O 51.207 52.913 38.078
O 51.116 50.463 33.315
O 51.25 56.499 26.035
O 48.498 54.113 21.474
O 49.416 51.428 30.997
O 52.165 58.072 35.945
O 45.759 60.767 25.944
O 52.399 54.986 31.057
O 41.784 54.903 23.623
O 39.495 59.998 27.26
O 45.506 59.699 32.804
O 48.706 59.716 30.628
O 49.989 55.99 41.873
O 50.844 62.099 37.121
O 52.511 51.435 24.703
O 45.524 62.925 28.119
O 39.748 54.056 36.206
O 51.132 54.952 35.903
O 50.361 62.177 28.747
O 44.469 54.002 29.164
O 40.068 52.462 29.522
O 46.113 50.098 34.367
O 40.437 55.974 29.266
O 44.15 58.19 34.028
O 44.267 51.138 30.976
O 36.886 51.982 29.661
O 46.923 54.191 35.632
O 48.282 52.62 32.825
O 40.455 55.642 38.693
O 46.963 45.185 32.225
O 45.346 46.34 35.392
O 47.638 64.081 34.602
O 53.069 59.277 25.674
O 39.134 55.815 32.179
O 47.394 50.357 29.947
O 46.539 55.3 29.686
O 42.724 55.002 30.394
O 42.843 53.455 32.678
O 43.822 55.229 35.077
O 51.229 50.341 30.39
O 45.371 53.799 33.656
O 55.716 50.3 33.078
O 44.749 49.803 27.586
O 39.988 57.619 27.493
O 44.893 51.368 25.879
O 50.591 53.675 28.484
O 47.192 56.643 28.071
O 40.534 50.018 36.069
O 54.064 53.309 35.06
O 51.332 56.014 38.196
O 49.239 55.616 23.884
O 43.197 60.591 29.351
O 52.03 62.043 33.772
O 45.152 54.968 22.919
O 47.91 51.668 39.049
O 38.37 58.492 36.904
O 45.648 52.248 27.755
O 40.098 53.051 26.619
O 47.96 60.817 42.826
O 46.129 57.247 32.393
O 49.132 54.37 36.61
O 41.973 63.089 34.166
O 49.153 52.077 26.007
O 35.275 54.96 31.084
O 48.047 50.59 35.994
O 40.338 50.895 27.642
O 48.454 60.024 37.289
O 49.451 60.881 26.037
O 46.627 52.684 24.989
O 52.253 49.144 35.857
O 47.816 63.835 36.781
O 43.431 54.516 38.25
O 52.876 52.59 28.746
O 39.422 58.85 32.292
O 47.215 54.53 39.914
O 54.759 58.174 27.922
O 41.942 55.608 42.03
O 46.74 54.581 27.217
O 47.77 49.6 26.866
O 45.643 59.188 41.251
O 52.559 49.22 28.088
O 42.973 49.986 33.639
O 44.457 62.713 34.642
O 52.591 52.933 32.31
O 46.348 51.833 31.199
O 41.843 53.022 34.695
O 51.981 58.893 29.032
O 38.956 49.056 28.378
O 36.132 57.776 33.006
O 42.38 58.904 26.848
O 45.127 59.031 38.776
O 51.804 48.349 33.324
H 39.143 49.712 29.062
H 41.15 53.047 34.023
H 46.171 62.228 27.957
H 49.558 54.738 24.128
H 49.736 56.208 24.461
H 50.568 56.014 38.786
H 52.087 56.004 38.798
H 53.645 53.367 34.192
H 54.824 52.733 34.909
H 51.648 51.174 25.048
H 41.722 52.163 35.118
H 51.777 51.145 33.489
H 50.373 50.713 33.879
H 52.64 49.912 28.756
H 44.395 50.602 25.565
H 44.211 52.029 26.053
H 39.138 57.662 27.947
H 40.625 57.873 28.172
H 51.686 52.916 31.975
H 53.099 52.483 31.624
H 43.141 50.784 34.155
H 43.441 50.145 32.81
H 44.026 49.252 27.262
H 44.518 49.966 28.509
H 42.513 60.266 29.951
H 43.138 61.551 29.435
H 52.767 61.874 34.372
H 51.275 62.16 34.363
H 41.946 54.743 24.561
H 44.762 54.875 22.041
H 45.595 54.123 23.064
H 45.156 58.413 40.944
H 46.34 59.297 40.592
H 48.272 48.931 27.349
H 46.929 49.641 27.338
H 51.33 49.833 31.204
H 51.625 51.195 30.602
H 50.001 56.851 41.436
H 49.175 55.581 41.552
H 43.45 54.072 32.251
H 51.624 62.05 36.554
H 45.915 49.214 34.7
H 42.234 53.207 31.971
H 45.49 50.214 33.639
H 40.287 60.022 27.812
H 47.158 55.091 26.512
H 47.462 54.049 27.574
H 50.107 62.084 36.498
H 43.471 54.553 34.484
H 44.172 55.9 34.478
H 45.181 52.905 33.346
H 45.892 54.185 32.94
H 52.633 58.573 26.17
H 41.815 54.677 30.39
H 42.686 55.798 29.85
H 45.809 55.929 29.748
H 46.826 55.191 30.601
H 44.837 59.828 32.121
H 46.297 59.453 32.307
H 39.747 56.148 39.11
H 41.26 56.066 39.016
H 48.285 60.189 29.899
H 49.543 60.183 30.751
H 47.59 54.415 34.97
H 46.692 53.277 35.423
H 44.201 51.511 30.088
H 44.008 51.868 31.552
H 43.773 58.237 34.915
H 45.09 58.034 34.185
H 39.533 55.687 29.088
H 40.941 55.62 28.522
H 47.557 52.831 33.426
H 49.01 52.39 33.416
H 45.204 47.131 34.858
H 48.35 58.456 40.9
H 47.607 57.156 40.645
H 49.269 60.976 25.093
H 49.815 61.739 26.287
H 39.603 58.062 34.344
H 42.104 53.933 27.715
H 43.254 54.898 27.486
H 40.728 57.313 33.652
H 38.722 55.731 34.339
H 37.932 55.877 35.628
H 39.46 53.211 29.567
H 42.414 56.625 36.483
H 42.009 55.17 36.325
H 49.904 61.344 28.917
H 40.204 53.212 36.315
H 40.143 54.429 35.408
H 51.963 54.573 35.591
H 50.985 55.7 35.311
H 44.719 54.05 30.095
H 43.684 53.44 29.165
H 49.428 52.561 25.218
H 49.639 51.245 25.946
H 48.511 62.111 31.003
H 49.721 62.772 31.641
H 43.388 57.548 28.627
H 44.327 58.717 28.384
H 53.651 59.689 26.324
H 47.772 54.089 22.11
H 45.092 56.417 25.406
H 43.723 55.76 25.438
H 47.015 57.312 32.772
H 45.985 56.297 32.307
H 47.995 56.14 28.255
H 47.433 57.19 27.313
H 41.289 49.984 35.468
H 40.647 50.856 36.534
H 50.743 52.927 38.925
H 50.491 53.277 29.358
H 51.204 53.837 37.8
H 50.785 54.601 28.675
H 54.105 54.843 26.777
H 53.029 53.793 26.565
H 54.106 55.098 29.226
H 53.015 56.152 29.295
H 53.219 54.905 31.561
H 52.452 54.267 30.415
H 46.309 60.648 25.16
H 44.858 60.701 25.605
H 40.753 58.258 36.405
H 40.057 57.091 37.085
H 51.812 55.815 26.419
H 40.927 52.874 29.366
H 51.737 56.783 25.251
H 51.911 57.313 36.485
H 52.664 58.63 36.555
H 49.718 52.325 31.185
H 49.549 50.962 31.832
H 41.646 56.983 24.627
H 42.913 57.817 24.701
H 49.006 58.533 22.892
H 49.858 57.522 22.143
H 48.614 59.083 37.436
H 46.911 51.768 25.101
H 47.33 53.195 25.408
H 47.679 60.212 37.833
H 39.584 58.228 30.182
H 40.84 57.588 30.746
H 45.65 58.069 23.779
H 44.87 57.494 22.61
H 50.535 54.855 32.847
H 50.379 53.98 34.078
H 51.576 49.466 35.249
H 52.97 48.864 35.275
H 47.494 51.871 39.896
H 48.536 52.391 38.921
H 48.721 56.157 31.944
H 48.452 54.663 31.989
H 45.905 61.889 38.775
H 44.918 62.398 37.739
H 50.058 57.37 27.694
H 49.453 58.683 28.159
H 37.333 55.72 29.05
H 37.838 56.939 29.803
H 44.533 46.048 31.63
H 39.896 60.674 37.088
H 51.193 58.913 39.263
H 51.533 57.691 40.098
H 46.424 51.79 27.409
H 45.839 52.344 28.696
H 40.813 53.337 26.036
H 39.334 52.992 26.033
H 50.371 58.184 30.353
H 50.553 56.687 30.536
H 45.734 58.568 38.186
H 47.12 56.892 38.516
H 45.99 55.892 38.693
H 44.485 59.432 38.177
H 36.921 57.769 32.449
H 46.243 58.371 30.251
H 47.538 57.601 30.065
H 41.719 59.3 26.266
H 42.427 59.517 27.592
H 50.981 48.114 32.878
H 52.423 48.501 32.599
H 42.414 55.966 33.156
H 41.198 55.213 32.645
H 37.431 54.322 32.197
H 37.618 53.942 33.655
H 40.173 50.819 26.693
H 41.155 51.406 27.693
H 42.162 62.267 36.198
H 42.698 62.388 37.614
H 37.913 52.106 27.46
H 37.536 50.636 27.522
H 48.591 54.439 29.524
H 47.55 53.341 29.656
H 46.469 61.675 32.748
H 45.41 61.908 31.684
H 48.746 55.252 36.686
H 49.016 53.993 37.491
H 47.368 49.932 36.188
H 47.853 51.308 36.61
H 46.531 64.534 30.117
H 46.937 63.1 29.826
H 50.095 60.603 33.261
H 51.326 60.057 32.56
H 53.748 60.861 28.183
H 52.308 61.343 28.154
H 42.06 51.432 30.587
H 42.026 50.01 31.12
H 48.974 60.57 39.575
H 47.761 61.126 40.299
H 52.133 53.147 23.361
H 50.638 59.48 36.671
H 50.617 60.265 35.372
H 47.109 55.279 24.321
H 47.533 56.652 24.81
H 47.246 63.437 37.45
H 47.825 64.771 37.015
H 53.483 51.922 29.088
H 52.107 52.079 28.464
H 53.422 55.817 37.055
H 53.335 54.495 37.797
H 42.439 61.713 31.606
H 43.108 61.313 32.91
H 40.453 60.436 34.316
H 46.015 52.735 31.29
H 46.391 51.511 32.108
H 46.869 54.091 40.701
H 40.296 59.232 32.442
H 38.817 59.525 32.626
H 48.17 54.41 39.984
H 39.471 55.637 31.293
H 38.835 56.732 32.131
H 46.897 49.637 29.538
H 47.823 49.939 30.703
H 55.005 57.599 28.657
H 54.247 57.597 27.341
H 48.028 63.81 33.762
H 47.103 64.85 34.368
H 53.13 51.332 35.302
H 52.026 52.374 35.303
H 42.647 54.285 38.764
H 43.509 55.471 38.366
H 44.456 52.035 38.25
H 44.765 53.072 39.316
H 50.252 50.801 37.439
H 49.947 51.977 36.528
H 46.03 61.192 34.875
H 46.45 62.488 35.548
H 42.982 48.102 32.137
H 42.252 47.607 33.373
H 43.312 60.15 40.469
H 49.172 51.166 28.627
H 49.445 49.795 29.22
H 43.898 56.461 31.578
H 44.254 57.898 31.239
H 44.494 62.86 33.688
H 44.554 63.598 35.014
H 38.89 54.823 27.17
H 49.121 58.268 25.113
H 50.307 58.846 25.865
H 45.669 53.765 37.434
H 45.086 55.048 36.869
H 39.5 52.294 32.779
H 38.087 51.806 32.513
H 51.45 47.744 30.522
H 50.468 47.849 29.369
H 43.392 60.348 35.645
H 42.917 59.302 36.639
H 49.037 49.627 24.564
H 48.41 48.755 32.888
H 48.244 48.985 34.38
H 52.94 58.908 28.923
H 51.649 58.827 28.128
H 54.451 52.605 37.109
H 47.851 49.776 23.626
H 54.985 55.028 33.659
H 53.813 50.075 37.102
H 48.311 62.723 27.738
H 55.732 51.547 31.208
H 45.723 49.277 31.369
H 46.085 47.803 31.397
H 47.409 59.36 27.676
H 46.127 60.03 28.137
