115
xyz format
Cl 39.106 49.969 60.184
O 35.549 49.602 66.684
O 33.544 49.568 62.046
O 31.518 53.605 63.107
O 34.482 52.566 66.49
O 39.93 54.031 60.539
O 29.561 52.174 65.614
O 36.647 56.414 65.243
O 37.448 52.083 65.074
O 34.465 56.317 67.248
O 37.778 52.699 61.682
O 35.473 47.645 62.085
O 36.313 55.225 62.82
O 34.184 48.452 59.501
O 35.825 45.508 61.706
O 31.898 50.66 64.627
O 35.956 53.697 65.118
O 39.298 50.135 64.821
O 37.791 47.788 64.487
O 29.341 50.501 63.325
O 33.071 56.098 65.026
O 35.494 46.774 64.889
O 27.974 52.504 62.194
O 33.74 53.775 62.964
O 34.119 50.603 65.335
O 27.781 50.677 65.406
O 37.94 49.073 67.089
O 37.411 49.635 61.542
O 39.733 52.288 62.804
O 31.752 47.638 66.94
O 37.19 54.806 67.572
O 38.043 57.227 62.013
O 30.92 51.039 60.645
O 36.398 50.531 63.789
O 35.371 50.464 60.959
O 33.05 46.901 62.086
O 37.492 54.612 60.328
O 32.35 53.405 61.08
H 38.003 54.412 59.534
H 28.815 52.779 62.58
H 27.657 51.821 62.798
H 36.734 55.108 59.993
H 32.44 47.549 61.71
H 28.478 50.031 65.579
H 33.686 53.459 63.875
H 34.253 53.092 62.515
H 34.97 51.213 61.417
H 35.802 50.867 60.195
H 38.236 45.669 64.876
H 33.985 51.341 64.728
H 34.302 49.856 64.752
H 33.113 53.67 60.55
H 31.635 53.961 60.745
H 32.279 47.732 64.642
H 35.39 46.009 65.469
H 36.071 46.451 64.185
H 33.726 56.785 64.851
H 38.1 49.088 61.937
H 32.66 47.749 67.251
H 37.568 50.51 61.918
H 38.707 48.538 67.324
H 37.394 49.054 67.884
H 29.72 50.691 62.458
H 30.008 49.948 63.75
H 38.415 50.12 65.21
H 37.711 56.548 61.413
H 37.732 56.938 62.88
H 39.885 50.056 65.583
H 31.763 51.255 61.062
H 30.962 50.082 60.525
H 35.176 45.493 62.42
H 36.655 45.713 62.155
H 38.415 48.306 63.963
H 37.039 48.383 64.6
H 31.666 51.382 65.224
H 31.997 49.9 65.214
H 35.831 50.638 57.749
H 36.84 52.571 61.492
H 38.211 52.492 60.845
H 36.935 54.568 62.484
H 35.712 55.372 62.079
H 39.499 51.489 62.316
H 34.306 49.18 58.879
H 39.952 51.961 63.686
H 34.856 47.953 62.761
H 36.339 47.873 62.444
H 35.391 56.511 67.055
H 33.149 55.999 60.135
H 37.82 52.338 64.22
H 38.17 52.241 65.694
H 35.864 56.289 64.692
H 35.864 53.546 64.169
H 35.22 54.285 65.329
H 26.083 53.811 62.401
H 29.596 52.629 64.764
H 29.13 52.812 66.198
H 33.201 50.367 62.467
H 35.99 53.102 59.499
H 35.028 54.154 58.974
H 27.827 55.499 62.483
H 35.9 51.346 63.646
H 35.932 49.88 63.25
H 39.677 54.028 61.471
H 33.314 49.683 61.116
H 37.183 54.771 66.607
H 36.274 54.626 67.815
H 34.602 50.689 69.719
H 31.001 54.156 63.707
H 31.386 52.71 63.445
H 30.986 50.647 58.398
H 35.204 49.673 67.583
H 35.3 48.71 66.413
H 26.502 52.793 64.405
H 33.653 52.631 66.98
H 35.149 52.467 67.181
