595
xyz format
Cl 39.106 49.969 60.184
Cl 31.247 50.946 48.398
Na 35.918 45.033 51.34
Na 36.045 52.744 54.029
O 24.901 52.29 51.995
O 34.03 51.908 48.431
O 32.484 39.866 55.898
O 30.247 50.397 57.83
O 31.276 45.424 62.335
O 37.458 38.603 54.247
O 24.435 52.12 58.149
O 34.624 42.468 47.144
O 39.645 51.124 52.771
O 38.806 41.967 52.515
O 31.718 50.328 50.467
O 29.194 43.419 62.652
O 30.885 47.152 58.49
O 33.544 49.568 62.046
O 42.228 51.872 52.946
O 30.368 38.434 58.002
O 30.798 55.98 50.701
O 24.314 48.324 61.396
O 31.518 53.605 63.107
O 32.848 56.56 52.79
O 30.252 41.001 61.495
O 32.229 48.197 51.93
O 39.083 52.778 54.927
O 26.166 52.854 46.693
O 25.545 57.242 53.404
O 30.128 53.045 49.088
O 35.998 54.064 51.222
O 38.11 53.8 52.342
O 29.555 46.662 46.322
O 35.84 42.538 57.24
O 26.051 54.568 53.65
O 38.685 57.888 54.719
O 29.172 50.2 48.425
O 33.462 42.924 54.583
O 29.263 57.353 47.75
O 27.97 51.193 54.054
O 26.367 48.11 66.415
O 32.809 39.934 49.526
O 40.166 45.084 54.475
O 36.115 47.947 57.122
O 37.603 39.466 51.337
O 29.977 50.025 55.681
O 38.696 57.437 57.182
O 34.983 47.227 55.413
O 29.781 43.309 53.897
O 25.241 53.742 62.868
O 32.254 53.515 45.469
O 29.561 52.174 65.614
O 31.879 55.375 48.019
O 34.737 41.613 60.558
O 35.795 40.644 50.88
O 33.429 56.825 48.595
O 32.823 52.029 52.37
O 29.856 46.113 56.703
O 30.114 49.385 53.351
O 32.252 49.193 47.517
O 36.91 40.031 58.631
O 31.308 41.03 53.868
O 33.878 56.475 59.72
O 27.815 49.028 59.144
O 29.915 38.172 61.749
O 31.547 56.696 55.17
O 21.453 51.186 50.793
O 28.487 47.652 53.572
O 33.453 54.701 51.781
O 37.778 52.699 61.682
O 25.706 51.594 60.107
O 33.645 39.909 52.16
O 36.04 57.475 57.67
O 33.386 46.348 50.318
O 35.803 57.681 53.654
O 38.784 44.157 50.705
O 29.647 42.765 50.736
O 32.256 46.71 56.603
O 35.473 47.645 62.085
O 34.184 48.452 59.501
O 35.825 45.508 61.706
O 32.081 47.191 54.461
O 31.898 50.66 64.627
O 36.399 47.621 52.922
O 34.587 38.378 54.556
O 39.372 47.593 53.489
O 24.667 54.222 59.785
O 26.832 46.396 62.36
O 23.41 55.128 53.207
O 28.001 55.325 50.766
O 37.791 47.788 64.487
O 33.708 43.194 58.924
O 27.758 47.873 57.275
O 24.395 45.467 51.435
O 34.353 42.37 49.495
O 24.04 44.465 57.303
O 32.374 37.163 51.355
O 39.839 44.713 60.639
O 26.647 49.718 47.157
O 40.293 57.193 52.427
O 29.118 46.178 59.329
O 36.973 43.195 62.621
O 29.341 50.501 63.325
O 32.96 47.145 64.291
O 36.032 56.502 49.186
O 24.665 52.096 48.669
O 27.725 46.583 48.447
O 38.01 56.638 51.62
O 35.494 46.774 64.889
O 36.959 55.005 57.413
O 25.714 49.599 55.099
O 33.56 58.405 51.13
O 27.974 52.504 62.194
O 38.568 53.967 50.198
O 23.585 49.717 51.698
O 35.002 50.37 53.825
O 26.988 49.417 61.918
O 33.74 53.775 62.964
O 34.865 50.637 46.801
O 39.239 49.041 51.133
O 32.846 50.038 56.493
O 28.559 39.59 60.319
O 31.98 42.344 64.056
O 29.986 41.428 58.399
O 38.094 50.989 49.754
O 31.257 44.358 51.092
O 24.878 43.506 50.284
O 25.527 49.277 63.578
O 40.461 51.484 50.229
O 23.237 53.586 54.766
O 26.397 50.49 49.722
O 34.066 53.885 49.408
O 26.615 54.378 57.226
O 34.119 50.603 65.335
O 36.277 45.16 58.973
O 29.503 53.396 43.912
O 29.309 49.506 45.239
O 30.982 59.397 51.281
O 23.247 49.824 48.776
O 23.653 50.053 56.377
O 27.781 50.677 65.406
O 34.394 52.84 46.177
O 22.189 47.398 57.258
O 27.948 43.245 48.572
O 24.319 48.7 59.178
O 30.955 54.379 56.495
O 28.751 48.204 64.379
O 33.286 44.712 63.978
O 25.468 46.566 53.997
O 28.495 54.48 53.532
O 40.517 45.963 51.754
O 30.996 43.925 48.06
O 35.656 53.484 58.677
O 28.056 40.158 54.292
O 37.91 49.795 57.98
O 24.725 48.181 56.839
O 26.206 38.955 54.038
O 36.446 54.914 54.061
O 26.446 44.752 56.667
O 36.941 52.18 56.464
O 35.709 42.973 52.475
O 27.037 51.918 43.553
O 29.399 52.358 46.08
O 31.515 45.151 53.129
O 30.695 53.439 53.104
O 25.246 43.466 55.351
O 30.345 37.97 52.972
O 37.175 44.512 56.397
O 35.203 50.261 44.664
O 32.819 40.019 59.355
O 34.279 58.0 56.305
O 27.778 54.359 59.092
O 41.558 54.762 51.557
O 35.19 41.251 55.002
O 30.592 46.561 48.669
O 37.411 49.635 61.542
O 41.005 43.105 47.516
O 32.52 45.173 45.866
O 41.164 55.004 53.881
O 35.976 50.126 56.944
O 40.52 56.216 56.62
O 26.679 52.413 55.351
O 27.734 41.323 57.598
O 38.213 45.197 46.694
O 38.171 43.125 54.991
O 26.254 53.848 50.583
O 36.632 47.66 50.624
O 37.526 45.597 52.84
O 33.772 47.17 47.384
O 32.627 38.001 53.376
O 31.383 42.308 56.561
O 28.997 45.557 52.378
O 30.204 48.041 61.625
O 36.908 47.584 47.915
O 38.712 52.742 57.567
O 29.809 57.686 52.617
O 37.263 50.647 53.136
O 41.481 52.655 56.237
O 30.92 51.039 60.645
O 28.119 58.058 51.151
O 33.494 44.757 56.3
O 38.747 46.415 48.462
O 36.398 50.531 63.789
O 34.262 46.965 52.847
O 35.371 50.464 60.959
O 32.8 48.774 45.137
O 33.05 46.901 62.086
O 26.018 45.269 48.0
O 35.062 50.156 51.212
O 37.765 49.304 54.806
O 33.943 44.592 49.112
O 40.618 48.928 58.161
O 28.73 51.543 51.349
O 28.403 39.977 49.484
O 32.35 53.405 61.08
O 27.274 56.449 55.15
O 26.497 44.214 51.598
O 28.574 44.703 46.284
O 31.732 42.196 51.333
H 37.544 45.37 56.153
H 37.584 44.321 57.251
H 40.055 48.731 51.544
H 39.253 48.632 50.259
H 35.706 41.815 54.412
H 34.861 40.552 54.423
H 31.498 46.231 48.628
H 30.071 45.776 48.881
H 32.695 40.39 58.473
H 31.938 39.708 59.599
H 29.849 38.121 53.787
H 26.901 55.283 57.048
H 25.663 54.404 57.07
H 32.291 44.825 53.602
H 30.898 45.384 53.834
H 36.12 52.629 56.226
H 37.133 51.629 55.694
H 28.815 52.779 62.58
H 27.657 51.821 62.798
H 27.783 51.795 44.153
H 30.335 52.209 46.263
H 28.948 51.757 46.686
H 37.253 55.153 54.533
H 26.05 45.531 57.078
H 27.263 45.089 56.278
H 35.792 54.81 54.764
H 24.764 47.301 56.445
H 25.514 48.219 57.394
H 26.724 38.146 54.134
H 25.538 38.883 54.732
H 34.85 43.391 52.336
H 40.08 48.255 58.596
H 41.103 49.338 58.888
H 27.525 54.065 59.976
H 36.027 42.8 51.581
H 33.249 46.317 61.343
H 32.44 47.549 61.71
H 34.721 49.736 50.412
H 24.198 49.751 48.633
H 28.906 40.156 53.835
H 28.221 40.692 55.079
H 27.613 42.541 49.142
H 28.316 43.886 49.193
H 22.313 46.8 56.51
H 22.605 46.933 57.995
H 35.332 52.755 46.392
H 34.124 53.641 46.644
H 30.041 49.453 45.866
H 29.304 50.434 44.971
H 28.478 50.031 65.579
H 26.984 50.251 65.744
H 23.076 50.791 56.144
H 24.464 50.482 56.676
H 38.266 49.035 57.503
H 38.099 50.541 57.398
H 33.686 53.459 63.875
H 34.253 53.092 62.515
H 33.967 50.691 46.451
H 34.847 49.85 47.359
H 33.829 54.491 48.694
H 34.362 47.513 52.059
H 33.562 46.345 52.608
H 33.219 53.519 49.69
H 34.97 51.213 61.417
H 35.802 50.867 60.195
H 31.496 53.928 55.834
H 30.228 54.75 55.98
H 29.372 47.839 63.736
H 35.606 50.88 50.877
H 28.094 48.654 63.834
H 35.604 45.583 59.521
H 36.952 44.888 59.608
H 29.392 52.872 43.109
H 28.642 53.816 44.032
H 33.985 51.341 64.728
H 34.302 49.856 64.752
H 32.783 41.632 48.116
H 23.659 49.304 59.539
H 25.157 49.065 59.489
H 27.446 50.088 61.396
H 34.623 51.159 53.418
H 35.356 50.691 54.664
H 26.605 48.831 61.253
H 23.635 45.215 50.895
H 24.21 45.066 52.293
H 24.465 43.765 49.45
H 26.395 49.146 47.893
H 33.113 53.67 60.55
H 26.965 50.52 47.59
H 29.982 47.486 60.866
H 29.465 48.659 61.681
H 25.628 42.964 50.009
H 23.885 54.065 55.297
H 32.632 37.259 50.43
H 31.635 53.961 60.745
H 23.368 52.664 55.021
H 30.68 57.406 52.927
H 29.313 57.834 53.432
H 32.973 49.305 57.108
H 32.698 50.798 57.069
H 41.165 51.824 55.86
H 31.758 42.889 63.291
H 32.642 37.072 53.638
H 32.413 38.466 54.194
H 28.421 39.351 59.394
H 28.292 40.517 60.358
H 30.621 45.073 50.97
H 31.79 44.386 50.287
H 38.366 50.997 50.681
H 37.723 51.87 49.617
H 31.253 43.262 56.625
H 32.07 42.126 57.214
H 28.245 46.072 52.061
H 28.604 44.939 53.007
H 23.167 44.448 56.893
H 24.007 45.237 57.882
H 35.195 42.772 49.247
H 34.193 42.704 50.387
H 25.168 50.172 63.534
H 25.403 49.025 64.501
H 26.803 51.363 49.655
H 30.473 42.192 58.732
H 30.079 40.773 59.101
H 26.291 50.359 50.672
H 39.259 53.371 50.512
H 30.619 52.512 53.364
H 30.101 53.514 52.347
H 29.713 45.435 59.166
H 25.074 42.851 56.075
H 24.603 43.212 54.677
H 26.082 48.808 54.685
H 25.58 50.204 54.359
H 36.375 55.472 56.802
H 37.454 55.713 57.843
H 37.329 43.305 54.555
H 38.829 43.35 54.322
H 28.513 46.157 58.577
H 32.827 57.794 50.982
H 33.299 46.694 65.074
H 32.279 47.732 64.642
H 35.39 46.009 65.469
H 36.071 46.451 64.185
H 27.93 46.11 49.262
H 28.47 47.187 48.338
H 38.015 57.433 52.167
H 38.878 54.239 49.325
H 27.153 40.84 56.997
H 28.315 41.817 57.007
H 38.1 49.088 61.937
H 25.364 52.757 48.74
H 24.286 52.255 47.796
H 37.568 50.51 61.918
H 36.083 55.808 49.856
H 29.72 50.691 62.458
H 30.008 49.948 63.75
H 33.385 45.005 46.26
H 23.579 50.526 52.225
H 23.297 49.037 52.32
H 36.328 48.213 48.361
H 36.547 46.724 48.165
H 32.995 43.844 58.953
H 34.51 43.731 58.954
H 27.349 47.255 56.656
H 28.022 48.615 56.717
H 39.944 48.344 53.693
H 39.282 47.136 54.334
H 23.914 55.345 52.413
H 22.539 54.888 52.867
H 37.662 50.033 52.507
H 36.804 51.284 52.575
H 24.413 54.434 58.878
H 23.836 54.274 60.274
H 27.576 46.433 62.974
H 31.763 51.255 61.062
H 30.962 50.082 60.525
H 35.176 45.493 62.42
H 36.655 45.713 62.155
H 37.039 48.383 64.6
H 38.828 53.699 57.606
H 38.133 52.55 58.315
H 31.465 47.934 54.47
H 32.929 47.593 54.684
H 34.526 46.575 47.292
H 36.098 48.538 52.913
H 37.237 47.66 53.401
H 34.836 38.32 55.487
H 35.354 38.023 54.09
H 33.969 47.886 46.767
H 27.664 55.654 51.609
H 28.608 56.018 50.476
H 31.666 51.382 65.224
H 31.997 49.9 65.214
H 29.659 42.28 49.901
H 29.035 42.26 51.285
H 33.187 46.908 56.767
H 31.836 47.579 56.588
H 39.557 44.299 50.144
H 38.215 44.911 50.507
H 30.601 56.925 50.707
H 30.488 55.676 51.563
H 29.994 39.205 57.558
H 31.068 38.142 57.405
H 32.687 40.521 50.282
H 33.485 39.313 49.824
H 39.064 45.216 46.24
H 31.072 49.863 51.014
H 32.567 50.082 50.855
H 38.193 44.325 47.108
H 28.913 44.214 62.181
H 28.363 42.995 62.902
H 31.355 46.868 59.284
H 30.417 47.947 58.773
H 28.129 48.462 53.956
H 29.286 47.487 54.087
H 35.831 50.638 57.749
H 25.971 52.427 59.696
H 26.298 50.944 59.709
H 35.085 49.892 56.657
H 36.84 52.571 61.492
H 34.244 39.272 52.57
H 33.274 40.39 52.91
H 33.536 47.094 49.723
H 32.467 46.457 50.593
H 32.63 54.894 51.315
H 34.117 55.202 51.29
H 40.33 55.489 53.83
H 40.058 55.421 56.914
H 27.259 53.169 55.504
H 26.016 52.488 56.049
H 41.209 54.723 54.803
H 34.306 49.18 58.879
H 34.027 47.688 58.932
H 35.948 57.109 54.418
H 34.856 47.953 62.761
H 36.339 47.873 62.444
H 22.194 51.755 51.036
H 31.805 41.479 54.562
H 28.247 48.241 59.498
H 28.384 49.752 59.434
H 31.484 53.501 44.886
H 29.676 51.4 51.477
H 28.36 50.652 51.365
H 29.444 46.8 56.165
H 30.198 45.487 56.053
H 28.659 39.068 49.281
H 28.978 40.217 50.222
H 31.043 40.197 54.278
H 33.149 55.999 60.135
H 28.443 44.289 45.422
H 27.701 56.614 54.3
H 37.257 40.697 59.238
H 36.107 39.719 59.069
H 27.911 56.781 55.795
H 31.497 48.593 47.463
H 32.735 48.884 48.294
H 27.763 44.495 46.764
H 32.119 42.614 52.112
H 31.17 41.503 51.7
H 30.347 50.32 53.297
H 29.616 49.225 52.54
H 26.492 44.968 50.995
H 26.485 44.621 52.473
H 32.618 57.281 48.853
H 33.839 56.592 49.437
H 35.355 41.646 59.817
H 34.633 42.539 60.811
H 31.129 55.958 47.847
H 31.733 55.074 48.924
H 36.083 40.909 49.998
H 35.449 39.752 50.751
H 24.615 53.493 62.177
H 29.596 52.629 64.764
H 29.13 52.812 66.198
H 32.788 52.766 52.993
H 32.386 51.309 52.842
H 30.073 43.576 54.777
H 29.567 42.373 54.0
H 33.201 50.367 62.467
H 30.47 46.917 46.494
H 29.091 47.506 46.25
H 36.395 42.325 58.001
H 36.4 42.328 56.482
H 39.561 53.435 55.449
H 39.158 51.971 55.452
H 33.515 43.922 56.783
H 32.69 44.695 55.769
H 30.875 53.096 48.479
H 36.444 53.262 50.922
H 35.897 53.928 52.173
H 27.116 52.963 46.831
H 25.833 54.781 54.566
H 25.67 53.69 53.522
H 38.244 57.1 54.377
H 29.367 52.925 48.506
H 26.318 44.71 48.728
H 25.117 45.508 48.251
H 37.928 40.373 51.272
H 29.099 50.414 55.776
H 29.797 49.094 55.5
H 35.203 48.062 54.98
H 35.235 46.559 54.763
H 35.99 53.102 59.499
H 35.028 54.154 58.974
H 34.194 43.554 54.589
H 33.568 42.457 53.745
H 32.606 49.713 45.027
H 33.673 48.672 44.737
H 29.052 55.22 53.26
H 28.95 54.123 54.305
H 39.613 46.269 51.606
H 41.014 46.779 51.895
H 26.04 46.611 54.774
H 24.577 46.555 54.369
H 30.058 43.837 47.85
H 31.192 43.132 48.575
H 32.369 44.793 64.268
H 33.219 44.674 63.015
H 28.536 51.852 53.635
H 27.407 50.882 53.334
H 25.873 57.821 54.103
H 24.913 56.67 53.858
H 38.511 46.777 49.325
H 39.547 45.904 48.638
H 38.33 52.865 52.441
H 35.9 51.346 63.646
H 35.932 49.88 63.25
H 38.881 54.256 52.7
H 28.597 50.209 49.2
H 29.206 49.268 48.175
H 29.339 56.964 48.63
H 43.674 44.02 53.027
H 33.314 49.683 61.116
H 32.666 55.886 53.458
H 33.076 57.341 53.309
H 25.983 54.666 50.147
H 31.001 54.156 63.707
H 31.386 52.71 63.445
H 26.977 53.523 50.032
H 31.351 44.888 61.536
H 30.41 45.842 62.249
H 33.017 39.205 56.356
H 31.751 40.03 56.504
H 29.616 51.118 57.944
H 30.986 50.647 58.398
H 38.569 41.421 53.276
H 38.049 42.557 52.412
H 38.264 45.43 53.439
H 35.773 47.343 50.316
H 36.749 45.525 53.409
H 37.057 46.867 50.973
H 32.564 48.625 52.728
H 31.552 47.593 52.261
H 23.9 48.569 62.233
H 24.793 47.512 61.606
H 31.055 41.279 61.954
H 29.541 41.323 62.064
H 33.226 44.868 48.527
H 34.741 44.842 48.631
H 23.808 52.42 57.479
H 23.876 51.915 58.909
H 26.978 48.004 65.675
H 38.512 49.69 55.279
H 37.184 48.992 55.511
H 36.273 48.147 58.053
H 36.41 47.032 57.03
H 41.017 45.015 54.024
H 40.383 44.911 55.4
H 25.625 51.777 52.376
H 24.828 51.949 51.095
H 34.706 51.801 49.111
H 33.457 51.141 48.554
H 34.616 43.202 46.516
H 34.381 41.704 46.606
H 37.109 39.27 54.851
H 40.449 50.625 52.579
H 39.393 50.821 53.652
