78
xyz format
O 63.38 32.816 56.995
O 62.767 29.328 54.957
O 62.639 28.236 52.425
O 62.904 31.666 54.133
O 56.165 27.563 59.504
O 55.002 31.796 55.372
O 56.513 29.937 53.846
O 60.705 26.403 60.437
O 60.829 28.336 57.964
O 63.183 34.26 59.274
O 58.67 28.235 55.142
O 53.977 28.683 59.902
O 58.683 30.544 58.511
O 59.092 34.199 59.255
O 57.952 31.834 54.264
O 56.86 30.496 57.245
O 58.887 27.167 58.899
O 63.146 26.079 54.305
O 60.809 30.629 56.69
O 59.054 26.879 52.516
O 60.38 26.866 56.319
O 56.491 24.947 58.055
O 55.198 29.287 61.777
O 57.039 30.149 60.749
O 55.535 32.102 58.886
O 57.242 30.701 62.901
H 57.055 25.177 57.307
H 55.845 32.865 58.383
H 54.633 31.97 58.569
H 62.42 26.103 54.942
H 63.878 25.701 54.807
H 59.555 28.983 52.921
H 60.694 29.925 52.572
H 60.925 30.897 57.61
H 61.699 30.685 56.321
H 54.07 26.722 61.257
H 59.342 30.368 59.195
H 58.577 31.504 58.538
H 57.575 30.651 56.614
H 56.61 29.577 57.087
H 58.387 27.502 59.654
H 58.611 26.244 58.833
H 60.008 26.177 55.753
H 60.82 27.46 55.698
H 58.378 26.564 53.128
H 59.682 34.036 58.508
H 58.456 31.958 55.077
H 57.036 31.958 54.54
H 65.585 31.166 58.058
H 57.322 28.484 62.899
H 60.048 32.675 56.416
H 60.145 28.85 63.071
H 62.659 34.351 58.469
H 58.24 27.47 55.545
H 58.045 28.955 55.293
H 63.53 33.361 59.221
H 55.636 28.504 61.421
H 54.331 29.329 59.278
H 53.492 28.065 59.341
H 60.964 26.769 59.582
H 60.398 27.173 60.932
H 61.53 28.672 57.391
H 60.043 28.813 57.669
H 54.505 28.742 56.771
H 54.212 27.348 57.296
H 55.266 30.976 55.807
H 57.289 29.652 53.348
H 56.095 29.108 54.112
H 62.293 31.868 60.312
H 57.461 29.333 60.452
H 56.515 30.426 59.987
H 61.991 31.375 54.013
H 55.809 26.72 59.196
H 56.469 27.993 58.695
H 63.642 32.358 56.187
H 62.857 32.159 57.472
H 62.981 28.725 55.679
H 63.628 29.658 54.671
