30
xyz format
O 70.887 45.059 49.576
O 73.858 46.883 49.56
O 77.402 45.196 48.195
O 72.837 46.478 52.5
O 75.243 50.565 51.292
O 73.252 44.143 46.298
O 75.517 46.397 47.702
O 77.2 42.696 46.561
O 72.47 48.32 50.95
O 76.695 48.033 50.154
O 78.252 47.606 46.734
O 75.293 42.702 45.464
H 75.325 43.618 45.768
H 72.377 48.871 50.162
H 72.949 48.885 51.568
H 74.964 45.681 48.038
H 75.905 46.781 48.498
H 77.883 43.161 47.059
H 76.722 42.199 47.237
H 77.533 47.888 50.611
H 76.25 48.696 50.696
H 75.849 50.918 50.628
H 78.627 48.492 46.663
H 77.452 47.736 47.259
H 73.572 45.885 52.301
H 78.35 45.31 48.334
H 77.185 44.418 48.724
H 74.59 43.247 48.677
H 74.512 47.335 50.108
H 73.653 46.083 50.059
