521
xyz format
Cl 64.214 44.247 60.337
O 61.102 36.683 55.334
O 54.575 43.013 67.823
O 63.38 32.816 56.995
O 61.976 45.353 59.134
O 67.744 46.953 58.777
O 63.229 49.027 63.19
O 60.252 42.998 62.523
O 63.448 36.398 59.761
O 56.527 45.794 74.468
O 55.378 40.424 69.073
O 60.311 48.424 64.719
O 52.341 36.905 65.243
O 56.277 43.541 70.46
O 60.196 35.981 57.618
O 64.14 35.152 56.3
O 65.438 44.001 70.604
O 55.757 39.152 67.204
O 57.743 30.466 65.999
O 61.15 51.715 61.861
O 64.694 41.658 68.189
O 65.515 50.061 67.201
O 58.247 35.569 61.606
O 65.984 48.353 72.97
O 63.682 51.245 66.618
O 59.913 34.417 65.395
O 67.252 43.596 62.101
O 68.357 48.068 68.253
O 65.989 41.157 61.39
O 60.87 45.858 66.347
O 63.124 43.232 58.701
O 64.93 40.913 70.963
O 62.014 41.787 56.626
O 53.036 35.388 62.771
O 64.629 31.378 60.664
O 61.028 40.557 73.524
O 61.12 35.495 70.299
O 62.268 49.56 69.406
O 66.688 44.048 59.049
O 61.932 50.662 59.556
O 69.345 41.933 58.581
O 69.07 44.581 57.195
O 59.521 47.544 70.035
O 58.929 40.688 62.381
O 63.065 48.889 72.287
O 67.902 36.888 68.453
O 59.475 44.985 61.593
O 69.271 43.885 67.427
O 65.216 34.181 61.503
O 59.769 50.395 70.355
O 64.067 41.072 56.855
O 63.951 44.895 67.329
O 63.183 34.26 59.274
O 64.053 41.016 60.357
O 57.282 42.24 61.23
O 60.505 43.448 55.93
O 50.982 37.216 62.935
O 55.782 32.223 65.02
O 68.805 38.811 66.129
O 60.977 37.685 58.77
O 65.57 48.977 59.756
O 67.853 48.054 64.624
O 65.077 35.392 65.902
O 56.375 46.639 69.781
O 65.474 34.816 58.02
O 64.232 40.062 62.331
O 60.142 29.779 62.808
O 62.008 47.645 59.223
O 64.688 38.506 65.185
O 56.097 28.534 65.701
O 66.284 29.119 61.082
O 60.088 50.102 73.471
O 67.303 47.911 62.304
O 51.524 32.665 64.318
O 60.249 38.508 63.968
O 55.207 36.551 65.795
O 53.39 32.551 66.205
O 63.251 35.457 62.214
O 55.73 44.345 65.835
O 60.895 35.423 60.618
O 65.078 46.072 59.477
O 60.918 28.971 65.293
O 65.478 33.409 63.918
O 58.777 43.403 65.603
O 56.806 42.436 65.682
O 58.309 42.437 58.624
O 63.169 46.44 57.641
O 59.092 34.199 59.255
O 65.903 43.125 57.056
O 62.542 46.234 75.718
O 61.444 47.632 73.521
O 62.869 34.55 68.12
O 63.009 38.757 59.777
O 63.218 39.463 67.738
O 67.189 45.932 71.068
O 56.881 44.175 67.708
O 65.797 38.013 67.021
O 62.748 38.229 57.524
O 62.695 41.199 68.982
O 55.544 47.004 66.219
O 64.287 33.038 66.929
O 61.065 47.323 62.157
O 65.009 47.781 61.968
O 60.328 50.152 63.318
O 56.145 35.469 68.343
O 68.528 33.361 62.826
O 63.746 48.714 65.983
O 69.278 44.19 61.184
O 61.827 44.232 70.126
O 67.38 33.776 65.297
O 62.04 34.867 65.062
O 58.568 45.13 70.561
O 56.197 39.221 61.485
O 62.853 44.146 62.449
O 57.788 41.35 72.185
O 60.783 41.805 66.739
O 65.635 38.831 58.909
O 54.289 33.527 70.004
O 69.376 38.541 61.65
O 62.059 41.298 64.773
O 71.486 42.916 64.245
O 65.934 43.22 65.333
O 70.441 37.551 65.37
O 70.712 46.232 66.163
O 57.834 39.373 65.035
O 65.206 45.478 56.278
O 59.248 44.871 75.995
O 67.589 36.583 63.648
O 56.714 49.376 62.964
O 59.971 48.903 67.52
O 59.036 49.134 60.538
O 68.013 40.036 68.603
O 68.165 45.241 64.78
O 67.142 37.872 60.19
O 61.007 36.409 67.457
O 59.362 40.431 69.088
O 67.26 41.036 63.534
O 53.773 38.205 67.29
O 58.55 37.607 67.065
O 55.738 41.345 62.921
O 71.309 40.347 64.498
O 61.113 32.967 68.549
O 53.99 33.576 63.828
O 63.256 47.005 70.675
O 57.213 45.272 59.184
O 62.493 38.106 65.071
O 66.34 45.882 66.399
O 55.714 36.678 61.742
O 57.759 47.152 66.821
O 65.422 51.232 71.391
O 55.395 46.924 60.065
O 50.762 35.421 65.634
O 69.844 42.63 69.617
O 59.258 32.547 63.306
O 66.154 41.001 58.781
O 53.953 30.128 64.256
O 57.452 37.525 70.293
O 62.226 47.078 67.782
O 58.669 39.086 60.436
O 65.3 30.074 62.913
O 58.655 46.414 64.366
O 69.148 41.817 65.804
O 60.214 38.647 70.545
O 59.013 39.325 57.048
O 65.242 50.684 64.256
O 52.395 35.805 68.419
O 62.204 51.375 64.503
O 56.777 34.943 65.455
O 57.812 48.611 72.06
O 61.593 43.859 64.625
O 56.832 46.309 62.245
O 71.877 38.432 62.4
O 56.672 34.39 62.816
O 63.46 46.096 63.813
O 69.443 41.708 62.433
O 57.242 30.701 62.901
O 61.613 40.045 58.66
O 61.245 42.632 60.381
O 63.539 52.401 73.384
O 67.151 35.459 61.34
O 55.489 44.035 61.792
O 66.843 50.424 62.784
O 61.865 32.074 61.152
O 60.575 36.57 72.614
O 53.394 41.588 65.588
O 55.253 32.071 61.658
O 59.636 45.376 73.29
O 68.231 39.781 60.081
O 62.973 37.804 62.188
O 59.899 46.772 58.819
H 67.801 35.242 60.661
H 66.44 35.89 60.849
H 68.5 40.288 69.398
H 67.124 39.848 68.929
H 60.73 39.916 58.291
H 61.585 40.943 59.014
H 56.529 41.663 63.375
H 55.121 42.085 62.992
H 53.591 39.031 67.757
H 53.964 37.579 67.999
H 57.957 37.187 67.701
H 59.057 38.229 67.601
H 60.416 36.074 66.772
H 61.335 37.24 67.091
H 68.941 44.92 64.304
H 67.5 45.351 64.088
H 67.956 37.376 60.038
H 67.142 38.026 61.143
H 57.0 31.636 62.922
H 57.371 30.477 63.831
H 61.964 41.694 68.59
H 62.258 40.472 69.442
H 66.045 45.89 56.522
H 65.27 45.377 55.32
H 59.186 45.698 75.5
H 59.956 45.036 76.629
H 58.095 39.04 64.167
H 58.331 40.196 65.124
H 59.707 41.146 68.539
H 58.559 40.156 68.629
H 67.528 40.222 63.98
H 67.032 41.63 64.259
H 69.868 42.483 62.819
H 63.065 51.726 72.882
H 68.977 42.06 61.665
H 55.767 46.83 65.296
H 60.702 48.127 62.55
H 63.153 37.592 56.922
H 62.325 38.865 56.935
H 57.466 45.708 62.655
H 70.375 48.29 69.265
H 56.299 46.62 62.988
H 72.397 42.727 64.499
H 66.812 46.3 70.259
H 62.05 35.534 64.365
H 62.086 34.031 64.58
H 66.416 45.702 71.598
H 68.211 33.381 65.003
H 66.866 33.021 65.611
H 71.523 46.318 66.68
H 70.014 46.454 66.792
H 62.655 41.812 65.332
H 62.491 41.306 63.91
H 66.208 43.663 66.146
H 65.896 43.935 64.685
H 71.211 43.6 64.869
H 56.138 44.738 67.962
H 57.652 44.74 67.84
H 66.036 38.947 67.084
H 65.612 37.761 67.934
H 63.074 51.066 64.223
H 61.883 50.667 65.076
H 71.084 37.049 64.854
H 70.878 38.398 65.521
H 65.247 49.905 64.826
H 65.182 51.421 64.877
H 58.307 45.966 70.967
H 58.69 44.539 71.314
H 65.356 37.907 58.872
H 59.463 38.471 57.069
H 66.427 38.853 58.359
H 58.623 39.4 57.928
H 61.806 47.099 62.734
H 56.597 35.234 63.278
H 56.227 34.55 61.974
H 64.729 33.228 66.092
H 55.492 39.304 62.139
H 57.003 39.215 62.015
H 63.387 32.807 66.666
H 59.434 38.439 70.016
H 60.904 38.795 69.887
H 68.781 44.707 60.538
H 69.954 43.749 60.654
H 62.475 44.947 70.163
H 62.046 43.767 69.309
H 58.575 41.017 71.736
H 57.205 41.612 71.461
H 62.918 44.977 61.962
H 69.263 40.928 65.446
H 69.381 42.393 65.064
H 60.235 41.193 66.23
H 60.737 42.627 66.235
H 62.733 43.484 61.756
H 60.557 39.313 63.532
H 60.415 37.817 63.315
H 52.53 32.303 66.566
H 53.42 33.509 66.321
H 57.442 36.584 70.506
H 64.069 35.631 62.695
H 62.962 34.601 62.555
H 65.112 31.012 62.785
H 64.529 29.75 63.395
H 56.963 37.931 71.019
H 67.096 47.097 62.78
H 60.348 49.433 72.825
H 63.603 38.591 67.585
H 63.649 40.022 67.079
H 55.409 28.58 65.025
H 56.918 28.551 65.193
H 53.264 30.211 63.584
H 54.671 30.676 63.917
H 67.794 33.551 62.229
H 69.264 33.171 62.231
H 53.913 41.632 64.775
H 53.498 42.467 65.974
H 66.278 40.981 57.824
H 66.063 41.941 58.98
H 56.033 36.416 68.494
H 64.584 48.281 66.189
H 63.113 47.986 65.953
H 56.957 35.255 68.819
H 60.182 51.021 63.711
H 59.444 49.871 63.05
H 65.453 47.239 61.304
H 64.342 48.263 61.464
H 55.885 37.096 66.214
H 54.988 35.897 66.47
H 61.303 47.177 68.048
H 62.659 46.737 68.574
H 58.356 49.648 60.99
H 59.861 49.456 60.924
H 56.039 41.872 65.516
H 57.223 42.033 66.453
H 60.017 32.267 62.779
H 58.604 44.125 64.987
H 65.996 51.975 71.616
H 65.809 50.49 71.871
H 58.898 42.636 65.029
H 56.153 37.221 62.409
H 65.474 46.27 66.221
H 60.141 49.668 66.957
H 66.451 45.995 67.351
H 68.243 36.054 63.174
H 67.643 37.448 63.223
H 56.355 49.734 62.143
H 57.311 48.677 62.668
H 59.196 49.164 68.033
H 65.563 46.251 58.662
H 63.801 38.548 60.288
H 61.112 32.281 67.87
H 60.423 33.577 68.26
H 62.36 39.0 60.448
H 65.748 42.647 56.232
H 66.58 43.772 56.822
H 64.054 47.301 71.13
H 62.623 46.865 71.39
H 58.939 35.152 59.222
H 59.682 34.036 58.508
H 62.868 46.052 56.809
H 63.819 47.098 57.365
H 60.332 28.713 66.016
H 61.142 34.778 61.292
H 60.454 36.12 61.119
H 58.698 33.012 62.671
H 55.033 43.985 65.273
H 56.385 44.671 65.207
H 62.674 35.375 68.583
H 62.227 34.534 67.4
H 70.811 40.434 63.675
H 72.218 40.538 64.237
H 66.157 32.849 63.522
H 64.693 32.847 63.925
H 61.705 45.793 75.528
H 64.364 46.721 59.467
H 60.823 47.288 74.176
H 62.219 47.871 74.044
H 58.193 41.501 58.42
H 58.195 42.874 57.771
H 70.009 37.862 61.387
H 65.82 35.647 58.367
H 66.242 34.232 58.012
H 64.415 40.618 63.098
H 63.268 40.013 62.308
H 64.305 39.34 64.884
H 64.798 37.997 64.373
H 57.904 39.49 60.008
H 59.422 39.526 60.023
H 63.039 44.759 67.614
H 64.469 44.706 68.121
H 60.216 30.254 63.645
H 60.145 28.85 63.071
H 60.048 37.666 59.032
H 61.431 37.246 59.5
H 68.458 38.555 65.265
H 68.113 39.374 66.497
H 55.592 46.508 69.231
H 61.546 48.383 58.805
H 61.877 47.797 60.167
H 67.538 47.394 65.254
H 65.953 48.365 59.116
H 66.27 49.093 60.41
H 67.575 48.893 65.012
H 62.659 34.351 58.469
H 54.013 33.419 62.875
H 54.784 34.099 63.993
H 63.566 41.816 60.591
H 63.741 40.81 59.467
H 57.052 42.978 60.651
H 57.661 41.587 60.63
H 60.811 44.255 56.363
H 60.09 42.948 56.643
H 63.466 34.666 55.807
H 64.202 35.994 55.833
H 59.769 35.717 56.793
H 61.07 35.574 57.564
H 56.548 44.393 70.096
H 56.366 42.934 69.715
H 63.53 33.361 59.221
H 64.235 41.736 57.535
H 63.989 40.248 57.353
H 57.784 44.494 59.201
H 57.228 45.547 58.259
H 55.505 32.014 65.921
H 56.576 32.757 65.142
H 62.327 38.719 65.798
H 62.859 37.326 65.507
H 64.674 33.441 61.807
H 65.18 34.112 60.541
H 59.517 45.909 59.025
H 69.004 40.286 60.364
H 68.176 39.958 59.134
H 59.803 47.267 59.642
H 62.598 37.411 62.985
H 63.922 37.815 62.362
H 68.607 44.393 67.91
H 69.038 44.024 66.501
H 60.399 47.926 69.909
H 59.263 47.268 69.147
H 58.649 41.508 62.806
H 59.503 40.987 61.664
H 61.969 50.004 60.261
H 63.094 49.766 71.884
H 63.811 48.894 72.9
H 68.181 37.585 67.846
H 67.299 36.35 67.923
H 59.99 45.679 61.163
H 59.221 44.403 60.865
H 64.79 36.308 65.999
H 65.94 35.375 66.335
H 68.619 42.112 59.192
H 60.467 44.943 73.059
H 62.141 49.246 68.502
H 63.193 49.358 69.592
H 59.62 46.157 72.723
H 66.712 44.1 60.013
H 67.62 44.032 58.797
H 61.688 36.167 70.695
H 69.153 42.353 69.002
H 69.837 43.593 69.55
H 62.542 31.875 61.81
H 60.176 36.752 73.474
H 60.976 37.411 72.364
H 60.668 35.967 69.589
H 62.293 31.868 60.312
H 69.443 38.556 62.613
H 53.013 36.68 65.899
H 53.352 35.79 63.59
H 61.722 41.195 55.921
H 62.471 42.496 56.155
H 57.998 47.118 64.293
H 63.393 52.078 66.226
H 62.902 50.931 67.092
H 59.352 46.686 63.756
H 63.991 40.857 70.743
H 65.263 41.601 70.374
H 63.435 43.753 57.95
H 62.213 43.013 58.466
H 53.073 35.545 67.782
H 66.744 44.403 62.254
H 67.903 43.597 62.815
H 57.332 35.717 65.296
H 56.898 34.764 66.396
H 61.446 44.633 64.068
H 62.011 44.221 65.416
H 67.756 48.606 67.722
H 67.792 47.369 68.603
H 65.888 41.873 62.03
H 66.922 41.197 61.147
H 59.073 34.445 65.871
H 72.193 38.37 61.489
H 72.516 37.908 62.9
H 60.005 33.488 65.149
H 55.803 39.296 66.25
H 56.669 38.954 67.45
H 58.055 31.377 66.057
H 57.744 30.165 66.916
H 65.664 43.696 69.717
H 64.548 43.656 70.746
H 55.417 41.02 68.315
H 61.044 48.466 65.346
H 59.531 48.346 65.283
H 51.704 37.434 65.739
H 57.648 46.333 66.323
H 59.754 43.491 63.187
H 63.401 36.427 58.797
H 64.334 36.058 59.937
H 58.705 47.176 67.014
H 60.771 42.372 63.044
H 65.334 40.935 68.214
H 65.191 42.391 67.803
H 66.301 47.829 73.716
H 66.295 47.865 72.198
H 66.43 50.328 67.356
H 57.665 36.007 60.973
H 58.309 34.666 61.273
H 65.069 50.278 68.029
H 61.635 44.706 59.763
H 61.547 45.113 58.303
H 60.365 42.471 60.02
H 61.384 41.892 60.986
H 60.43 46.378 65.664
H 60.142 45.517 66.881
H 54.362 42.899 68.757
H 54.12 43.83 67.582
H 64.326 46.492 63.972
H 63.004 46.196 64.658
H 63.642 32.358 56.187
H 62.857 32.159 57.472
H 62.421 49.014 63.717
H 63.048 49.687 62.509
H 67.656 46.175 59.341
