164
xyz format
O 66.298 65.926 54.185
O 62.6 75.297 45.88
O 65.522 73.736 52.528
O 67.504 68.334 48.91
O 63.466 72.94 53.637
O 57.005 69.809 55.479
O 55.71 72.65 54.97
O 61.896 75.612 52.647
O 58.364 75.563 50.245
O 66.394 67.533 57.174
O 59.878 66.912 54.031
O 67.719 68.723 45.768
O 64.751 70.124 53.396
O 61.419 67.367 51.856
O 59.743 73.301 51.058
O 69.302 68.926 56.655
O 65.069 66.505 49.189
O 63.121 72.389 47.352
O 53.628 73.72 48.648
O 65.593 68.66 46.358
O 57.623 74.74 46.43
O 54.254 72.37 50.268
O 62.932 65.063 51.091
O 59.257 71.748 44.168
O 69.162 67.138 54.708
O 69.555 68.937 50.703
O 61.12 72.239 45.505
O 57.823 72.214 52.872
O 64.667 68.385 43.334
O 63.034 70.06 51.11
O 62.089 69.299 55.23
O 68.635 71.238 54.809
O 69.937 69.552 53.348
O 56.574 72.226 51.034
O 56.691 74.124 48.591
O 64.806 66.687 44.858
O 59.356 75.058 43.986
O 66.157 70.708 55.349
O 53.935 77.88 46.843
O 62.023 66.342 54.868
O 65.845 73.29 49.445
O 55.027 69.354 50.173
O 58.978 69.657 53.142
O 58.988 70.621 48.589
O 56.94 69.882 51.128
O 63.598 66.9 42.117
O 58.357 70.806 46.011
O 59.605 66.027 50.135
O 61.195 72.648 42.534
O 62.884 73.044 50.188
O 54.32 75.359 50.973
O 56.987 77.517 49.447
O 64.889 74.256 47.703
O 60.291 76.047 46.643
O 66.579 69.031 52.834
O 57.024 77.2 46.115
O 62.414 65.692 45.616
O 53.207 72.816 52.667
O 65.453 66.525 51.355
O 58.497 76.398 53.348
O 68.354 69.211 58.622
O 65.906 69.426 50.77
O 64.154 70.009 56.571
O 63.435 67.588 46.967
H 66.117 65.556 46.557
H 58.082 70.935 48.7
H 58.881 69.698 48.33
H 57.793 76.989 46.659
H 58.844 68.798 53.562
H 59.938 69.75 53.111
H 54.08 72.405 52.63
H 61.363 71.667 46.244
H 61.584 73.065 45.693
H 56.287 76.808 46.598
H 61.715 66.944 55.558
H 62.735 65.85 55.294
H 65.894 68.354 52.763
H 67.402 68.534 52.748
H 66.773 73.438 49.227
H 65.831 72.387 49.788
H 59.986 76.905 46.961
H 60.205 74.606 44.067
H 60.258 75.486 47.428
H 54.737 78.285 47.196
H 62.899 72.215 50.683
H 63.788 73.375 50.269
H 64.365 66.198 44.152
H 65.728 66.722 44.572
H 59.195 72.653 43.837
H 59.474 71.231 43.383
H 56.351 74.74 49.252
H 56.004 72.764 51.597
H 56.973 72.866 50.432
H 59.754 66.913 50.49
H 59.589 65.465 50.92
H 58.469 72.125 53.583
H 57.28 71.42 52.955
H 53.464 71.832 50.407
H 54.836 71.794 49.756
H 57.643 74.118 48.751
H 62.761 68.735 54.828
H 69.395 70.744 55.14
H 68.256 71.635 55.603
H 63.7 69.442 50.786
H 63.015 69.899 52.062
H 69.17 69.84 52.838
H 63.215 65.577 51.858
H 65.288 66.204 52.251
H 66.394 66.738 51.357
H 56.792 68.977 51.429
H 57.886 70.018 51.266
H 69.172 69.664 50.198
H 58.39 74.212 46.684
H 57.183 74.199 45.762
H 65.18 69.258 46.993
H 65.06 68.767 45.561
H 62.507 72.507 48.088
H 63.627 71.605 47.599
H 64.283 66.428 48.634
H 65.763 66.09 48.661
H 66.763 68.485 48.31
H 68.252 68.19 48.318
H 65.947 72.91 52.791
H 65.292 74.154 53.367
H 65.724 68.638 50.243
H 66.743 69.75 50.416
H 61.342 66.589 52.422
H 61.244 68.105 52.453
H 63.114 67.902 46.112
H 63.182 68.29 47.579
H 67.782 67.857 46.191
H 67.774 69.343 46.506
H 64.638 71.011 53.759
H 64.696 69.55 54.17
H 60.39 74.011 50.965
H 59.545 73.052 50.147
H 58.61 70.048 45.47
H 57.662 70.458 46.584
H 64.429 70.913 56.769
H 64.733 69.468 57.121
H 59.207 66.633 53.396
H 59.763 66.3 54.769
H 55.59 72.083 54.198
H 56.029 73.481 54.597
H 57.814 70.315 55.336
H 58.76 76.434 50.37
H 58.498 75.126 51.096
H 66.54 68.26 56.557
H 57.826 75.752 53.095
H 58.537 76.321 54.31
H 65.462 74.175 46.93
H 64.019 74.435 47.325
H 56.297 77.277 48.816
H 57.727 77.783 48.888
H 66.511 70.438 56.206
H 66.046 71.662 55.438
H 61.177 75.968 52.108
H 61.878 74.666 52.456
H 66.382 65.453 55.022
H 65.959 66.792 54.445
H 62.021 75.811 45.303
H 63.383 75.14 45.338
H 63.599 72.684 52.715
H 62.505 72.968 53.73
