166
xyz format
Na 46.336 56.344 34.969
O 48.262 50.179 24.401
O 44.251 57.008 30.865
O 45.733 48.509 31.953
O 45.023 54.088 36.793
O 49.594 50.321 28.425
O 48.66 49.362 33.595
O 43.128 47.633 32.968
O 38.829 49.07 31.297
O 41.465 50.784 30.986
O 42.509 44.712 31.816
O 41.971 55.703 32.339
O 48.387 53.642 30.03
O 43.681 50.692 23.486
O 48.247 55.485 32.451
O 44.636 45.743 30.719
O 42.652 54.309 27.015
O 42.196 50.038 26.32
O 42.041 49.464 28.779
O 49.416 51.428 30.997
O 41.037 47.328 30.485
O 39.748 54.056 36.206
O 44.469 54.002 29.164
O 40.068 52.462 29.522
O 46.113 50.098 34.367
O 40.437 55.974 29.266
O 44.267 51.138 30.976
O 46.923 54.191 35.632
O 48.282 52.62 32.825
O 46.963 45.185 32.225
O 45.346 46.34 35.392
O 47.394 50.357 29.947
O 46.539 55.3 29.686
O 42.724 55.002 30.394
O 42.843 53.455 32.678
O 43.822 55.229 35.077
O 45.371 53.799 33.656
O 44.749 49.803 27.586
O 44.893 51.368 25.879
O 38.686 49.873 33.379
O 39.405 45.462 29.705
O 45.648 52.248 27.755
O 46.129 57.247 32.393
O 49.153 52.077 26.007
O 48.047 50.59 35.994
O 40.338 50.895 27.642
O 41.935 47.489 35.878
O 46.627 52.684 24.989
O 48.858 46.918 28.19
O 46.74 54.581 27.217
O 47.77 49.6 26.866
O 42.973 49.986 33.639
O 42.271 46.033 28.182
O 46.348 51.833 31.199
O 47.9 47.945 25.418
O 41.843 53.022 34.695
O 38.956 49.056 28.378
H 38.792 48.246 28.876
H 39.143 49.712 29.062
H 41.15 53.047 34.023
H 41.722 52.163 35.118
H 44.395 50.602 25.565
H 44.211 52.029 26.053
H 41.865 45.587 28.936
H 41.872 46.912 28.194
H 43.141 50.784 34.155
H 43.441 50.145 32.81
H 44.026 49.252 27.262
H 44.518 49.966 28.509
H 45.595 54.123 23.064
H 48.272 48.931 27.349
H 46.929 49.641 27.338
H 43.45 54.072 32.251
H 45.915 49.214 34.7
H 42.234 53.207 31.971
H 45.49 50.214 33.639
H 47.158 55.091 26.512
H 47.462 54.049 27.574
H 43.471 54.553 34.484
H 44.172 55.9 34.478
H 45.694 46.632 37.771
H 45.181 52.905 33.346
H 45.892 54.185 32.94
H 41.815 54.677 30.39
H 42.686 55.798 29.85
H 45.809 55.929 29.748
H 46.826 55.191 30.601
H 47.736 45.464 31.719
H 47.59 54.415 34.97
H 46.692 53.277 35.423
H 44.201 51.511 30.088
H 44.008 51.868 31.552
H 40.941 55.62 28.522
H 47.557 52.831 33.426
H 49.01 52.39 33.416
H 45.204 47.131 34.858
H 44.993 45.627 34.845
H 42.104 53.933 27.715
H 43.254 54.898 27.486
H 42.046 49.363 25.647
H 42.225 50.861 25.816
H 42.009 55.17 36.325
H 40.204 53.212 36.315
H 40.143 54.429 35.408
H 40.903 47.07 31.405
H 41.992 47.256 30.363
H 44.719 54.05 30.095
H 43.684 53.44 29.165
H 49.428 52.561 25.218
H 49.639 51.245 25.946
H 42.712 48.795 28.966
H 41.261 49.143 29.248
H 41.967 43.302 33.416
H 45.985 56.297 32.307
H 41.289 49.984 35.468
H 40.927 52.874 29.366
H 49.549 50.962 31.832
H 44.994 47.695 26.044
H 46.911 51.768 25.101
H 47.33 53.195 25.408
H 41.049 47.835 36.039
H 41.792 46.543 35.751
H 48.452 54.663 31.989
H 39.088 45.462 30.616
H 38.814 46.078 29.256
H 43.838 46.062 30.279
H 44.533 46.048 31.63
H 46.424 51.79 27.409
H 45.839 52.344 28.696
H 46.669 46.07 29.324
H 42.414 55.966 33.156
H 41.198 55.213 32.645
H 41.155 51.406 27.693
H 41.867 45.079 31.196
H 43.002 44.074 31.285
H 47.55 53.341 29.656
H 47.368 49.932 36.188
H 47.853 51.308 36.61
H 42.06 51.432 30.587
H 42.026 50.01 31.12
H 48.088 46.643 27.677
H 47.109 55.279 24.321
H 47.173 47.468 25.837
H 48.688 47.476 25.723
H 46.015 52.735 31.29
H 46.391 51.511 32.108
H 46.897 49.637 29.538
H 47.823 49.939 30.703
H 42.982 48.102 32.137
H 42.252 47.607 33.373
H 49.172 51.166 28.627
H 49.445 49.795 29.22
H 43.898 56.461 31.578
H 44.254 57.898 31.239
H 45.086 55.048 36.869
H 39.5 52.294 32.779
H 38.647 50.012 31.184
H 39.782 49.003 31.163
H 49.037 49.627 24.564
H 48.41 48.755 32.888
H 48.244 48.985 34.38
H 47.851 49.776 23.626
H 45.723 49.277 31.369
H 46.085 47.803 31.397
H 38.322 47.216 32.434
H 37.703 47.12 31.05
