268
xyz format
O 46.564 43.774 67.068
O 51.939 37.766 62.444
O 55.909 47.765 62.103
O 52.678 33.847 62.345
O 45.692 46.004 64.106
O 61.527 49.013 64.664
O 51.765 46.336 64.034
O 51.628 50.261 61.284
O 65.208 47.114 60.166
O 53.557 45.642 60.169
O 46.638 48.271 63.479
O 57.431 47.442 65.418
O 50.162 51.271 64.117
O 55.793 39.771 56.812
O 54.348 46.002 62.355
O 51.138 37.923 65.723
O 56.437 45.361 64.157
O 48.834 49.165 65.159
O 51.732 42.958 59.706
O 48.588 43.365 65.566
O 54.202 36.523 62.052
O 47.177 43.744 62.759
O 49.799 42.559 67.756
O 53.208 40.216 62.944
O 56.393 40.989 60.569
O 55.37 46.163 66.94
O 54.841 43.832 58.8
O 56.732 52.207 62.434
O 51.313 43.179 63.736
O 55.354 42.066 56.25
O 46.737 45.464 69.126
O 53.919 41.474 58.509
O 53.353 47.356 66.608
O 50.904 40.753 61.307
O 53.811 44.261 64.831
O 52.819 47.389 61.283
O 52.914 45.971 68.26
O 45.507 46.617 67.49
O 52.618 39.764 67.579
O 55.656 43.195 67.525
O 52.593 43.516 55.774
O 48.541 46.155 63.954
O 58.136 34.719 59.724
O 56.367 47.344 58.457
O 53.597 36.525 64.87
O 47.985 42.522 61.116
O 50.512 47.683 67.878
O 56.716 49.371 63.372
O 59.005 43.441 63.953
O 55.845 41.052 66.725
O 57.814 38.94 62.858
O 56.498 49.126 68.092
O 47.72 46.648 66.743
O 55.977 43.941 61.968
O 51.685 50.231 66.084
O 48.439 47.377 69.691
O 59.343 45.187 65.74
O 50.296 37.776 60.34
O 50.574 40.336 65.092
O 59.0 50.264 65.074
O 48.218 37.968 62.947
O 52.653 48.776 64.577
O 57.981 41.894 57.086
O 63.238 46.11 62.835
O 53.802 33.648 59.156
O 60.215 46.72 63.916
O 57.997 45.824 59.432
O 58.759 48.506 59.928
O 59.33 50.382 58.828
O 53.434 42.715 68.853
O 50.653 45.873 69.179
O 55.029 37.614 59.013
O 58.121 44.578 68.035
O 52.899 43.259 61.546
O 57.116 35.843 62.003
O 59.961 42.972 60.48
O 60.255 45.141 61.113
O 45.243 41.095 65.8
O 54.385 50.812 64.679
O 49.82 45.586 62.256
O 48.054 40.553 65.054
O 51.506 44.789 66.499
O 57.587 40.139 58.619
O 56.235 39.845 64.835
O 48.321 49.478 68.137
O 52.494 35.26 59.887
O 55.98 37.059 64.597
O 59.291 48.467 67.545
O 50.57 36.052 64.046
O 53.123 53.116 64.344
H 54.126 37.274 59.056
H 55.26 37.767 59.937
H 60.092 47.088 64.8
H 61.125 46.399 63.926
H 58.552 37.369 59.16
H 58.463 43.982 67.357
H 57.97 45.404 67.558
H 58.264 41.447 56.279
H 57.281 45.324 59.844
H 58.703 45.173 59.332
H 63.579 45.376 62.31
H 63.472 45.872 63.741
H 48.445 39.684 64.9
H 47.767 42.897 58.956
H 47.317 40.371 65.65
H 50.997 41.178 65.302
H 50.355 39.968 65.958
H 60.079 44.921 65.176
H 58.657 45.45 65.114
H 48.217 37.745 63.886
H 48.505 37.151 62.518
H 50.419 37.354 59.48
H 51.112 38.275 60.469
H 50.271 36.957 63.893
H 59.819 47.713 67.836
H 57.425 36.228 61.174
H 53.496 48.777 64.106
H 58.446 49.198 60.524
H 59.113 47.833 60.524
H 52.069 49.287 64.002
H 58.586 50.087 58.288
H 56.882 34.938 61.762
H 49.964 35.722 64.721
H 53.256 42.408 61.829
H 53.512 43.547 60.858
H 59.063 48.919 68.367
H 53.108 43.302 68.159
H 53.187 41.835 68.543
H 49.776 45.474 69.242
H 50.905 46.018 70.1
H 49.988 41.427 57.637
H 56.934 48.387 68.535
H 56.884 49.122 67.208
H 47.689 46.832 67.69
H 48.289 45.87 66.679
H 50.975 49.674 66.427
H 51.718 40.096 67.682
H 53.008 40.357 66.925
H 55.931 43.087 62.415
H 56.488 43.755 61.171
H 55.116 40.884 67.336
H 56.603 41.194 67.307
H 48.134 41.57 61.049
H 59.476 42.863 63.341
H 58.547 44.063 63.375
H 48.837 42.867 61.409
H 56.289 49.89 64.065
H 57.615 49.245 63.701
H 53.007 38.772 57.506
H 49.381 47.571 69.774
H 48.024 47.986 70.314
H 57.904 39.89 63.002
H 57.829 38.57 63.75
H 51.286 47.681 67.301
H 49.81 47.325 67.322
H 47.81 49.017 67.46
H 47.689 49.599 68.857
H 47.961 46.521 63.275
H 58.801 34.686 60.422
H 57.568 33.961 59.913
H 48.471 46.787 64.68
H 52.674 36.274 64.996
H 56.059 40.417 64.079
H 55.355 39.6 65.148
H 53.566 37.488 64.807
H 52.167 36.15 60.072
H 51.745 34.824 59.462
H 53.052 44.429 64.259
H 54.403 43.736 64.278
H 56.399 43.353 66.93
H 54.914 43.036 66.928
H 43.721 45.897 69.092
H 52.388 48.014 60.687
H 56.294 47.394 59.418
H 55.876 46.544 58.231
H 53.427 45.42 67.655
H 52.799 45.411 69.038
H 52.36 47.518 62.122
H 45.381 47.032 66.628
H 45.466 45.672 67.298
H 53.977 47.635 65.927
H 53.607 47.877 67.38
H 50.313 41.342 60.821
H 51.515 40.433 60.631
H 65.531 44.015 59.198
H 53.334 40.707 58.536
H 53.558 42.013 57.794
H 56.523 52.441 63.347
H 57.162 51.346 62.51
H 48.892 39.571 61.599
H 46.34 46.043 69.788
H 47.227 44.818 69.649
H 60.65 43.272 59.874
H 59.161 42.981 59.94
H 55.348 42.965 55.9
H 50.596 42.69 63.313
H 52.034 42.539 63.778
H 55.355 43.163 58.332
H 54.214 44.145 58.137
H 53.243 34.351 61.746
H 52.532 40.404 63.607
H 53.985 39.986 63.468
H 55.776 45.412 67.389
H 50.292 43.386 67.684
H 55.782 46.931 67.356
H 55.649 41.417 61.01
H 56.701 40.342 61.216
H 50.375 41.911 67.331
H 51.605 42.131 59.225
H 52.2 43.52 59.076
H 49.011 42.919 64.821
H 46.994 42.886 63.163
H 47.016 44.373 63.473
H 53.751 36.996 61.341
H 54.97 36.132 61.616
H 48.354 44.231 65.212
H 49.651 48.947 64.695
H 54.031 53.32 64.598
H 56.493 44.399 64.089
H 56.405 45.521 65.109
H 50.588 37.85 66.513
H 51.949 38.335 66.045
H 54.081 45.075 62.337
H 54.578 46.156 63.28
H 50.574 45.121 62.639
H 53.284 49.907 68.165
H 49.142 44.903 62.182
H 44.634 40.495 65.353
H 45.605 41.631 65.083
H 59.793 45.196 61.959
H 55.951 38.855 57.071
H 54.834 39.862 56.864
H 60.471 46.059 60.909
H 51.121 51.263 64.226
H 52.054 34.504 62.679
H 62.384 49.022 64.221
H 61.679 48.468 65.446
H 54.485 51.203 65.556
H 53.451 50.946 64.473
H 65.057 47.354 61.089
H 65.667 46.266 60.221
H 52.26 50.244 62.014
H 51.037 50.991 61.509
H 58.387 50.551 65.762
H 59.629 49.704 65.546
H 43.465 43.434 67.33
H 51.215 47.025 64.427
H 52.664 46.595 64.274
H 55.066 47.968 61.678
H 56.566 48.104 61.483
H 55.604 37.731 64.015
H 46.283 46.484 64.7
H 45.103 45.528 64.705
H 51.321 45.691 66.208
H 51.152 44.242 65.787
H 56.349 36.408 63.986
H 57.829 39.773 57.759
H 58.067 48.155 65.558
H 56.579 47.894 65.406
H 45.822 48.133 62.982
H 45.809 43.312 67.453
H 46.354 43.813 66.126
H 54.41 45.776 59.736
H 52.937 45.562 59.433
H 58.353 39.944 59.174
H 45.193 44.41 61.824
H 51.708 38.426 63.11
H 52.263 37.02 62.963
