425
xyz format
Cl 47.816 30.708 60.247
Na 37.083 30.36 63.863
Na 47.489 37.29 62.212
O 44.405 25.896 53.398
O 46.962 28.622 48.728
O 46.513 21.896 52.613
O 51.588 31.083 47.566
O 47.72 27.35 63.94
O 44.313 31.574 52.484
O 41.417 32.357 57.638
O 42.322 26.668 57.849
O 43.992 24.817 43.626
O 44.202 27.859 45.228
O 48.262 32.311 52.325
O 41.933 22.698 53.335
O 47.946 32.282 56.353
O 53.19 36.105 58.391
O 50.558 26.197 60.281
O 45.137 32.146 55.159
O 52.727 30.364 56.437
O 47.845 28.102 61.283
O 50.454 25.739 52.124
O 51.802 36.488 56.136
O 54.066 29.649 51.982
O 56.165 27.563 59.504
O 46.422 21.704 45.745
O 49.908 34.975 58.2
O 51.709 23.13 55.892
O 52.099 25.274 58.968
O 49.805 28.0 47.394
O 53.936 29.521 54.794
O 51.408 38.624 57.022
O 50.286 29.566 63.09
O 50.526 21.845 51.272
O 49.429 23.459 53.394
O 41.243 25.537 53.974
O 45.694 27.633 55.38
O 39.501 27.725 48.116
O 47.316 35.252 55.793
O 55.002 31.796 55.372
O 53.795 28.205 57.145
O 56.513 29.937 53.846
O 36.863 27.526 57.835
O 54.953 32.002 51.887
O 50.034 26.616 50.135
O 51.808 28.999 46.82
O 37.25 27.481 60.692
O 49.815 36.065 55.292
O 39.114 25.438 59.867
O 51.061 31.956 54.321
O 49.581 27.309 55.104
O 44.88 26.431 50.601
O 50.982 37.216 62.935
O 44.863 22.647 50.426
O 38.103 30.039 55.727
O 53.977 28.683 59.902
O 44.026 34.047 50.12
O 41.565 31.817 54.306
O 55.794 25.778 50.403
O 39.361 30.466 53.336
O 51.524 32.665 64.318
O 49.349 33.687 65.75
O 54.134 23.479 57.417
O 44.636 25.056 56.7
O 44.171 35.509 60.377
O 49.573 23.219 44.03
O 41.856 27.655 60.228
O 49.47 22.739 57.725
O 52.827 32.964 57.245
O 57.952 31.834 54.264
O 48.415 31.171 65.467
O 48.257 27.486 58.081
O 51.875 28.909 52.896
O 45.496 40.102 58.895
O 51.853 26.252 55.552
O 47.945 31.018 63.198
O 56.86 30.496 57.245
O 56.956 30.53 51.335
O 39.147 33.436 51.778
O 52.252 26.546 47.882
O 50.076 27.539 66.014
O 50.431 32.206 56.932
O 41.244 23.022 47.716
O 49.676 24.437 62.499
O 54.205 25.838 61.621
O 46.049 33.798 50.949
O 48.118 33.442 58.998
O 49.193 35.31 61.363
O 55.46 34.327 55.566
O 40.933 30.223 57.005
O 51.592 21.91 48.687
O 39.505 27.216 58.129
O 48.973 30.032 54.848
O 49.115 29.342 52.206
O 42.168 23.661 50.343
O 49.364 22.466 47.364
O 59.054 26.879 52.516
O 48.289 35.566 64.494
O 44.021 30.799 56.917
O 55.908 23.656 56.092
O 56.491 24.947 58.055
O 45.389 24.214 46.521
O 44.969 37.1 62.414
O 45.397 24.125 58.744
O 47.199 28.08 66.238
O 57.726 23.294 53.087
O 55.198 29.287 61.777
O 52.397 26.998 63.252
O 39.719 29.182 61.997
O 45.207 35.375 56.94
O 55.6 28.51 49.681
O 45.865 40.33 61.551
O 52.97 23.888 49.165
O 48.643 38.698 57.426
O 50.973 27.435 57.634
O 45.719 26.103 47.764
O 38.327 32.878 54.35
O 57.708 34.175 53.621
O 49.64 29.997 58.461
O 45.519 31.339 64.045
O 47.465 26.388 51.066
O 41.801 34.548 56.395
O 46.244 37.977 55.297
O 55.297 24.187 60.209
O 41.886 32.097 51.535
O 40.623 27.388 64.392
O 53.953 30.128 64.256
O 48.361 21.726 49.178
O 41.656 30.611 61.007
O 55.251 26.093 64.669
O 57.039 30.149 60.749
O 55.195 26.889 52.277
O 52.751 26.909 50.263
O 46.534 29.376 53.219
O 46.211 24.74 52.907
O 47.545 24.985 61.083
O 44.481 39.194 63.317
O 48.268 24.82 57.904
O 40.981 29.046 45.828
O 43.622 35.211 53.103
O 52.912 30.404 61.352
O 47.348 39.235 63.286
O 49.787 33.289 62.008
O 47.02 23.857 43.015
O 42.198 26.308 42.487
O 42.5 24.114 45.083
O 52.092 33.938 60.397
O 50.354 29.0 50.421
O 55.535 32.102 58.886
O 42.278 26.575 47.445
O 49.208 24.979 48.276
O 42.909 28.724 55.5
O 47.192 36.49 59.657
O 55.253 32.071 61.658
O 50.201 38.684 61.455
O 48.103 25.227 44.433
O 44.814 22.78 53.756
O 46.704 23.572 48.165
H 52.229 26.425 54.68
H 52.438 26.731 56.153
H 45.946 24.879 58.498
H 55.686 22.736 55.902
H 56.133 24.021 55.227
H 44.512 24.502 58.827
H 49.946 24.844 47.668
H 48.46 25.156 47.693
H 45.088 24.902 45.916
H 44.671 24.144 47.164
H 51.47 34.373 60.993
H 57.055 25.177 57.307
H 55.597 25.1 57.724
H 52.714 33.502 60.993
H 44.03 30.982 57.865
H 43.11 30.532 56.744
H 50.785 28.831 49.574
H 55.845 32.865 58.383
H 54.633 31.97 58.569
H 50.552 29.928 50.597
H 42.93 26.565 41.912
H 48.55 29.733 51.527
H 49.02 28.392 52.065
H 47.833 31.934 63.482
H 48.406 31.094 62.353
H 41.653 24.371 50.746
H 42.829 24.128 49.817
H 49.904 32.808 62.836
H 48.849 33.178 61.809
H 51.9 29.349 53.754
H 51.964 27.973 53.115
H 49.718 29.823 54.27
H 48.284 30.321 54.237
H 40.628 23.668 48.083
H 41.62 22.595 48.497
H 49.932 25.198 63.035
H 48.813 24.187 62.852
H 41.415 28.293 46.248
H 47.342 27.605 58.366
H 39.199 27.719 57.364
H 39.415 26.297 57.849
H 48.611 26.842 58.708
H 47.844 32.516 58.998
H 48.968 33.429 59.455
H 47.385 24.298 60.423
H 48.208 25.551 60.669
H 52.904 30.585 60.403
H 52.039 30.027 61.52
H 50.305 32.227 57.889
H 50.508 31.265 56.732
H 55.28 27.767 51.883
H 55.034 27.071 53.211
H 54.07 26.722 61.257
H 54.855 25.974 62.321
H 41.732 31.202 61.766
H 45.995 33.882 51.909
H 46.62 33.032 50.817
H 42.247 29.88 61.225
H 48.708 23.078 47.008
H 49.919 22.256 46.603
H 50.827 27.477 65.411
H 51.429 26.447 47.387
H 49.622 33.708 64.825
H 52.933 26.28 47.251
H 49.316 27.633 65.426
H 45.513 38.357 55.799
H 47.027 38.244 55.795
H 47.868 21.221 49.837
H 48.961 22.267 49.706
H 50.592 27.822 58.433
H 50.419 26.663 57.467
H 50.968 31.906 64.534
H 41.579 31.266 51.153
H 41.539 32.768 50.933
H 54.758 24.838 59.741
H 54.981 23.341 59.867
H 52.986 26.258 63.446
H 52.154 26.86 62.328
H 41.213 27.508 63.638
H 40.089 30.554 52.708
H 38.573 30.483 52.779
H 53.264 30.211 63.584
H 57.575 30.651 56.614
H 56.61 29.577 57.087
H 57.637 29.862 51.186
H 56.763 30.863 50.45
H 48.721 29.702 58.431
H 49.782 30.212 59.391
H 38.648 32.328 55.075
H 50.397 23.651 44.288
H 49.044 23.235 44.837
H 45.05 35.113 60.411
H 44.181 36.018 59.556
H 48.426 38.737 58.366
H 41.204 28.15 59.717
H 41.472 27.616 61.113
H 39.562 28.341 62.445
H 39.632 28.961 61.061
H 52.626 33.425 56.421
H 52.2 33.338 57.876
H 50.28 22.231 57.854
H 49.485 22.959 56.785
H 45.662 36.1 57.386
H 45.165 35.663 56.019
H 47.89 31.934 65.741
H 48.703 30.78 66.301
H 45.265 24.938 55.978
H 43.776 24.94 56.277
H 52.682 24.639 49.699
H 53.595 24.276 48.54
H 58.456 31.958 55.077
H 57.036 31.958 54.54
H 57.899 23.574 53.994
H 53.419 23.354 58.054
H 53.8 24.17 56.831
H 56.346 26.086 49.673
H 55.001 25.444 49.966
H 44.675 26.15 49.7
H 45.33 27.276 50.48
H 48.958 26.974 54.447
H 50.311 27.654 54.574
H 38.588 29.448 55.137
H 38.217 29.638 56.598
H 44.388 22.332 51.206
H 45.598 23.154 50.794
H 47.61 32.601 52.975
H 48.538 33.131 51.896
H 50.767 28.777 62.81
H 49.409 29.231 63.317
H 47.324 27.213 66.643
H 46.755 28.592 66.925
H 54.409 28.934 62.207
H 55.636 28.504 61.421
H 43.853 33.221 49.653
H 43.437 34.007 50.884
H 55.721 28.518 48.723
H 56.493 28.385 50.024
H 54.331 29.329 59.278
H 53.492 28.065 59.341
H 46.602 26.488 47.83
H 48.352 25.421 45.345
H 51.532 31.255 54.789
H 51.633 32.726 54.426
H 46.298 26.898 55.214
H 46.236 28.416 55.22
H 40.009 25.325 60.212
H 38.604 25.714 60.638
H 49.334 36.725 54.778
H 50.034 35.384 54.644
H 37.779 28.089 60.16
H 44.881 23.582 54.288
H 45.159 22.09 54.336
H 52.585 29.114 47.381
H 42.65 34.306 56.004
H 41.201 34.581 55.639
H 54.505 28.742 56.771
H 54.212 27.348 57.296
H 47.376 26.935 51.857
H 48.144 25.746 51.306
H 55.266 30.976 55.807
H 54.564 32.296 56.072
H 45.48 32.297 63.935
H 57.289 29.652 53.348
H 56.095 29.108 54.112
H 55.435 31.979 52.722
H 36.299 27.977 58.476
H 37.327 26.865 58.364
H 49.281 26.998 49.666
H 45.759 31.017 63.167
H 50.587 26.26 49.429
H 55.523 32.522 51.307
H 42.133 31.417 54.976
H 40.855 32.223 54.819
H 45.171 26.838 47.462
H 41.265 26.484 53.785
H 41.787 25.449 54.766
H 48.035 35.373 56.426
H 40.126 27.17 47.635
H 47.766 34.968 54.987
H 39.978 27.966 48.92
H 42.186 28.313 55.991
H 42.525 28.901 54.632
H 47.035 37.138 58.959
H 47.471 35.7 59.177
H 49.843 21.174 51.4
H 51.226 21.373 50.803
H 48.932 24.282 53.303
H 49.129 22.927 52.646
H 46.848 24.07 52.628
H 46.758 25.417 53.325
H 52.085 26.787 50.951
H 53.584 26.932 50.751
H 46.664 30.171 52.689
H 45.901 28.858 52.706
H 48.384 33.01 56.811
H 48.027 32.516 55.42
H 55.998 26.252 65.26
H 49.973 26.864 60.66
H 50.792 25.642 61.036
H 45.589 32.64 54.463
H 44.217 32.129 54.868
H 53.938 28.707 54.276
H 53.997 30.217 54.128
H 52.303 25.259 58.024
H 52.515 26.087 59.28
H 49.317 28.62 47.95
H 49.275 27.194 47.43
H 52.324 36.437 55.326
H 52.0 35.658 56.588
H 52.421 22.531 56.148
H 51.577 23.678 56.676
H 50.821 37.973 57.427
H 42.074 26.448 48.38
H 42.27 25.679 47.085
H 40.309 30.369 56.284
H 40.656 29.378 57.381
H 53.424 30.676 57.028
H 52.2 29.777 56.994
H 47.972 28.522 60.423
H 47.772 28.846 61.893
H 50.907 21.291 48.403
H 51.447 22.684 48.129
H 55.254 34.72 56.423
H 56.198 33.734 55.757
H 47.744 24.134 57.47
H 46.66 22.61 48.098
H 46.879 23.728 49.101
H 48.713 25.265 57.172
H 48.236 35.426 61.313
H 49.452 35.86 62.113
H 53.329 35.15 58.404
H 52.653 36.269 59.176
H 50.762 24.828 52.212
H 50.4 26.051 53.036
H 46.897 23.468 43.89
H 51.169 30.556 48.257
H 44.5 26.951 45.37
H 43.576 28.009 45.947
H 42.021 22.86 52.387
H 42.181 23.541 53.735
H 46.788 22.583 45.902
H 45.627 21.876 45.225
H 41.919 24.392 44.364
H 47.465 26.934 63.107
H 47.084 28.068 64.042
H 41.89 23.833 45.776
H 50.497 35.722 58.368
H 50.188 34.652 57.334
H 53.311 29.605 51.382
H 54.808 29.861 51.402
H 55.809 26.72 59.196
H 56.469 27.993 58.695
H 47.284 28.164 49.514
H 46.002 28.599 48.826
H 43.824 26.508 52.929
H 46.975 21.743 51.779
H 47.226 21.996 53.255
H 44.022 25.85 54.283
H 42.083 26.09 57.114
H 43.242 26.439 58.031
H 44.29 32.511 52.252
H 43.462 31.424 52.914
H 41.971 31.801 58.2
H 40.868 32.842 58.267
H 44.221 24.388 42.793
H 44.233 25.741 43.482
H 44.524 35.057 53.409
