113
xyz format
Cl 47.816 30.708 60.247
Na 47.489 37.29 62.212
O 52.158 39.247 55.029
O 47.946 32.282 56.353
O 53.19 36.105 58.391
O 45.137 32.146 55.159
O 52.727 30.364 56.437
O 51.802 36.488 56.136
O 49.908 34.975 58.2
O 53.036 35.388 62.771
O 53.936 29.521 54.794
O 51.408 38.624 57.022
O 47.316 35.252 55.793
O 55.002 31.796 55.372
O 53.795 28.205 57.145
O 49.815 36.065 55.292
O 51.061 31.956 54.321
O 53.977 28.683 59.902
O 49.299 37.749 52.394
O 52.827 32.964 57.245
O 48.257 27.486 58.081
O 56.86 30.496 57.245
O 50.431 32.206 56.932
O 48.118 33.442 58.998
O 49.193 35.31 61.363
O 48.973 30.032 54.848
O 45.207 35.375 56.94
O 53.958 38.329 59.97
O 48.643 38.698 57.426
O 50.973 27.435 57.634
O 49.64 29.997 58.461
O 46.244 37.977 55.297
O 49.787 33.289 62.008
O 55.178 36.925 57.186
O 54.099 35.935 53.144
O 52.092 33.938 60.397
O 47.192 36.49 59.657
H 52.438 26.731 56.153
H 51.47 34.373 60.993
H 52.714 33.502 60.993
H 54.633 31.97 58.569
H 52.309 37.266 52.707
H 48.849 33.178 61.809
H 51.9 29.349 53.754
H 49.718 29.823 54.27
H 48.284 30.321 54.237
H 45.359 39.357 58.297
H 47.844 32.516 58.998
H 48.968 33.429 59.455
H 50.305 32.227 57.889
H 50.508 31.265 56.732
H 48.591 39.001 54.185
H 45.513 38.357 55.799
H 47.027 38.244 55.795
H 50.592 27.822 58.433
H 56.61 29.577 57.087
H 48.721 29.702 58.431
H 49.782 30.212 59.391
H 45.05 35.113 60.411
H 44.181 36.018 59.556
H 48.426 38.737 58.366
H 48.289 39.524 57.074
H 53.142 38.071 60.416
H 53.652 38.812 59.192
H 52.626 33.425 56.421
H 52.2 33.338 57.876
H 47.557 40.797 59.414
H 45.662 36.1 57.386
H 45.165 35.663 56.019
H 47.61 32.601 52.975
H 54.331 29.329 59.278
H 53.492 28.065 59.341
H 50.092 40.012 55.911
H 51.532 31.255 54.789
H 51.633 32.726 54.426
H 49.334 36.725 54.778
H 50.034 35.384 54.644
H 42.65 34.306 56.004
H 54.505 28.742 56.771
H 54.212 27.348 57.296
H 55.266 30.976 55.807
H 54.564 32.296 56.072
H 49.526 38.172 60.992
H 48.035 35.373 56.426
H 47.766 34.968 54.987
H 47.035 37.138 58.959
H 47.471 35.7 59.177
H 52.112 35.179 62.96
H 48.384 33.01 56.811
H 48.027 32.516 55.42
H 42.723 36.461 57.965
H 45.589 32.64 54.463
H 53.938 28.707 54.276
H 53.997 30.217 54.128
H 52.324 36.437 55.326
H 52.0 35.658 56.588
H 54.164 38.089 54.285
H 51.997 38.881 57.743
H 50.821 37.973 57.427
H 53.424 30.676 57.028
H 52.2 29.777 56.994
H 47.972 28.522 60.423
H 55.254 34.72 56.423
H 48.236 35.426 61.313
H 53.329 35.15 58.404
H 52.653 36.269 59.176
H 51.856 38.544 54.44
H 54.405 36.738 56.639
H 54.83 37.484 57.891
H 54.366 35.146 53.633
H 50.497 35.722 58.368
H 50.188 34.652 57.334
H 56.469 27.993 58.695
