687
xyz format
Cl 41.259 60.751 72.504
Cl 39.106 49.969 60.184
Cl 31.247 50.946 48.398
Na 35.918 45.033 51.34
Na 41.179 68.089 69.505
Na 36.045 52.744 54.029
O 34.03 51.908 48.431
O 30.247 50.397 57.83
O 40.501 62.894 63.585
O 37.593 51.641 71.486
O 42.041 62.691 62.027
O 47.424 54.104 66.271
O 40.864 56.219 58.793
O 39.645 51.124 52.771
O 25.793 52.139 64.387
O 38.806 41.967 52.515
O 35.549 49.602 66.684
O 31.718 50.328 50.467
O 30.885 47.152 58.49
O 33.544 49.568 62.046
O 42.228 51.872 52.946
O 30.798 55.98 50.701
O 36.137 54.707 47.034
O 31.518 53.605 63.107
O 32.708 61.385 63.482
O 32.848 56.56 52.79
O 35.06 50.375 70.509
O 40.079 48.43 70.027
O 41.751 65.527 63.853
O 32.229 48.197 51.93
O 37.82 65.132 59.359
O 31.491 59.184 57.652
O 34.482 52.566 66.49
O 45.343 58.568 57.018
O 39.083 52.778 54.927
O 38.522 57.998 74.117
O 30.128 53.045 49.088
O 35.998 54.064 51.222
O 38.11 53.8 52.342
O 38.685 57.888 54.719
O 36.685 59.221 51.626
O 37.741 56.897 68.277
O 39.582 63.43 60.735
O 39.93 54.031 60.539
O 27.03 56.027 62.615
O 35.527 64.484 62.437
O 37.602 63.398 67.675
O 44.439 61.737 54.351
O 39.375 60.307 55.966
O 41.376 64.83 58.256
O 43.637 63.062 63.495
O 36.115 47.947 57.122
O 40.764 50.231 68.466
O 40.484 46.959 63.032
O 46.699 55.348 70.014
O 29.977 50.025 55.681
O 38.696 57.437 57.182
O 31.672 61.262 66.672
O 43.983 64.926 61.101
O 37.775 60.29 59.145
O 34.983 47.227 55.413
O 43.274 49.346 66.01
O 25.241 53.742 62.868
O 36.526 54.043 73.94
O 29.561 52.174 65.614
O 31.879 55.375 48.019
O 41.645 65.357 60.377
O 42.547 54.312 57.931
O 39.899 60.189 68.296
O 33.429 56.825 48.595
O 32.823 52.029 52.37
O 44.804 60.501 60.742
O 47.298 56.666 66.583
O 30.114 49.385 53.351
O 36.647 56.414 65.243
O 42.543 66.263 68.848
O 37.448 52.083 65.074
O 38.212 46.403 67.42
O 33.878 56.475 59.72
O 27.815 49.028 59.144
O 31.547 56.696 55.17
O 34.328 58.476 71.525
O 36.78 56.49 71.425
O 34.465 56.317 67.248
O 40.726 66.261 71.97
O 33.453 54.701 51.781
O 43.247 60.061 70.726
O 37.778 52.699 61.682
O 31.427 60.912 59.062
O 25.706 51.594 60.107
O 42.588 50.596 60.018
O 36.04 57.475 57.67
O 33.386 46.348 50.318
O 35.803 57.681 53.654
O 38.784 44.157 50.705
O 43.318 58.978 68.133
O 43.351 53.627 60.992
O 35.473 47.645 62.085
O 36.313 55.225 62.82
O 34.184 48.452 59.501
O 45.332 62.126 71.237
O 44.582 51.93 66.294
O 35.825 45.508 61.706
O 32.081 47.191 54.461
O 31.898 50.66 64.627
O 42.331 51.399 63.601
O 45.791 57.047 72.962
O 35.956 53.697 65.118
O 44.576 64.489 65.446
O 42.532 51.14 70.219
O 41.727 60.218 65.82
O 36.399 47.621 52.922
O 39.372 47.593 53.489
O 39.298 50.135 64.821
O 38.772 59.287 62.177
O 32.843 62.11 56.765
O 45.306 56.67 62.387
O 47.052 57.775 61.629
O 37.791 47.788 64.487
O 41.03 51.908 71.811
O 44.16 58.405 59.33
O 38.35 61.942 61.796
O 37.42 62.98 54.343
O 42.291 57.22 66.609
O 38.248 67.756 61.842
O 32.129 64.169 59.621
O 34.353 42.37 49.495
O 40.293 57.193 52.427
O 39.605 58.243 60.413
O 34.367 47.331 70.925
O 39.682 63.674 72.594
O 34.687 59.579 60.557
O 43.485 63.394 56.677
O 40.328 58.319 65.298
O 29.341 50.501 63.325
O 42.88 56.545 56.125
O 32.96 47.145 64.291
O 41.098 59.129 57.18
O 31.792 59.233 68.141
O 29.409 64.522 61.444
O 39.651 55.792 66.746
O 36.032 56.502 49.186
O 33.071 56.098 65.026
O 38.01 56.638 51.62
O 35.494 46.774 64.889
O 36.959 55.005 57.413
O 35.314 65.152 59.461
O 39.999 54.215 73.409
O 33.56 58.405 51.13
O 27.974 52.504 62.194
O 38.568 53.967 50.198
O 37.459 63.726 63.168
O 35.002 50.37 53.825
O 26.988 49.417 61.918
O 33.74 53.775 62.964
O 34.865 50.637 46.801
O 39.239 49.041 51.133
O 37.723 55.759 74.62
O 39.539 65.561 66.666
O 32.846 50.038 56.493
O 42.262 60.957 56.794
O 43.846 53.612 67.873
O 38.094 50.989 49.754
O 39.658 54.91 70.832
O 41.194 61.252 59.64
O 45.717 58.465 74.663
O 25.527 49.277 63.578
O 40.461 51.484 50.229
O 43.627 58.729 63.446
O 34.066 53.885 49.408
O 46.166 50.465 65.749
O 34.119 50.603 65.335
O 43.705 55.211 72.213
O 29.765 56.726 68.14
O 40.68 60.52 63.249
O 40.225 56.434 62.301
O 27.781 50.677 65.406
O 34.394 52.84 46.177
O 45.484 55.421 68.155
O 45.654 62.323 59.04
O 37.019 62.904 56.579
O 37.205 51.46 46.884
O 44.738 63.208 68.548
O 30.955 54.379 56.495
O 28.751 48.204 64.379
O 34.107 60.949 58.473
O 37.689 60.247 64.995
O 28.495 54.48 53.532
O 40.517 45.963 51.754
O 38.789 62.81 65.645
O 35.656 53.484 58.677
O 42.684 59.327 73.528
O 41.46 54.421 67.434
O 35.661 60.035 66.811
O 36.171 58.634 61.883
O 38.217 62.174 71.924
O 34.377 62.425 61.472
O 37.91 49.795 57.98
O 42.855 56.962 61.352
O 36.382 62.745 59.865
O 36.446 54.914 54.061
O 36.941 52.18 56.464
O 35.709 42.973 52.475
O 33.973 58.652 63.702
O 35.882 67.647 66.446
O 39.358 65.408 61.99
O 35.522 60.678 62.854
O 30.695 53.439 53.104
O 36.54 48.667 71.704
O 44.781 57.993 70.55
O 37.406 67.172 63.96
O 33.278 54.532 71.354
O 38.105 64.816 56.457
O 34.279 58.0 56.305
O 27.778 54.359 59.092
O 41.558 54.762 51.557
O 33.695 66.003 62.934
O 45.016 57.813 65.766
O 46.555 64.265 64.237
O 43.674 60.899 63.094
O 37.94 49.073 67.089
O 37.411 49.635 61.542
O 39.733 52.288 62.804
O 31.752 47.638 66.94
O 40.902 70.103 67.319
O 43.87 51.972 72.863
O 41.594 51.597 66.938
O 41.164 55.004 53.881
O 35.976 50.126 56.944
O 43.662 53.147 64.699
O 40.52 56.216 56.62
O 30.114 62.254 55.04
O 40.748 49.866 63.123
O 45.143 55.064 64.304
O 37.19 54.806 67.572
O 31.733 59.795 54.694
O 36.632 47.66 50.624
O 37.526 45.597 52.84
O 34.723 62.614 67.073
O 41.134 62.894 68.441
O 40.443 52.733 48.418
O 31.202 67.111 60.721
O 42.631 53.482 71.005
O 32.728 63.924 62.354
O 38.043 57.227 62.013
O 30.204 48.041 61.625
O 36.908 47.584 47.915
O 38.712 52.742 57.567
O 37.263 50.647 53.136
O 44.827 51.62 69.107
O 41.481 52.655 56.237
O 30.183 62.742 64.217
O 30.92 51.039 60.645
O 45.915 63.195 61.624
O 41.748 55.727 63.732
O 37.411 64.431 70.788
O 39.961 61.539 70.61
O 38.747 46.415 48.462
O 36.398 50.531 63.789
O 34.262 46.965 52.847
O 35.371 50.464 60.959
O 39.716 67.168 59.899
O 42.305 63.03 71.102
O 38.013 59.058 66.887
O 33.05 46.901 62.086
O 37.492 54.612 60.328
O 44.961 53.241 62.831
O 36.74 60.665 55.989
O 35.062 50.156 51.212
O 37.765 49.304 54.806
O 33.943 44.592 49.112
O 40.618 48.928 58.161
O 27.613 57.48 65.702
O 32.35 53.405 61.08
O 39.021 60.055 74.726
O 40.244 46.565 66.366
O 43.461 55.677 69.217
H 44.285 59.029 64.086
H 43.225 60.715 62.26
H 44.557 61.179 62.823
H 44.875 57.855 66.72
H 45.843 58.294 65.635
H 38.742 65.061 57.14
H 43.01 58.21 63.978
H 38.816 65.598 66.027
H 32.976 55.365 71.736
H 33.482 54.76 70.439
H 39.67 66.484 66.917
H 33.146 66.758 63.179
H 36.12 52.629 56.226
H 37.133 51.629 55.694
H 34.915 58.446 63.734
H 33.853 59.043 62.828
H 36.744 67.381 66.102
H 38.003 54.412 59.534
H 28.815 52.779 62.58
H 27.657 51.821 62.798
H 36.734 55.108 59.993
H 30.335 52.209 46.263
H 37.253 55.153 54.533
H 35.792 54.81 54.764
H 37.165 63.032 59.378
H 35.791 62.417 59.176
H 43.34 56.484 60.668
H 42.975 57.89 61.111
H 33.703 66.029 61.969
H 41.371 53.965 51.047
H 40.08 48.255 58.596
H 34.222 58.802 56.839
H 33.928 57.313 56.884
H 27.525 54.065 59.976
H 33.249 46.317 61.343
H 32.44 47.549 61.71
H 34.721 49.736 50.412
H 37.307 62.338 72.202
H 38.358 61.244 72.142
H 33.975 61.552 61.382
H 34.188 62.854 60.628
H 38.817 58.546 67.044
H 37.822 59.454 67.747
H 28.478 50.031 65.579
H 26.984 50.251 65.744
H 38.266 49.035 57.503
H 38.099 50.541 57.398
H 33.686 53.459 63.875
H 41.471 63.138 70.628
H 42.893 63.671 70.682
H 34.253 53.092 62.515
H 35.825 57.749 61.713
H 36.752 58.801 61.131
H 35.113 59.276 66.571
H 41.927 59.282 74.126
H 43.423 59.548 74.108
H 35.69 60.0 67.775
H 41.487 54.352 66.472
H 41.95 55.232 67.619
H 39.072 67.617 59.338
H 40.221 66.626 59.28
H 33.829 54.491 48.694
H 34.362 47.513 52.059
H 33.219 53.519 49.69
H 34.97 51.213 61.417
H 35.802 50.867 60.195
H 31.496 53.928 55.834
H 36.339 63.389 57.065
H 37.611 62.584 57.271
H 44.242 62.979 67.753
H 29.372 47.839 63.736
H 35.606 50.88 50.877
H 28.094 48.654 63.834
H 37.721 55.995 73.684
H 37.137 56.412 75.023
H 45.053 55.486 67.293
H 45.827 54.519 68.172
H 40.094 60.579 64.014
H 41.552 60.379 63.638
H 36.85 63.194 63.695
H 39.694 61.844 69.734
H 40.245 60.629 70.459
H 40.823 57.189 62.371
H 40.362 56.116 61.4
H 30.03 56.033 68.758
H 30.538 56.837 67.573
H 37.963 64.218 63.828
H 33.985 51.341 64.728
H 34.302 49.856 64.752
H 43.3 56.069 72.036
H 37.99 64.956 70.221
H 36.892 63.909 70.165
H 27.446 50.088 61.396
H 34.623 51.159 53.418
H 35.356 50.691 54.664
H 44.055 55.302 73.108
H 26.605 48.831 61.253
H 42.013 55.195 62.971
H 41.492 55.071 64.392
H 33.113 53.67 60.55
H 29.982 47.486 60.866
H 29.465 48.659 61.681
H 34.518 48.284 70.928
H 35.214 46.965 70.641
H 31.635 53.961 60.745
H 40.071 58.592 59.643
H 38.684 58.209 60.128
H 43.31 53.857 64.148
H 37.701 68.07 61.112
H 39.072 68.248 61.74
H 32.973 49.305 57.108
H 29.98 63.546 63.722
H 43.74 58.773 58.543
H 32.698 50.798 57.069
H 30.659 62.195 63.579
H 41.845 56.68 65.945
H 42.428 58.065 66.163
H 41.165 51.824 55.86
H 31.706 63.5 60.173
H 32.828 64.524 60.185
H 37.394 62.019 61.679
H 38.447 61.684 62.721
H 42.193 61.076 55.838
H 43.158 60.619 56.919
H 38.366 50.997 50.681
H 37.723 51.87 49.617
H 40.37 55.562 70.798
H 39.435 54.767 69.904
H 31.932 66.489 60.605
H 43.574 53.887 66.988
H 43.073 53.145 68.215
H 40.917 61.518 58.754
H 41.545 60.362 59.513
H 42.89 52.83 65.185
H 39.259 53.371 50.512
H 40.525 53.866 72.678
H 30.619 52.512 53.364
H 39.563 54.988 73.028
H 38.426 65.586 62.168
H 39.807 66.203 62.302
H 36.376 60.877 63.258
H 34.899 61.215 63.359
H 39.486 58.643 64.953
H 40.875 58.217 64.51
H 34.292 61.837 67.452
H 35.631 62.322 66.924
H 35.32 66.01 59.018
H 31.921 59.004 54.174
H 37.01 48.214 70.993
H 36.802 49.59 71.601
H 44.471 58.295 71.413
H 45.739 58.102 70.6
H 36.375 55.472 56.802
H 37.454 55.713 57.843
H 34.861 64.574 58.835
H 37.308 66.269 64.288
H 36.59 67.327 63.469
H 33.299 46.694 65.074
H 29.825 63.652 61.476
H 41.254 49.545 62.366
H 41.226 49.514 63.884
H 40.041 56.314 67.458
H 39.349 54.989 67.188
H 32.279 47.732 64.642
H 35.39 46.009 65.469
H 36.071 46.451 64.185
H 33.726 56.785 64.851
H 32.723 56.329 65.897
H 38.878 54.239 49.325
H 40.479 59.616 57.739
H 41.561 58.553 57.801
H 31.197 59.608 68.801
H 31.227 59.103 67.369
H 45.029 55.997 64.522
H 45.41 54.664 65.141
H 38.1 49.088 61.937
H 41.188 51.759 66.077
H 39.637 63.829 71.642
H 34.231 59.196 59.797
H 35.314 60.197 60.16
H 40.522 63.215 72.713
H 41.149 52.222 67.523
H 31.267 47.385 67.736
H 32.66 47.749 67.251
H 37.568 50.51 61.918
H 38.707 48.538 67.324
H 36.083 55.808 49.856
H 37.394 49.054 67.884
H 29.72 50.691 62.458
H 30.008 49.948 63.75
H 42.498 57.431 56.156
H 43.628 56.596 56.734
H 45.613 51.075 69.241
H 45.137 52.517 69.281
H 39.379 58.815 62.761
H 38.038 59.528 62.755
H 33.281 61.758 55.981
H 32.153 62.682 56.405
H 45.253 62.649 61.181
H 46.162 62.674 62.398
H 37.662 50.033 52.507
H 36.804 51.284 52.575
H 38.415 50.12 65.21
H 37.711 56.548 61.413
H 37.732 56.938 62.88
H 39.885 50.056 65.583
H 31.763 51.255 61.062
H 30.962 50.082 60.525
H 38.415 48.306 63.963
H 37.039 48.383 64.6
H 38.828 53.699 57.606
H 38.133 52.55 58.315
H 32.929 47.593 54.684
H 41.348 61.094 65.967
H 42.594 60.27 66.241
H 36.098 48.538 52.913
H 37.237 47.66 53.401
H 42.124 51.624 69.49
H 44.903 57.508 62.127
H 45.323 56.16 61.568
H 42.129 52.192 63.088
H 42.9 50.885 63.013
H 31.666 51.382 65.224
H 31.997 49.9 65.214
H 43.314 59.93 68.291
H 43.323 58.597 69.02
H 43.69 54.437 61.394
H 43.011 53.921 60.138
H 41.656 52.63 52.774
H 31.072 49.863 51.014
H 32.567 50.082 50.855
H 30.417 47.947 58.773
H 42.711 60.809 70.435
H 42.594 59.399 70.986
H 35.831 50.638 57.749
H 25.971 52.427 59.696
H 35.085 49.892 56.657
H 36.84 52.571 61.492
H 38.211 52.492 60.845
H 36.382 58.188 58.224
H 35.6 56.889 58.297
H 32.63 54.894 51.315
H 34.117 55.202 51.29
H 40.33 55.489 53.83
H 36.935 54.568 62.484
H 35.712 55.372 62.079
H 40.058 55.421 56.914
H 40.095 56.43 55.779
H 41.209 54.723 54.803
H 39.499 51.489 62.316
H 34.306 49.18 58.879
H 34.027 47.688 58.932
H 39.952 51.961 63.686
H 44.472 62.122 70.798
H 35.786 58.569 54.032
H 35.948 57.109 54.418
H 31.148 61.79 58.776
H 31.902 61.078 59.885
H 34.856 47.953 62.761
H 36.339 47.873 62.444
H 35.391 56.511 67.055
H 34.458 56.156 68.2
H 28.333 58.122 65.73
H 31.911 56.412 56.018
H 30.613 56.848 55.361
H 27.543 57.174 66.615
H 28.384 49.752 59.434
H 35.921 54.499 74.538
H 37.133 53.584 74.534
H 33.149 55.999 60.135
H 34.18 57.08 60.409
H 34.284 57.518 71.636
H 40.153 47.475 66.059
H 41.807 65.649 68.967
H 44.123 55.641 69.92
H 47.304 54.178 62.981
H 37.82 52.338 64.22
H 38.17 52.241 65.694
H 35.183 58.618 71.1
H 42.625 55.755 69.693
H 36.98 57.28 64.976
H 35.864 56.289 64.692
H 36.466 55.708 71.897
H 36.766 57.184 72.096
H 30.347 50.32 53.297
H 43.529 53.636 70.686
H 42.078 53.693 70.242
H 31.988 64.03 62.965
H 33.491 63.811 62.936
H 41.689 64.541 60.89
H 43.91 64.84 66.05
H 45.253 52.047 66.979
H 43.806 51.628 66.783
H 35.864 53.546 64.169
H 35.22 54.285 65.329
H 41.707 54.201 58.393
H 42.289 54.643 57.062
H 41.609 66.049 61.049
H 40.859 60.162 68.399
H 39.775 60.497 67.389
H 39.834 60.312 74.273
H 38.325 60.474 74.204
H 24.615 53.493 62.177
H 26.083 53.811 62.401
H 29.596 52.629 64.764
H 29.13 52.812 66.198
H 45.068 60.35 59.826
H 32.788 52.766 52.993
H 32.386 51.309 52.842
H 45.119 59.714 61.205
H 43.36 49.982 65.29
H 42.46 48.87 65.8
H 33.201 50.367 62.467
H 38.937 58.316 56.863
H 39.014 57.43 58.093
H 39.561 53.435 55.449
H 39.158 51.971 55.452
H 36.444 53.262 50.922
H 35.897 53.928 52.173
H 38.956 58.362 53.923
H 38.244 57.1 54.377
H 39.482 57.96 74.022
H 38.231 58.461 73.321
H 32.505 60.778 66.724
H 31.536 61.384 65.725
H 41.918 65.467 57.774
H 40.81 64.448 57.574
H 38.888 61.13 56.094
H 39.854 60.451 55.14
H 46.543 54.758 70.762
H 46.909 56.194 70.429
H 40.451 47.46 63.857
H 41.372 49.514 68.247
H 40.098 50.188 67.769
H 37.657 60.541 60.07
H 38.196 61.064 58.75
H 35.203 48.062 54.98
H 35.235 46.559 54.763
H 43.779 65.785 60.71
H 43.833 64.304 60.378
H 35.99 53.102 59.499
H 35.028 54.154 58.974
H 45.851 49.843 65.082
H 39.647 64.193 60.148
H 39.591 62.676 60.132
H 38.614 62.358 64.81
H 38.738 62.105 66.303
H 37.063 60.892 65.348
H 33.723 61.786 58.762
H 34.669 61.199 57.728
H 37.144 59.468 64.825
H 35.698 65.117 63.146
H 35.637 65.007 61.633
H 38.33 52.865 52.441
H 27.827 55.499 62.483
H 35.9 51.346 63.646
H 35.932 49.88 63.25
H 38.881 54.256 52.7
H 39.677 54.028 61.471
H 40.867 53.801 60.555
H 38.372 57.355 68.846
H 36.971 57.479 68.273
H 33.314 49.683 61.116
H 36.923 64.019 67.967
H 37.183 54.771 66.607
H 32.666 55.886 53.458
H 33.076 57.341 53.309
H 36.274 54.626 67.815
H 34.602 50.689 69.719
H 35.123 51.16 71.066
H 31.001 54.156 63.707
H 31.386 52.71 63.445
H 32.692 60.565 63.992
H 32.906 62.061 64.142
H 29.616 51.118 57.944
H 30.986 50.647 58.398
H 35.204 49.673 67.583
H 35.3 48.71 66.413
H 26.502 52.793 64.405
H 25.64 51.94 65.319
H 41.959 62.883 67.94
H 40.457 62.746 67.769
H 30.901 58.516 57.281
H 31.708 59.743 56.896
H 32.564 48.625 52.728
H 37.423 65.225 60.234
H 37.65 65.984 58.938
H 42.019 66.403 63.548
H 41.655 65.02 63.037
H 37.738 62.83 68.443
H 36.591 59.928 56.595
H 33.653 52.631 66.98
H 35.149 52.467 67.181
H 41.295 62.258 61.594
H 42.739 62.665 61.361
H 38.512 49.69 55.279
H 37.184 48.992 55.511
H 43.897 62.704 64.353
H 44.218 63.824 63.379
H 36.41 47.032 57.03
H 38.137 51.622 70.689
H 41.269 62.762 64.155
H 40.104 63.708 63.919
H 35.864 61.058 55.887
H 34.706 51.801 49.111
H 37.78 52.506 71.871
H 40.083 55.86 59.234
H 41.464 56.423 59.521
H 40.449 50.625 52.579
H 39.393 50.821 53.652
