286
xyz format
O 61.925 48.975 33.936
O 55.605 54.552 33.093
O 57.564 54.032 32.004
O 56.077 50.987 30.501
O 59.394 49.104 23.261
O 54.182 49.336 31.495
O 55.09 53.194 37.529
O 54.774 50.098 37.186
O 60.857 42.33 27.258
O 49.594 50.321 28.425
O 61.001 51.267 23.796
O 56.201 49.297 25.156
O 48.66 49.362 33.595
O 56.128 49.545 27.927
O 56.718 50.371 36.194
O 60.603 53.293 37.665
O 50.528 47.952 30.327
O 52.563 51.837 35.898
O 55.942 47.335 32.968
O 57.432 47.613 30.077
O 62.119 48.05 24.336
O 50.579 51.258 36.654
O 60.892 54.228 28.697
O 66.045 49.349 32.194
O 53.649 54.883 36.971
O 62.061 43.908 37.631
O 57.768 51.798 33.928
O 65.24 50.362 26.166
O 58.688 50.203 26.442
O 58.569 52.523 28.233
O 54.64 43.574 28.561
O 60.787 51.273 31.003
O 63.979 46.591 31.346
O 60.727 45.296 32.895
O 54.553 45.898 25.157
O 63.267 47.106 33.72
O 58.175 43.39 27.245
O 49.969 54.723 33.618
O 54.32 47.556 22.265
O 62.539 54.401 30.282
O 65.031 52.972 27.961
O 56.982 56.852 31.554
O 57.692 43.331 24.311
O 62.176 42.232 29.016
O 53.237 47.776 37.279
O 65.331 49.893 29.792
O 50.827 43.883 30.833
O 53.405 46.384 31.076
O 62.057 48.702 30.499
O 59.8 52.798 25.368
O 58.31 55.312 26.587
O 59.065 53.587 33.812
O 58.902 49.145 28.359
O 53.542 54.461 26.093
O 59.951 56.297 35.449
O 53.706 55.812 28.714
O 65.088 45.87 34.132
O 51.207 52.913 38.078
O 51.116 50.463 33.315
O 49.416 51.428 30.997
O 52.399 54.986 31.057
O 65.514 48.418 35.6
O 49.677 47.318 35.392
O 61.668 51.737 35.816
O 60.942 45.956 29.562
O 51.132 54.952 35.903
O 58.318 47.048 25.715
O 59.849 56.469 30.648
O 57.365 45.403 34.892
O 58.436 47.377 32.045
O 62.378 50.704 28.496
O 60.701 48.478 37.688
O 60.189 41.505 24.371
O 57.225 52.662 37.699
O 51.229 50.341 30.39
O 60.816 46.482 35.409
O 55.261 57.088 32.938
O 55.716 50.3 33.078
O 60.364 48.822 31.943
O 53.759 44.779 36.904
O 50.591 53.675 28.484
O 59.194 50.643 35.513
O 63.094 53.899 32.832
O 54.064 53.309 35.06
O 56.146 47.272 36.315
O 62.93 50.149 25.631
O 61.243 44.699 26.709
O 58.176 49.376 31.163
O 50.148 46.313 31.866
O 53.613 47.024 33.713
O 55.535 41.724 27.054
O 60.991 45.408 23.713
O 64.485 51.869 33.805
O 52.253 49.144 35.857
O 52.876 52.59 28.746
O 48.858 46.918 28.19
O 62.582 54.613 34.904
O 58.439 45.375 30.012
O 52.559 49.22 28.088
O 60.785 47.793 26.633
O 52.591 52.933 32.31
O 58.618 46.359 37.294
O 56.58 44.706 27.996
O 62.801 52.843 25.943
O 63.671 43.581 35.382
O 51.804 48.349 33.324
H 63.285 50.493 24.802
H 62.172 50.719 25.811
H 56.951 45.537 28.32
H 55.869 44.987 27.407
H 56.92 47.648 36.752
H 55.849 46.585 36.924
H 62.385 53.25 32.746
H 53.645 53.367 34.192
H 58.678 45.644 36.648
H 59.218 47.031 36.947
H 54.824 52.733 34.909
H 51.777 51.145 33.489
H 60.497 48.025 32.471
H 60.185 49.506 32.601
H 50.373 50.713 33.879
H 52.456 48.412 28.606
H 52.64 49.912 28.756
H 54.286 44.81 36.096
H 51.686 52.916 31.975
H 56.502 49.988 33.544
H 55.17 50.68 33.778
H 53.099 52.483 31.624
H 60.203 47.252 27.181
H 61.341 48.254 27.274
H 51.33 49.833 31.204
H 51.625 51.195 30.602
H 57.569 52.964 36.849
H 57.492 51.735 37.739
H 59.99 46.227 34.981
H 61.455 45.839 35.076
H 54.516 57.202 33.54
H 56.016 56.967 33.527
H 60.51 46.007 30.424
H 61.04 46.88 29.299
H 61.25 51.289 35.07
H 61.375 51.229 36.583
H 58.65 46.475 32.313
H 58.093 47.781 32.852
H 62.752 50.101 27.841
H 62.175 51.498 27.987
H 65.84 48.064 36.436
H 57.811 46.017 34.294
H 56.917 44.788 34.298
H 50.528 47.547 34.998
H 51.717 43.896 31.206
H 60.093 53.59 25.836
H 59.57 52.185 26.077
H 62.289 48.784 29.566
H 62.798 49.116 30.957
H 52.555 45.927 31.089
H 53.538 46.594 30.143
H 57.96 54.601 27.139
H 57.002 43.728 24.857
H 56.875 58.73 28.91
H 65.238 48.935 29.721
H 64.686 50.138 30.467
H 53.916 47.26 37.731
H 57.893 57.169 31.516
H 56.934 56.208 30.837
H 57.5 42.386 24.35
H 58.379 46.281 25.132
H 59.381 55.956 29.977
H 57.976 47.746 25.142
H 61.424 45.494 24.571
H 60.056 45.313 23.936
H 51.963 54.573 35.591
H 63.578 52.58 25.436
H 56.059 41.682 26.245
H 59.811 49.149 28.682
H 58.443 49.745 28.959
H 54.623 41.719 26.737
H 58.859 51.368 36.055
H 58.991 49.856 36.034
H 50.743 52.927 38.925
H 50.491 53.277 29.358
H 51.204 53.837 37.8
H 50.785 54.601 28.675
H 53.029 53.793 26.565
H 59.941 55.413 35.061
H 54.106 55.098 29.226
H 53.219 54.905 31.561
H 52.452 54.267 30.415
H 64.578 45.354 33.495
H 65.616 46.459 33.579
H 58.844 53.532 34.75
H 59.828 53.002 33.722
H 53.664 46.791 34.649
H 53.004 46.37 33.347
H 49.718 52.325 31.185
H 49.549 50.962 31.832
H 60.349 44.877 26.389
H 61.114 44.489 27.643
H 54.822 47.455 23.083
H 64.205 52.552 28.229
H 50.535 54.855 32.847
H 63.4 54.642 30.645
H 62.053 55.235 30.271
H 51.576 49.466 35.249
H 52.97 48.864 35.275
H 63.616 51.584 33.496
H 63.753 47.876 33.399
H 63.142 47.289 34.659
H 60.199 42.626 26.617
H 61.512 41.87 26.717
H 49.386 46.896 31.974
H 58.461 50.26 31.426
H 57.243 49.353 31.41
H 50.014 45.92 30.994
H 60.879 44.698 32.153
H 61.448 45.934 32.826
H 54.283 45.711 26.065
H 55.354 45.373 25.043
H 58.001 42.606 26.709
H 58.305 44.089 26.592
H 64.126 47.37 30.794
H 64.597 45.939 30.991
H 61.607 51.156 30.506
H 60.101 51.23 30.326
H 50.981 48.114 32.878
H 52.423 48.501 32.599
H 54.092 44.364 28.644
H 53.998 42.854 28.516
H 57.934 50.449 25.892
H 59.243 49.681 25.849
H 59.373 51.989 28.26
H 57.96 51.994 27.704
H 57.057 52.109 33.354
H 58.388 51.38 33.318
H 48.822 46.358 28.975
H 48.088 46.643 27.677
H 55.832 46.495 33.431
H 55.591 47.986 33.589
H 53.483 51.922 29.088
H 52.107 52.079 28.464
H 61.625 47.515 23.702
H 61.838 48.953 24.142
H 56.54 47.509 30.429
H 57.293 47.728 29.129
H 53.422 55.817 37.055
H 53.335 54.495 37.797
H 62.389 44.481 36.926
H 59.402 41.43 24.925
H 61.282 48.21 36.965
H 60.556 49.419 37.527
H 53.13 51.332 35.302
H 52.026 52.374 35.303
H 50.252 50.801 37.439
H 49.947 51.977 36.528
H 57.751 44.791 30.355
H 58.846 44.86 29.305
H 49.172 51.166 28.627
H 49.445 49.795 29.22
H 60.311 50.907 24.367
H 56.334 50.327 27.4
H 56.476 48.815 27.399
H 55.844 50.188 25.258
H 55.79 48.976 24.344
H 51.45 47.744 30.522
H 50.468 47.849 29.369
H 59.695 53.099 37.401
H 56.473 51.032 35.534
H 56.839 49.565 35.677
H 54.451 52.605 37.109
H 55.486 53.668 36.787
H 53.486 49.532 30.855
H 54.326 48.387 31.395
H 60.96 54.281 27.736
H 61.033 53.292 28.886
H 65.728 48.731 32.865
H 56.186 54.101 33.718
H 54.985 55.028 33.659
H 58.037 54.856 32.178
H 57.405 54.055 31.052
H 59.671 48.494 23.955
H 55.042 49.189 37.006
H 53.813 50.075 37.102
H 56.147 51.587 29.748
H 55.732 51.547 31.208
H 61.654 49.027 34.861
H 62.271 49.856 33.748
