196
xyz format
Na 35.533 36.977 44.303
O 30.334 32.689 40.859
O 32.884 35.448 43.982
O 40.733 34.076 46.972
O 34.624 42.468 47.144
O 34.909 40.162 40.192
O 24.686 40.366 47.281
O 38.584 33.255 44.327
O 27.335 33.78 43.537
O 30.409 37.825 43.689
O 36.242 36.632 49.531
O 35.998 33.114 43.272
O 32.099 40.922 43.526
O 37.205 34.002 50.022
O 36.8 31.274 41.013
O 32.193 34.817 40.454
O 25.214 40.246 50.134
O 34.114 35.713 46.515
O 29.547 31.1 45.338
O 37.155 38.97 40.989
O 26.827 38.754 48.106
O 36.542 34.821 41.955
O 32.414 33.011 39.22
O 39.199 39.015 43.964
O 33.308 41.152 41.522
O 34.491 30.77 46.735
O 32.659 27.394 46.023
O 40.673 37.651 44.885
O 33.023 29.487 44.649
O 34.368 33.378 45.237
O 35.399 33.823 37.601
O 32.374 37.163 51.355
O 31.158 37.572 45.994
O 40.3 36.05 40.7
O 27.074 40.563 39.312
O 37.52 35.164 45.707
O 25.869 36.788 45.838
O 38.552 36.003 47.437
O 27.874 33.464 47.384
O 30.351 31.204 49.225
O 38.78 36.562 42.502
O 29.853 39.773 46.989
O 30.169 36.239 49.156
O 34.204 35.282 49.475
O 33.268 38.49 45.026
O 36.101 39.456 43.033
O 32.701 38.598 42.214
O 34.01 39.061 36.96
O 35.6 37.071 36.932
O 31.072 33.585 50.361
O 38.189 41.608 43.127
O 30.186 34.974 43.173
O 28.841 40.928 42.861
O 30.19 38.593 40.584
O 35.964 42.155 43.105
O 31.743 32.566 46.89
O 33.21 36.684 39.705
O 31.657 38.845 38.964
O 33.196 27.686 43.251
O 32.41 38.728 47.709
O 28.732 36.286 46.575
O 27.513 37.816 39.604
O 29.34 39.66 37.989
O 32.384 41.162 47.373
O 34.172 30.657 49.549
O 26.41 39.619 43.42
O 34.308 33.121 47.957
O 30.572 34.36 46.412
O 34.415 30.797 42.537
O 41.464 36.253 46.761
O 28.021 35.143 40.596
O 36.144 34.572 47.31
O 34.641 36.168 42.457
O 27.986 38.049 41.74
O 28.403 39.977 49.484
H 30.127 39.408 41.097
H 30.529 37.949 41.217
H 36.003 42.399 44.038
H 28.587 33.421 46.735
H 33.859 36.734 42.482
H 35.137 36.496 41.696
H 27.315 34.184 47.064
H 28.923 40.134 43.405
H 28.492 41.589 43.472
H 35.808 37.235 37.86
H 30.324 34.029 45.54
H 30.743 35.298 46.261
H 39.492 35.856 47.604
H 38.142 35.865 48.299
H 29.092 40.275 47.309
H 30.21 39.364 47.787
H 33.569 38.245 37.226
H 33.569 38.85 41.876
H 32.138 39.348 41.985
H 36.187 39.043 43.901
H 35.35 40.053 43.136
H 29.441 34.386 43.349
H 30.111 35.65 43.858
H 33.747 38.3 44.21
H 32.669 39.206 44.78
H 33.283 35.267 49.765
H 31.132 36.311 49.144
H 29.877 37.113 49.444
H 32.356 29.825 45.26
H 33.796 29.344 45.209
H 32.236 36.213 51.457
H 32.632 37.259 50.43
H 39.239 36.318 43.315
H 37.887 36.777 42.798
H 32.229 38.867 39.741
H 36.076 34.215 37.036
H 33.541 33.329 45.733
H 34.088 33.638 44.35
H 31.8 37.964 38.598
H 29.959 30.325 49.304
H 30.72 31.37 50.101
H 33.705 37.318 40.238
H 33.834 36.426 39.016
H 26.89 40.045 40.105
H 27.108 41.472 39.634
H 37.725 40.989 42.55
H 31.252 34.53 50.451
H 31.72 33.29 49.709
H 31.995 37.15 46.223
H 30.613 37.442 46.781
H 26.811 36.844 45.636
H 25.802 36.01 46.406
H 38.17 35.354 45.019
H 36.675 35.372 45.288
H 33.778 27.319 42.574
H 33.798 41.816 42.023
H 32.358 27.853 46.817
H 26.708 39.658 47.79
H 26.406 38.216 47.424
H 37.277 35.126 41.409
H 36.02 34.276 41.353
H 32.967 33.562 38.652
H 32.293 32.203 38.707
H 35.069 30.964 45.986
H 28.91 35.815 47.398
H 28.59 35.579 45.933
H 33.64 31.142 46.47
H 33.37 38.796 47.629
H 32.285 38.076 48.409
H 32.076 33.199 47.538
H 31.553 31.779 47.416
H 37.426 39.846 40.688
H 37.912 38.41 40.776
H 28.659 39.068 49.281
H 28.978 40.217 50.222
H 29.26 31.97 45.036
H 29.399 30.531 44.572
H 33.22 35.352 46.548
H 34.378 35.59 45.595
H 24.605 39.752 49.572
H 25.682 40.821 49.516
H 31.803 34.434 41.25
H 33.138 34.657 40.562
H 39.211 38.641 43.074
H 38.346 39.465 44.013
H 28.04 39.011 41.67
H 27.622 37.904 42.622
H 33.48 30.982 48.959
H 35.021 39.206 40.262
H 35.339 40.502 40.986
H 27.026 37.047 39.284
H 28.438 37.558 39.509
H 28.498 39.89 37.578
H 29.122 39.57 38.925
H 24.172 39.815 46.677
H 25.184 40.947 46.693
H 35.739 35.222 47.898
H 36.543 33.934 47.913
H 36.423 32.251 43.351
H 36.461 33.658 43.921
H 32.488 41.693 43.956
H 31.222 40.855 43.924
H 26.842 39.803 44.263
H 26.723 40.325 42.842
H 38.317 33.166 45.25
H 39.546 33.326 44.373
H 27.121 33.783 44.479
H 27.787 32.937 43.407
H 29.455 37.845 43.838
H 30.648 38.756 43.607
H 35.487 37.056 49.103
H 36.938 37.299 49.483
H 34.957 32.422 48.103
H 33.87 33.209 48.813
H 32.172 35.584 44.62
H 32.473 34.916 43.29
H 28.564 34.961 41.374
H 28.664 35.393 39.921
H 29.893 33.153 41.581
H 30.855 32.011 41.307
H 34.381 41.704 46.606
