72
xyz format
O 48.932 74.673 45.769
O 48.972 71.83 41.053
O 47.46 69.791 41.186
O 52.739 68.798 43.274
O 54.162 71.746 44.896
O 49.133 66.643 45.444
O 44.504 70.149 44.291
O 49.414 73.68 39.114
O 48.912 72.1 44.547
O 48.235 71.452 38.647
O 52.153 70.067 46.052
O 48.328 69.737 43.505
O 53.33 68.67 47.642
O 46.679 73.192 38.953
O 51.483 70.953 41.956
O 47.284 70.715 45.176
O 49.549 69.373 47.7
O 45.492 72.766 46.761
O 46.269 67.635 39.724
O 49.873 69.62 45.066
O 50.93 71.658 47.087
O 44.975 72.911 43.91
H 50.166 67.142 40.749
H 46.283 73.282 46.563
H 44.852 73.066 46.104
H 46.954 70.625 36.644
H 51.523 73.16 42.049
H 50.733 74.158 41.222
H 49.112 69.992 48.298
H 50.217 68.951 48.254
H 50.919 71.133 42.719
H 46.791 71.289 45.776
H 50.982 70.301 41.45
H 47.518 69.956 45.725
H 45.428 73.171 43.099
H 44.248 73.543 43.979
H 50.925 70.229 38.575
H 47.589 69.124 43.409
H 47.045 73.464 38.102
H 46.143 72.419 38.736
H 48.935 69.476 42.801
H 48.519 72.564 45.297
H 49.333 72.804 44.037
H 48.795 70.729 38.338
H 47.752 71.067 39.389
H 49.691 70.311 45.715
H 47.114 67.989 39.419
H 49.742 68.801 45.561
H 53.364 69.616 47.832
H 52.069 69.691 45.167
H 51.555 69.53 46.587
H 51.601 71.407 47.734
H 50.142 71.815 47.623
H 45.575 69.5 38.064
H 44.455 69.756 43.411
H 45.255 70.753 44.23
H 48.293 66.398 45.037
H 49.639 65.821 45.439
H 54.073 70.944 45.426
H 53.141 69.651 43.067
H 51.954 68.773 42.712
H 46.714 66.132 41.267
H 48.122 66.68 41.421
H 44.864 70.622 46.602
H 43.353 70.702 46.479
H 48.688 68.529 37.943
H 46.852 69.057 41.337
H 48.205 69.381 40.728
H 49.303 74.846 46.644
H 49.707 74.641 45.194
H 49.881 72.145 40.971
H 48.891 71.604 41.988
