77
xyz format
O 41.908 39.813 54.857
O 47.417 45.262 53.914
O 39.204 41.383 60.672
O 45.201 45.167 57.601
O 40.166 45.084 54.475
O 43.783 41.766 57.34
O 41.643 43.515 61.298
O 45.389 47.891 56.965
O 39.839 44.713 60.639
O 47.968 41.509 59.92
O 45.496 40.102 58.895
O 40.517 45.963 51.754
O 45.96 40.537 54.742
O 42.267 41.582 63.243
O 47.311 44.784 59.723
O 44.277 43.052 60.919
O 38.171 43.125 54.991
O 45.53 42.914 54.845
O 47.722 42.596 57.509
O 44.177 41.072 53.102
O 42.752 44.261 52.878
O 43.377 43.717 58.569
O 42.06 44.904 57.285
H 44.024 42.132 60.772
H 45.103 43.143 60.428
H 37.544 45.37 56.153
H 43.362 45.812 62.898
H 47.891 44.3 59.121
H 46.43 44.647 59.353
H 41.532 41.635 62.619
H 43.049 41.635 62.68
H 41.235 39.526 62.069
H 45.359 39.357 58.297
H 45.637 40.85 58.301
H 36.952 44.888 59.608
H 39.358 43.904 60.851
H 40.098 44.59 59.717
H 37.597 43.09 61.892
H 48.594 46.979 52.149
H 38.829 43.35 54.322
H 47.557 40.797 59.414
H 41.386 42.999 60.524
H 42.007 44.326 60.922
H 44.908 43.624 55.046
H 39.282 47.136 54.334
H 46.152 42.939 55.583
H 44.494 42.189 56.842
H 43.04 41.768 56.725
H 44.547 48.033 57.414
H 45.135 47.733 56.047
H 46.838 44.605 54.319
H 48.098 45.411 54.582
H 41.341 44.26 57.259
H 42.349 44.961 56.366
H 45.412 44.405 57.047
H 44.759 45.775 56.996
H 39.648 46.477 63.022
H 46.569 45.711 62.036
H 45.238 44.98 62.034
H 41.014 46.779 51.895
H 46.882 40.823 54.719
H 45.742 40.543 55.683
H 47.586 41.817 56.957
H 48.223 43.195 56.941
H 42.502 43.745 52.101
H 43.674 44.02 53.027
H 39.731 41.798 61.366
H 38.385 41.137 61.122
H 43.554 44.337 59.288
H 42.992 42.952 59.015
H 47.467 43.128 61.899
H 38.264 45.43 53.439
H 45.911 41.003 60.86
H 40.341 39.909 59.488
H 41.017 45.015 54.024
H 40.383 44.911 55.4
H 42.62 40.444 55.019
