877
xyz format
Cl 61.242 67.541 41.063
Na 46.336 56.344 34.969
O 48.637 63.626 27.633
O 56.075 66.348 33.949
O 40.247 67.595 32.417
O 44.251 57.008 30.865
O 39.117 70.614 42.097
O 59.583 55.722 38.457
O 55.752 53.306 41.348
O 43.167 63.664 30.895
O 59.892 64.597 44.045
O 55.09 53.194 37.529
O 54.453 56.755 39.842
O 56.497 66.826 36.579
O 40.343 65.535 28.373
O 41.949 71.846 45.23
O 61.382 64.936 39.073
O 41.412 59.904 45.339
O 48.972 71.83 41.053
O 42.55 60.666 40.761
O 45.023 54.088 36.793
O 41.503 67.511 37.057
O 43.898 59.337 44.775
O 41.578 68.754 43.816
O 59.172 64.393 37.053
O 39.268 67.762 44.279
O 43.758 73.963 38.954
O 57.587 66.404 42.599
O 51.751 59.64 43.556
O 40.043 73.587 37.153
O 49.496 57.744 28.383
O 38.605 65.223 44.081
O 42.061 72.853 36.667
O 48.479 61.247 49.622
O 41.677 58.091 41.798
O 42.6 59.874 35.929
O 60.951 62.205 43.16
O 53.164 70.087 36.92
O 57.793 65.457 45.373
O 52.703 53.557 40.845
O 58.935 67.608 35.436
O 52.563 51.837 35.898
O 37.424 59.543 39.401
O 53.925 62.227 47.433
O 50.118 59.605 35.868
O 58.557 68.338 40.644
O 51.394 76.14 42.596
O 47.572 65.923 41.657
O 41.36 64.47 42.569
O 60.002 66.629 37.379
O 39.974 61.558 41.697
O 49.158 68.118 50.586
O 50.579 51.258 36.654
O 44.851 52.129 39.126
O 62.79 61.89 41.071
O 46.047 61.631 35.735
O 44.064 70.738 47.13
O 50.497 72.618 35.691
O 47.835 65.519 32.386
O 36.051 66.287 35.211
O 55.795 60.641 40.337
O 48.459 67.826 37.322
O 47.46 69.791 41.186
O 53.904 72.692 41.641
O 53.649 54.883 36.971
O 43.266 61.36 31.959
O 36.648 67.56 41.388
O 37.697 70.486 44.696
O 40.028 61.029 33.684
O 44.215 68.372 39.428
O 59.556 70.163 37.566
O 59.207 60.993 29.047
O 48.185 65.582 49.733
O 48.723 61.078 40.356
O 54.545 65.38 49.164
O 53.349 65.643 36.061
O 50.45 60.463 41.983
O 41.465 50.784 30.986
O 50.403 59.846 32.747
O 52.378 67.52 35.425
O 47.823 59.757 44.75
O 39.394 58.119 42.329
O 43.801 59.878 48.48
O 46.858 63.734 30.549
O 52.739 68.798 43.274
O 55.8 70.436 43.067
O 42.983 62.232 36.705
O 45.669 62.484 44.645
O 41.971 55.703 32.339
O 41.83 65.049 38.855
O 46.791 61.459 46.866
O 54.162 71.746 44.896
O 49.436 65.964 51.511
O 49.133 66.643 45.444
O 36.922 62.85 34.472
O 44.504 70.149 44.291
O 47.059 58.37 29.734
O 60.733 58.5 38.045
O 46.576 56.266 38.022
O 52.247 72.371 38.984
O 49.874 57.374 30.519
O 45.743 68.597 37.768
O 48.387 53.642 30.03
O 49.414 73.68 39.114
O 56.78 69.591 40.979
O 40.219 71.619 35.461
O 42.018 63.872 45.28
O 48.247 55.485 32.451
O 39.124 61.219 37.284
O 58.535 63.213 32.341
O 45.453 62.692 38.486
O 50.964 58.471 40.09
O 49.969 54.723 33.618
O 40.58 66.22 48.573
O 46.178 62.324 32.096
O 39.563 62.225 31.07
O 35.681 68.425 39.15
O 45.906 73.678 35.492
O 40.502 58.425 30.405
O 54.911 71.083 38.685
O 43.316 64.901 49.42
O 36.849 64.13 38.33
O 42.512 64.701 36.49
O 60.548 62.869 33.163
O 56.982 56.852 31.554
O 41.915 55.924 36.92
O 48.52 64.216 44.431
O 48.912 72.1 44.547
O 35.879 57.619 36.81
O 38.278 56.39 34.887
O 57.059 61.949 36.604
O 36.772 61.67 37.716
O 48.235 71.452 38.647
O 40.227 57.338 34.477
O 47.869 57.755 41.356
O 50.168 59.763 45.276
O 48.9 62.315 31.863
O 54.237 59.335 38.115
O 43.851 58.259 29.088
O 38.169 64.465 40.819
O 59.951 56.297 35.449
O 58.264 59.554 45.095
O 40.535 57.907 37.278
O 45.646 66.102 46.816
O 61.051 62.737 39.649
O 60.357 65.634 33.812
O 52.153 70.067 46.052
O 51.207 52.913 38.078
O 54.616 60.248 35.118
O 51.116 50.463 33.315
O 41.24 62.051 28.177
O 48.397 65.069 39.805
O 56.504 64.575 30.294
O 49.416 51.428 30.997
O 52.165 58.072 35.945
O 52.399 54.986 31.057
O 50.833 68.972 30.936
O 48.328 69.737 43.505
O 59.425 57.438 41.472
O 41.988 74.705 42.66
O 57.741 58.74 36.33
O 45.506 59.699 32.804
O 48.706 59.716 30.628
O 49.989 55.99 41.873
O 50.844 62.099 37.121
O 45.271 60.546 42.993
O 45.524 62.925 28.119
O 51.084 62.025 46.917
O 35.254 60.288 36.134
O 49.054 74.551 35.064
O 46.897 71.322 34.432
O 39.748 54.056 36.206
O 45.601 66.564 49.948
O 51.132 54.952 35.903
O 50.361 62.177 28.747
O 54.31 68.004 40.168
O 44.469 54.002 29.164
O 45.055 71.826 36.919
O 46.113 50.098 34.367
O 48.895 63.842 41.633
O 44.15 58.19 34.028
O 44.267 51.138 30.976
O 46.679 73.192 38.953
O 46.923 54.191 35.632
O 48.282 52.62 32.825
O 57.302 55.255 38.117
O 56.273 59.946 33.503
O 40.455 55.642 38.693
O 45.415 62.181 41.486
O 43.63 68.584 47.013
O 51.483 70.953 41.956
O 53.953 64.891 39.245
O 47.284 70.715 45.176
O 47.638 64.081 34.602
O 39.134 55.815 32.179
O 47.394 50.357 29.947
O 40.224 65.104 34.051
O 58.818 70.08 34.572
O 46.539 55.3 29.686
O 38.662 70.096 38.776
O 38.547 65.3 29.963
O 42.724 55.002 30.394
O 42.843 53.455 32.678
O 57.233 58.595 38.722
O 43.822 55.229 35.077
O 45.371 53.799 33.656
O 51.696 65.656 40.213
O 55.261 57.088 32.938
O 45.857 68.714 34.18
O 58.081 64.754 39.87
O 52.668 70.676 34.687
O 45.801 64.68 44.688
O 57.528 54.975 41.331
O 51.139 69.684 39.343
O 45.012 65.452 37.908
O 54.721 68.268 34.616
O 47.516 66.958 35.533
O 54.748 63.329 34.566
O 47.703 59.154 48.739
O 49.549 69.373 47.7
O 36.981 68.8 36.949
O 42.049 57.107 45.768
O 59.491 59.983 35.846
O 44.197 62.054 47.458
O 47.192 56.643 28.071
O 40.534 50.018 36.069
O 58.972 60.969 41.817
O 46.846 56.204 46.256
O 44.177 64.688 41.352
O 62.618 64.824 43.263
O 51.325 55.259 43.721
O 50.899 67.52 41.25
O 51.332 56.014 38.196
O 57.387 68.794 33.344
O 47.592 70.041 36.215
O 55.293 63.072 41.956
O 50.905 62.574 44.425
O 39.413 66.158 35.805
O 43.197 60.591 29.351
O 52.03 62.043 33.772
O 56.157 66.826 39.98
O 40.528 62.488 46.463
O 37.305 72.804 37.689
O 51.839 62.809 41.651
O 45.492 72.766 46.761
O 43.908 72.08 41.848
O 36.464 71.509 40.554
O 50.103 65.286 32.566
O 47.91 51.668 39.049
O 38.37 58.492 36.904
O 47.327 67.341 30.963
O 57.568 62.218 45.647
O 42.012 67.128 29.474
O 60.752 60.641 31.628
O 43.051 65.884 44.539
O 45.625 57.874 45.407
O 47.96 60.817 42.826
O 47.759 65.644 47.534
O 55.5 60.524 43.901
O 52.464 67.473 38.615
O 38.052 59.85 42.629
O 46.129 57.247 32.393
O 50.159 65.868 36.503
O 49.132 54.37 36.61
O 41.973 63.089 34.166
O 60.976 59.705 44.48
O 40.529 69.2 35.079
O 59.683 64.357 29.463
O 49.105 66.613 29.887
O 48.047 50.59 35.994
O 39.258 63.299 36.579
O 54.216 54.975 43.071
O 38.266 65.462 32.948
O 40.496 68.562 45.922
O 46.269 67.635 39.724
O 49.873 69.62 45.066
O 35.321 64.73 36.865
O 48.454 60.024 37.289
O 50.93 71.658 47.087
O 42.028 61.824 43.179
O 53.198 69.519 32.893
O 44.655 67.068 42.12
O 47.816 63.835 36.781
O 52.727 62.421 39.125
O 43.431 54.516 38.25
O 60.461 57.639 43.872
O 42.133 66.588 46.963
O 54.553 71.519 31.555
O 41.026 65.701 31.399
O 52.012 63.466 48.398
O 39.422 58.85 32.292
O 56.121 58.474 44.4
O 47.215 54.53 39.914
O 43.992 75.074 41.265
O 41.942 55.608 42.03
O 44.975 72.911 43.91
O 46.74 54.581 27.217
O 41.782 73.087 39.81
O 51.192 66.775 48.366
O 45.643 59.188 41.251
O 61.683 63.469 29.945
O 42.973 49.986 33.639
O 44.457 62.713 34.642
O 59.542 64.838 41.515
O 43.115 70.201 40.65
O 60.675 62.226 35.959
O 62.766 59.39 42.403
O 52.591 52.933 32.31
O 49.821 63.232 39.043
O 52.623 59.858 41.431
O 54.164 73.037 36.811
O 46.348 51.833 31.199
O 43.023 69.042 36.623
O 41.843 53.022 34.695
O 51.511 74.089 41.788
O 49.277 63.91 50.661
O 39.213 66.005 38.559
O 41.381 71.369 42.682
O 51.146 64.523 34.918
O 45.127 59.031 38.776
O 40.835 70.15 38.439
O 56.162 64.145 38.985
O 46.713 74.289 41.021
H 38.772 66.554 39.22
H 51.685 56.05 43.3
H 51.284 54.616 43.003
H 51.513 67.819 40.568
H 50.166 67.142 40.749
H 43.08 72.324 41.417
H 39.05 65.104 38.864
H 44.348 60.781 43.151
H 45.619 60.375 43.877
H 41.15 53.047 34.023
H 50.006 64.449 33.037
H 50.101 65.947 33.269
H 44.567 72.175 41.149
H 43.502 69.382 35.857
H 45.561 71.49 48.575
H 42.828 69.833 37.141
H 52.089 63.519 42.254
H 52.386 62.065 41.933
H 47.127 69.197 36.155
H 46.954 70.625 36.644
H 54.418 62.882 41.595
H 55.779 63.427 41.202
H 57.665 69.513 32.762
H 56.854 68.228 32.772
H 42.629 68.264 31.667
H 50.568 56.014 38.786
H 52.087 56.004 38.798
H 51.523 73.16 42.049
H 50.733 74.158 41.222
H 51.871 61.497 47.099
H 50.534 61.896 47.7
H 41.722 52.163 35.118
H 43.814 69.959 41.27
H 45.613 64.91 37.381
H 44.774 66.175 37.315
H 49.247 63.066 38.285
H 50.569 63.711 38.665
H 54.508 67.913 33.744
H 55.236 69.061 34.421
H 50.373 50.713 33.879
H 42.302 69.994 41.128
H 51.686 52.916 31.975
H 47.347 59.094 47.843
H 53.099 52.483 31.624
H 47.569 67.43 34.693
H 53.675 60.06 35.224
H 43.141 50.784 34.155
H 43.441 50.145 32.81
H 55.048 59.534 35.604
H 55.222 63.812 35.254
H 54.909 62.402 34.784
H 48.259 66.343 35.498
H 42.513 60.266 29.951
H 43.138 61.551 29.435
H 52.767 61.874 34.372
H 51.275 62.16 34.363
H 51.764 62.316 44.068
H 50.472 63.017 43.684
H 38.785 66.494 36.458
H 39.439 66.852 35.134
H 37.473 69.055 36.158
H 37.154 67.854 37.031
H 42.573 56.542 46.35
H 41.572 57.683 46.378
H 45.156 58.413 40.944
H 46.34 59.297 40.592
H 41.431 62.378 46.784
H 40.582 62.226 45.535
H 56.71 66.603 39.22
H 56.395 66.163 40.64
H 50.919 71.133 42.719
H 46.791 71.289 45.776
H 50.982 70.301 41.45
H 47.518 69.956 45.725
H 50.001 56.851 41.436
H 57.268 56.08 38.617
H 49.175 55.581 41.552
H 43.45 54.072 32.251
H 51.624 62.05 36.554
H 45.915 49.214 34.7
H 42.234 53.207 31.971
H 45.49 50.214 33.639
H 50.528 66.69 47.67
H 50.802 66.306 49.114
H 56.493 59.211 38.8
H 57.863 58.909 39.382
H 45.428 73.171 43.099
H 44.248 73.543 43.979
H 41.775 55.301 41.13
H 42.885 55.445 42.156
H 48.489 66.03 29.426
H 50.107 62.084 36.498
H 43.471 54.553 34.484
H 44.172 55.9 34.478
H 43.991 75.847 41.844
H 44.01 74.329 41.879
H 45.181 52.905 33.346
H 45.892 54.185 32.94
H 58.591 65.48 39.489
H 58.545 63.964 39.566
H 45.103 69.201 33.826
H 49.462 67.17 29.184
H 41.815 54.677 30.39
H 42.686 55.798 29.85
H 45.809 55.929 29.748
H 46.826 55.191 30.601
H 37.713 70.233 38.659
H 38.712 69.317 39.344
H 51.609 64.733 40.483
H 51.324 65.669 39.322
H 53.597 70.911 34.802
H 52.202 71.296 35.264
H 54.516 57.202 33.54
H 56.016 56.967 33.527
H 56.94 57.967 44.337
H 56.174 58.89 45.269
H 44.837 59.828 32.121
H 46.297 59.453 32.307
H 45.462 68.12 34.831
H 51.275 63.505 49.019
H 44.73 61.839 40.898
H 39.747 56.148 39.11
H 46.097 62.501 40.882
H 41.26 56.066 39.016
H 52.79 63.58 48.957
H 48.285 60.189 29.899
H 54.034 64.341 38.456
H 54.544 65.634 39.068
H 49.543 60.183 30.751
H 50.925 70.229 38.575
H 52.101 69.607 39.307
H 56.808 55.354 40.812
H 55.732 59.148 33.549
H 57.0 59.765 34.112
H 47.589 69.124 43.409
H 47.59 54.415 34.97
H 46.692 53.277 35.423
H 47.045 73.464 38.102
H 46.143 72.419 38.736
H 51.855 62.024 39.248
H 53.33 61.77 39.504
H 42.081 73.855 43.108
H 44.201 51.511 30.088
H 44.008 51.868 31.552
H 43.773 58.237 34.915
H 48.935 69.476 42.801
H 45.09 58.034 34.185
H 48.701 63.202 40.938
H 49.857 63.923 41.608
H 40.941 55.62 28.522
H 58.753 58.083 41.217
H 60.022 57.418 40.714
H 44.395 68.569 47.602
H 42.877 68.63 47.615
H 44.136 67.75 42.563
H 45.271 66.769 42.8
H 58.313 58.165 36.854
H 47.557 52.831 33.426
H 49.01 52.39 33.416
H 56.854 58.406 36.509
H 48.35 58.456 40.9
H 47.607 57.156 40.645
H 39.603 58.062 34.344
H 43.254 54.898 27.486
H 48.519 72.564 45.297
H 49.333 72.804 44.037
H 40.728 57.313 33.652
H 54.003 69.547 32.361
H 52.549 69.11 32.307
H 42.603 61.857 43.954
H 48.795 70.729 38.338
H 47.752 71.067 39.389
H 50.988 60.171 45.582
H 50.376 58.82 45.253
H 41.232 61.384 43.503
H 56.912 61.978 35.65
H 47.758 64.65 39.215
H 58.011 61.809 36.685
H 38.722 55.731 34.339
H 37.932 55.877 35.628
H 49.086 65.387 39.208
H 49.691 70.311 45.715
H 47.114 67.989 39.419
H 48.326 63.327 44.11
H 48.61 64.737 43.624
H 42.414 56.625 36.483
H 42.009 55.17 36.325
H 46.141 66.848 39.179
H 56.865 64.223 31.117
H 57.113 65.286 30.061
H 49.742 68.801 45.561
H 36.206 60.265 35.973
H 53.739 67.569 40.814
H 54.796 68.653 40.692
H 41.675 62.948 33.259
H 42.57 63.845 34.097
H 49.904 61.344 28.917
H 49.906 62.809 29.318
H 46.679 71.867 33.666
H 47.859 71.372 34.483
H 39.278 63.573 35.654
H 38.316 63.217 36.773
H 40.204 53.212 36.315
H 40.143 54.429 35.408
H 44.655 72.699 37.014
H 44.369 71.306 36.482
H 51.963 54.573 35.591
H 50.985 55.7 35.311
H 44.719 54.05 30.095
H 43.684 53.44 29.165
H 36.942 61.558 38.66
H 35.814 61.778 37.667
H 60.172 62.487 39.339
H 60.886 63.121 40.519
H 38.457 60.378 43.328
H 37.718 60.51 42.008
H 46.335 65.206 44.08
H 46.427 64.417 45.374
H 48.511 62.111 31.003
H 49.721 62.772 31.641
H 44.485 62.926 47.161
H 43.398 62.237 47.968
H 58.945 60.207 35.082
H 60.314 59.664 35.454
H 43.388 57.548 28.627
H 44.327 58.717 28.384
H 54.479 60.094 38.66
H 53.476 58.957 38.574
H 47.015 57.312 32.772
H 45.985 56.297 32.307
H 59.744 65.519 34.549
H 47.774 66.54 47.174
H 48.05 65.095 46.796
H 43.6 64.392 40.637
H 45.06 64.441 41.052
H 47.433 57.19 27.313
H 59.232 63.991 41.857
H 60.412 64.945 41.92
H 53.358 59.364 41.048
H 52.204 60.274 40.668
H 50.743 52.927 38.925
H 45.461 57.822 44.457
H 46.027 58.744 45.522
H 51.204 53.837 37.8
H 52.069 69.691 45.167
H 46.034 56.171 46.776
H 47.543 56.256 46.922
H 51.555 69.53 46.587
H 55.793 60.689 42.997
H 55.969 61.19 44.419
H 59.913 61.028 41.609
H 58.883 60.102 42.232
H 38.257 58.176 37.809
H 37.64 65.231 40.564
H 38.902 64.849 41.317
H 59.021 56.475 35.637
H 59.941 55.413 35.061
H 37.982 59.375 36.918
H 53.219 54.905 31.561
H 52.452 54.267 30.415
H 42.496 66.034 43.763
H 40.753 58.258 36.405
H 40.057 57.091 37.085
H 43.921 65.695 44.165
H 58.565 60.433 44.833
H 59.068 59.12 45.406
H 44.978 65.415 46.708
H 45.549 66.643 46.023
H 47.159 67.831 31.778
H 46.449 67.058 30.68
H 51.911 57.313 36.485
H 52.664 58.63 36.555
H 49.718 52.325 31.185
H 49.549 50.962 31.832
H 50.469 68.078 30.917
H 60.815 61.489 31.17
H 59.913 60.699 32.102
H 46.169 74.17 34.704
H 46.681 73.138 35.694
H 38.57 65.019 32.146
H 40.259 68.211 46.79
H 41.12 69.27 46.123
H 37.695 66.167 32.617
H 48.614 59.083 37.436
H 47.679 60.212 37.833
H 61.018 63.696 33.0
H 61.253 62.238 33.352
H 53.716 54.235 43.438
H 53.656 55.295 42.352
H 40.84 57.588 30.746
H 50.535 54.855 32.847
H 39.446 71.46 45.607
H 50.379 53.98 34.078
H 40.114 62.96 30.772
H 38.954 62.081 30.335
H 60.478 60.151 43.784
H 42.936 65.206 35.786
H 43.246 64.447 37.064
H 36.876 63.692 39.19
H 36.763 65.065 38.551
H 55.526 71.807 38.859
H 43.836 65.591 48.991
H 54.148 71.292 39.239
H 42.962 63.672 45.304
H 41.921 64.593 45.916
H 47.494 51.871 39.896
H 48.536 52.391 38.921
H 48.721 56.157 31.944
H 48.452 54.663 31.989
H 57.88 63.109 33.043
H 45.905 61.889 38.775
H 44.918 62.398 37.739
H 58.241 62.595 31.66
H 39.591 72.739 37.248
H 52.026 58.747 43.799
H 52.441 60.202 43.931
H 48.779 74.405 39.075
H 50.175 74.014 38.623
H 50.611 65.296 37.137
H 50.352 66.759 36.821
H 57.398 69.917 41.645
H 56.913 70.188 40.232
H 39.896 60.674 37.088
H 39.137 61.296 38.247
H 51.193 58.913 39.263
H 58.17 62.629 46.28
H 51.533 57.691 40.098
H 56.844 62.853 45.574
H 51.549 72.323 38.319
H 51.793 72.154 39.808
H 50.371 58.184 30.353
H 50.553 56.687 30.536
H 45.193 68.508 36.98
H 45.575 69.5 38.064
H 45.734 58.568 38.186
H 47.12 56.892 38.516
H 45.99 55.892 38.693
H 44.485 59.432 38.177
H 60.867 57.826 38.723
H 60.964 59.324 38.491
H 44.455 69.756 43.411
H 45.255 70.753 44.23
H 40.767 71.632 43.379
H 42.185 71.135 43.161
H 46.243 58.371 30.251
H 47.538 57.601 30.065
H 51.832 65.092 34.548
H 36.872 62.404 35.326
H 51.6 64.044 35.623
H 37.3 63.713 34.686
H 56.347 64.472 38.095
H 56.448 63.223 38.954
H 47.303 75.045 41.132
H 48.293 66.398 45.037
H 49.639 65.821 45.439
H 50.3 65.569 51.686
H 49.258 66.485 52.304
H 42.178 64.157 38.975
H 41.138 64.938 38.191
H 54.683 72.334 45.456
H 54.073 70.944 45.426
H 46.187 61.091 47.524
H 46.813 62.401 47.075
H 42.414 55.966 33.156
H 41.198 55.213 32.645
H 39.742 57.22 42.38
H 38.917 58.133 41.49
H 41.092 69.619 35.741
H 40.962 69.411 34.242
H 42.162 62.267 36.198
H 42.698 62.388 37.614
H 48.591 54.439 29.524
H 47.55 53.341 29.656
H 46.469 61.675 32.748
H 45.41 61.908 31.684
H 48.746 55.252 36.686
H 49.016 53.993 37.491
H 56.147 69.611 43.428
H 55.181 70.146 42.385
H 47.368 49.932 36.188
H 47.853 51.308 36.61
H 53.141 69.651 43.067
H 43.184 60.036 47.754
H 44.416 59.227 48.119
H 46.531 64.534 30.117
H 46.937 63.1 29.826
H 51.954 68.773 42.712
H 40.874 70.877 37.805
H 40.677 69.374 37.888
H 50.095 60.603 33.261
H 51.326 60.057 32.56
H 53.049 67.83 36.046
H 51.631 68.111 35.581
H 48.217 58.876 44.774
H 48.025 60.122 45.621
H 48.974 60.57 39.575
H 47.761 61.126 40.299
H 46.56 62.143 44.787
H 45.618 62.604 43.689
H 59.216 63.971 30.214
H 59.205 64.018 28.696
H 47.473 65.04 50.095
H 47.767 66.44 49.586
H 53.556 64.745 36.346
H 54.191 65.975 35.723
H 50.027 61.291 42.24
H 49.718 59.836 41.935
H 46.714 66.132 41.267
H 48.122 66.68 41.421
H 59.136 68.324 39.872
H 59.149 68.135 41.379
H 60.785 67.186 37.284
H 59.447 67.117 37.999
H 50.638 59.48 36.671
H 50.617 60.265 35.372
H 41.006 65.443 30.469
H 62.055 61.266 41.1
H 48.073 65.328 31.47
H 46.885 65.688 32.346
H 41.894 66.11 31.505
H 53.073 53.784 39.983
H 51.796 53.884 40.799
H 54.764 62.503 47.821
H 53.619 63.014 46.965
H 59.844 67.753 35.145
H 58.475 67.344 34.629
H 40.945 64.153 41.756
H 42.299 64.294 42.43
H 47.246 63.437 37.45
H 47.825 64.771 37.015
H 43.077 66.458 47.116
H 53.422 55.817 37.055
H 53.335 54.495 37.797
H 36.349 66.518 34.322
H 36.837 65.907 35.623
H 53.385 72.853 36.272
H 56.506 60.386 40.938
H 55.074 60.891 40.927
H 54.707 72.246 36.707
H 42.439 61.713 31.606
H 43.108 61.313 32.91
H 37.524 67.215 41.601
H 42.101 67.072 46.129
H 40.453 60.436 34.316
H 39.887 61.839 34.19
H 39.162 70.466 47.811
H 46.015 52.735 31.29
H 46.391 51.511 32.108
H 43.791 67.872 40.137
H 43.476 68.783 38.964
H 46.869 54.091 40.701
H 41.03 65.325 33.568
H 40.296 59.232 32.442
H 39.956 64.256 33.675
H 38.817 59.525 32.626
H 48.17 54.41 39.984
H 40.86 72.82 39.71
H 41.074 71.758 35.034
H 39.647 71.328 34.741
H 41.738 74.05 39.86
H 40.898 68.848 48.817
H 48.028 63.81 33.762
H 47.103 64.85 34.368
H 44.864 70.622 46.602
H 43.353 70.702 46.479
H 52.026 52.374 35.303
H 42.647 54.285 38.764
H 43.509 55.471 38.366
H 37.061 59.047 40.145
H 38.211 59.964 39.769
H 44.456 52.035 38.25
H 44.765 53.072 39.316
H 49.947 51.977 36.528
H 39.8 60.892 41.021
H 39.726 62.388 41.27
H 46.03 61.192 34.875
H 46.45 62.488 35.548
H 50.192 72.747 36.598
H 49.718 72.28 35.233
H 47.668 61.693 42.543
H 48.002 61.901 49.096
H 49.093 60.849 48.992
H 47.443 60.215 42.276
H 41.793 60.139 40.475
H 43.312 60.15 40.469
H 52.864 66.723 38.157
H 51.924 67.895 37.935
H 42.734 73.109 36.023
H 42.519 72.224 37.239
H 39.364 65.017 43.522
H 43.898 56.461 31.578
H 44.254 57.898 31.239
H 56.124 65.741 34.698
H 62.516 60.142 42.954
H 39.515 71.261 41.501
H 38.72 69.967 41.501
H 44.494 62.86 33.688
H 44.554 63.598 35.014
H 56.854 66.127 33.424
H 44.621 74.24 38.623
H 43.844 73.006 39.047
H 42.08 68.207 43.199
H 59.813 63.828 37.503
H 58.324 63.971 37.241
H 41.003 69.276 43.244
H 39.099 68.189 43.43
H 40.04 67.209 44.108
H 43.953 59.514 45.723
H 43.284 58.593 44.717
H 58.55 66.444 42.65
H 57.403 65.466 42.47
H 45.669 53.765 37.434
H 45.086 55.048 36.869
H 41.409 66.955 36.273
H 40.942 67.08 37.713
H 58.264 64.795 45.895
H 57.045 64.969 45.006
H 60.173 62.444 43.68
H 53.561 69.491 37.567
H 52.246 69.793 36.87
H 42.582 58.294 41.531
H 41.189 58.081 40.964
H 43.392 60.348 35.645
H 61.659 62.161 43.814
H 42.917 59.302 36.639
H 48.373 67.045 37.882
H 48.688 68.529 37.943
H 54.799 56.23 40.574
H 54.346 56.113 39.129
H 55.816 66.991 37.244
H 57.256 67.33 36.899
H 46.852 69.057 41.337
H 48.205 69.381 40.728
H 54.744 72.885 42.076
H 53.449 72.114 42.266
H 49.2 63.63 49.741
H 55.118 54.032 41.3
H 61.388 63.877 30.769
H 61.236 65.419 39.896
H 62.208 65.305 38.734
H 60.061 62.128 35.221
H 61.514 62.44 35.533
H 40.538 67.456 33.327
H 39.458 68.143 32.51
H 42.364 63.905 31.373
H 42.919 63.762 29.967
H 59.98 65.558 44.07
H 60.181 64.318 44.923
H 41.459 72.302 45.926
H 42.481 72.545 44.829
H 49.881 72.145 40.971
H 48.891 71.604 41.988
H 42.022 60.569 45.68
H 40.637 59.988 45.909
