79
xyz format
O 42.098 48.166 37.965
O 37.77 49.323 42.741
O 40.644 44.475 37.494
O 43.966 42.991 35.457
O 44.16 44.06 38.098
O 40.196 51.677 39.231
O 38.604 51.744 41.346
O 38.638 48.827 37.901
O 39.528 47.063 40.557
O 44.581 47.833 40.163
O 46.137 41.844 36.528
O 42.39 45.371 38.656
O 45.346 46.34 35.392
O 45.069 46.488 38.492
O 38.559 49.318 40.297
O 40.534 50.018 36.069
O 41.215 52.032 41.657
O 38.862 54.0 40.963
O 41.915 43.483 39.942
O 39.247 47.14 34.961
O 41.935 47.489 35.878
O 46.084 44.182 40.467
O 40.71 45.32 41.849
O 38.523 46.114 42.817
O 42.779 49.169 40.93
H 38.939 44.363 39.461
H 38.848 51.921 42.263
H 37.64 51.705 41.368
H 46.345 42.774 36.374
H 39.907 46.938 39.678
H 40.031 47.803 40.92
H 41.775 55.301 41.13
H 44.206 46.609 38.076
H 45.694 46.632 37.771
H 47.284 44.243 34.593
H 38.769 47.408 35.757
H 45.621 41.857 37.343
H 41.758 46.071 38.864
H 42.969 45.348 39.428
H 45.204 47.131 34.858
H 44.993 45.627 34.845
H 41.826 49.069 41.047
H 42.932 50.109 41.083
H 36.685 53.646 41.78
H 45.332 48.37 40.446
H 44.185 48.349 39.45
H 39.43 54.596 41.467
H 38.871 54.372 40.072
H 37.751 49.496 39.8
H 39.244 49.774 39.792
H 45.388 42.503 41.727
H 41.289 49.984 35.468
H 40.647 50.856 36.534
H 42.733 44.467 34.018
H 42.06 52.126 41.201
H 40.625 52.623 41.173
H 39.583 48.933 37.734
H 38.565 47.928 38.243
H 40.996 51.149 39.344
H 40.296 52.06 38.351
H 45.582 44.88 40.028
H 46.889 44.628 40.759
H 41.049 47.835 36.039
H 41.792 46.543 35.751
H 43.853 42.287 36.108
H 45.04 44.041 37.703
H 43.932 43.127 38.195
H 43.706 43.789 35.935
H 37.444 46.469 40.178
H 41.243 44.502 36.738
H 41.048 43.756 39.617
H 37.878 50.175 43.182
H 37.657 54.112 43.805
H 38.122 46.88 42.387
H 42.252 47.607 33.373
H 41.849 48.299 38.888
H 42.788 48.825 37.817
H 39.952 45.044 41.319
H 41.459 45.215 41.249
