886
xyz format
Na 35.918 45.033 51.34
Na 46.336 56.344 34.969
Na 35.533 36.977 44.303
O 32.33 43.493 36.27
O 34.03 51.908 48.431
O 43.478 37.536 32.884
O 32.884 35.448 43.982
O 46.433 36.815 32.932
O 41.517 38.638 48.602
O 34.331 51.095 28.381
O 42.524 34.909 32.465
O 40.733 34.076 46.972
O 34.624 42.468 47.144
O 45.733 48.509 31.953
O 37.519 46.932 31.979
O 39.522 44.361 34.858
O 39.314 31.651 33.129
O 34.648 36.102 33.564
O 32.586 46.087 34.72
O 37.603 54.09 36.874
O 35.646 45.563 28.761
O 48.66 49.362 33.595
O 43.128 47.633 32.968
O 40.376 33.695 31.332
O 42.098 48.166 37.965
O 38.829 49.07 31.297
O 28.288 44.115 42.157
O 38.916 52.01 32.064
O 34.669 53.535 32.647
O 46.529 42.063 30.219
O 36.801 54.519 43.989
O 34.33 47.058 35.839
O 31.442 49.918 38.638
O 27.779 46.239 43.778
O 35.8 40.266 38.185
O 29.555 46.662 46.322
O 37.77 49.323 42.741
O 34.909 40.162 40.192
O 38.584 33.255 44.327
O 30.409 37.825 43.689
O 37.329 43.272 36.635
O 36.424 39.783 33.249
O 31.434 51.37 36.637
O 36.242 36.632 49.531
O 35.998 33.114 43.272
O 36.087 52.32 37.839
O 48.833 45.132 36.582
O 32.809 39.934 49.526
O 33.267 49.089 41.3
O 38.961 38.536 35.998
O 37.747 40.213 34.957
O 32.099 40.922 43.526
O 33.548 46.777 43.633
O 37.008 46.736 44.303
O 27.21 44.915 40.162
O 30.16 50.975 34.524
O 37.205 34.002 50.022
O 36.757 48.855 30.077
O 41.465 50.784 30.986
O 32.254 53.515 45.469
O 32.903 48.551 33.609
O 31.749 47.537 40.849
O 31.358 39.252 36.585
O 31.487 44.811 29.285
O 29.147 42.049 40.598
O 36.8 31.274 41.013
O 42.509 44.712 31.816
O 38.092 51.296 27.954
O 49.028 39.22 42.219
O 38.688 48.38 45.352
O 39.724 51.06 46.718
O 41.971 55.703 32.339
O 38.091 53.985 32.814
O 32.193 34.817 40.454
O 35.318 54.462 35.57
O 40.644 44.475 37.494
O 41.526 35.03 30.015
O 32.252 49.193 47.517
O 35.692 41.76 34.177
O 34.114 35.713 46.515
O 37.155 38.97 40.989
O 46.756 45.28 28.776
O 38.696 30.883 43.229
O 31.269 44.941 32.984
O 34.394 51.205 31.691
O 40.657 31.601 38.058
O 36.542 34.821 41.955
O 32.331 50.555 27.192
O 36.678 46.875 40.602
O 38.784 44.157 50.705
O 36.405 46.299 37.519
O 35.244 44.44 37.319
O 44.389 40.113 42.537
O 26.055 42.137 41.776
O 44.636 45.743 30.719
O 44.369 38.201 36.674
O 35.934 45.985 42.469
O 43.966 42.991 35.457
O 31.602 42.544 45.783
O 39.199 39.015 43.964
O 47.96 41.069 32.132
O 36.399 47.621 52.922
O 35.47 37.49 31.572
O 47.559 41.166 41.228
O 34.058 37.958 34.719
O 33.308 41.152 41.522
O 43.067 37.444 28.31
O 44.16 44.06 38.098
O 34.491 30.77 46.735
O 43.138 32.651 34.92
O 41.915 55.924 36.92
O 40.673 37.651 44.885
O 42.857 41.054 38.169
O 30.109 48.309 36.131
O 33.06 37.526 31.225
O 38.278 56.39 34.887
O 30.816 47.124 43.877
O 33.204 55.026 41.103
O 34.368 33.378 45.237
O 32.668 41.843 39.067
O 34.353 42.37 49.495
O 39.744 33.042 36.293
O 44.294 43.052 29.815
O 35.399 33.823 37.601
O 34.092 44.254 44.32
O 40.227 57.338 34.477
O 45.549 38.002 39.053
O 26.284 47.246 41.59
O 31.158 37.572 45.994
O 40.3 36.05 40.7
O 38.41 35.733 29.344
O 33.377 48.493 26.461
O 35.259 30.555 38.107
O 29.347 42.171 45.413
O 42.041 49.464 28.779
O 33.687 53.546 30.518
O 27.074 40.563 39.312
O 45.985 42.402 42.479
O 41.846 41.941 31.692
O 37.52 35.164 45.707
O 34.695 40.461 31.599
O 40.535 57.907 37.278
O 32.349 54.56 38.524
O 40.196 51.677 39.231
O 35.826 54.847 38.167
O 38.483 38.741 32.313
O 40.838 40.131 41.614
O 28.584 45.546 34.732
O 40.324 42.635 36.016
O 33.894 43.538 40.384
O 38.552 36.003 47.437
O 38.604 51.744 41.346
O 27.125 44.516 37.501
O 38.638 48.827 37.901
O 36.566 48.865 45.684
O 38.251 41.413 37.661
O 40.349 33.304 41.177
O 39.528 47.063 40.557
O 34.865 50.637 46.801
O 39.485 34.394 34.115
O 41.111 30.817 34.847
O 41.28 38.824 37.499
O 31.234 43.464 43.251
O 41.037 47.328 30.485
O 43.201 34.415 36.909
O 39.748 54.056 36.206
O 36.516 44.034 34.174
O 36.904 54.586 41.793
O 40.983 49.07 48.041
O 44.581 47.833 40.163
O 37.816 35.908 32.996
O 48.183 38.292 34.342
O 31.285 52.849 34.228
O 38.78 36.562 42.502
O 44.469 54.002 29.164
O 37.055 42.936 31.153
O 42.205 43.697 34.264
O 40.068 52.462 29.522
O 45.106 43.419 27.047
O 46.137 41.844 36.528
O 46.113 50.098 34.367
O 38.04 44.595 39.198
O 35.034 50.578 40.027
O 44.267 51.138 30.976
O 36.886 51.982 29.661
O 34.204 35.282 49.475
O 29.309 49.506 45.239
O 26.765 48.709 43.978
O 41.266 46.155 26.218
O 37.781 33.021 39.052
O 34.394 52.84 46.177
O 40.455 55.642 38.693
O 33.268 38.49 45.026
O 49.447 41.421 34.204
O 46.963 45.185 32.225
O 33.187 42.709 33.562
O 42.39 45.371 38.656
O 47.291 39.979 35.984
O 45.346 46.34 35.392
O 37.205 51.46 46.884
O 36.101 39.456 43.033
O 39.134 55.815 32.179
O 30.996 43.925 48.06
O 38.589 51.006 35.766
O 47.394 50.357 29.947
O 32.701 38.598 42.214
O 47.657 43.455 34.18
O 40.877 36.138 36.382
O 34.922 43.384 29.488
O 42.843 53.455 32.678
O 43.822 55.229 35.077
O 43.35 36.09 35.489
O 39.52 41.949 40.861
O 34.01 39.061 36.96
O 45.069 46.488 38.492
O 45.371 53.799 33.656
O 29.174 51.139 37.763
O 35.6 37.071 36.932
O 33.465 40.527 35.041
O 33.293 43.719 31.61
O 49.847 44.732 33.838
O 38.559 49.318 40.297
O 47.9 42.23 37.959
O 40.534 50.018 36.069
O 43.154 38.972 45.769
O 38.848 47.839 25.813
O 38.189 41.608 43.127
O 30.186 34.974 43.173
O 38.686 49.873 33.379
O 34.463 48.203 38.824
O 28.841 40.928 42.861
O 44.661 39.923 34.84
O 30.19 38.593 40.584
O 30.272 42.39 37.595
O 40.346 41.032 38.222
O 35.203 50.261 44.664
O 34.023 53.09 43.91
O 32.083 36.132 34.879
O 29.516 50.703 41.081
O 41.364 43.526 26.576
O 35.865 45.491 31.816
O 37.132 45.325 27.148
O 35.964 42.155 43.105
O 30.592 46.561 48.669
O 39.405 45.462 29.705
O 31.743 32.566 46.89
O 38.868 36.834 38.438
O 40.099 40.717 33.761
O 41.005 43.105 47.516
O 32.52 45.173 45.866
O 29.133 42.04 35.199
O 41.215 52.032 41.657
O 46.743 41.184 28.097
O 25.801 44.315 43.516
O 30.83 45.234 41.651
O 38.213 45.197 46.694
O 41.847 39.375 30.151
O 30.927 53.199 40.867
O 38.443 43.813 32.62
O 36.251 49.122 35.91
O 33.21 36.684 39.705
O 47.028 45.182 25.768
O 46.292 38.488 41.071
O 50.148 46.313 31.866
O 36.632 47.66 50.624
O 29.254 46.596 38.507
O 31.657 38.845 38.964
O 38.862 54.0 40.963
O 33.145 46.774 29.52
O 33.772 47.17 47.384
O 30.721 49.255 42.815
O 35.275 54.96 31.084
O 41.915 43.483 39.942
O 35.656 48.968 42.243
O 39.247 47.14 34.961
O 48.047 50.59 35.994
O 31.907 51.609 30.454
O 40.338 50.895 27.642
O 41.935 47.489 35.878
O 44.806 43.652 32.61
O 36.908 47.584 47.915
O 40.063 36.819 33.649
O 46.084 44.182 40.467
O 48.298 43.553 28.503
O 41.964 33.859 39.435
O 32.41 38.728 47.709
O 42.65 40.602 34.256
O 46.208 40.407 33.329
O 29.34 39.66 37.989
O 31.043 48.185 29.152
O 38.747 46.415 48.462
O 32.384 41.162 47.373
O 36.37 37.072 29.131
O 48.858 46.918 28.19
O 34.483 52.707 40.128
O 32.8 48.774 45.137
O 34.308 33.121 47.957
O 41.942 55.608 42.03
O 32.19 51.182 42.566
O 32.599 53.517 36.145
O 33.689 45.502 38.67
O 40.71 45.32 41.849
O 40.67 37.559 30.971
O 30.572 34.36 46.412
O 34.415 30.797 42.537
O 42.973 49.986 33.639
O 41.464 36.253 46.761
O 42.271 46.033 28.182
O 33.872 50.523 36.959
O 36.144 34.572 47.31
O 42.477 34.855 41.362
O 38.523 46.114 42.817
O 46.348 51.833 31.199
O 35.725 48.453 33.013
O 34.641 36.168 42.457
O 33.943 44.592 49.112
O 37.774 43.969 44.9
O 41.843 53.022 34.695
O 34.196 51.64 34.002
O 38.956 49.056 28.378
O 36.483 51.152 35.074
O 33.741 48.832 30.02
O 27.327 49.045 38.502
O 42.779 49.169 40.93
O 44.328 40.414 39.675
O 30.609 45.454 35.664
O 28.574 44.703 46.284
O 30.038 48.87 33.103
C 47.172 45.301 44.376
H 38.792 48.246 28.876
H 38.528 30.56 34.904
H 33.239 51.649 34.134
H 34.46 50.762 34.303
H 29.725 41.82 38.149
H 30.544 41.812 36.871
H 39.143 49.712 29.062
H 35.943 50.747 44.28
H 30.127 39.408 41.097
H 30.529 37.949 41.217
H 34.426 50.687 44.28
H 36.003 42.399 44.038
H 35.896 43.002 42.648
H 41.15 53.047 34.023
H 35.114 45.976 31.453
H 36.352 45.204 31.034
H 37.55 44.88 27.896
H 37.294 44.729 26.406
H 38.939 44.363 39.461
H 31.498 46.231 48.628
H 37.713 43.796 38.768
H 40.265 34.53 34.667
H 40.624 38.31 37.986
H 42.116 38.58 37.913
H 32.388 36.743 35.561
H 31.134 36.3 34.827
H 34.931 53.129 43.585
H 33.49 53.268 43.125
H 37.947 49.704 33.977
H 39.427 50.044 33.974
H 33.815 47.679 38.335
H 35.196 48.297 38.203
H 36.229 47.811 33.528
H 38.77 34.277 34.753
H 40.529 41.777 38.809
H 40.191 40.296 38.827
H 33.859 36.734 42.482
H 35.104 47.908 32.513
H 35.137 36.496 41.696
H 34.831 50.518 36.85
H 44.658 40.253 35.747
H 45.254 39.162 34.875
H 33.686 49.679 37.39
H 28.492 41.589 43.472
H 41.722 52.163 35.118
H 38.848 51.921 42.263
H 37.64 51.705 41.368
H 29.477 50.486 37.119
H 28.842 51.862 37.216
H 36.187 37.673 36.456
H 35.808 37.235 37.86
H 41.865 45.587 28.936
H 41.872 46.912 28.194
H 32.933 44.123 30.811
H 43.141 50.784 34.155
H 43.441 50.145 32.81
H 34.227 43.963 31.59
H 40.498 38.324 31.534
H 40.862 36.851 31.598
H 38.213 40.449 37.7
H 42.071 43.704 25.944
H 41.503 44.186 27.267
H 30.213 50.563 40.428
H 29.982 51.086 41.835
H 39.492 35.856 47.604
H 38.142 35.865 48.299
H 33.732 40.652 34.122
H 32.668 41.065 35.123
H 37.475 41.694 38.161
H 46.345 42.774 36.374
H 39.907 46.938 39.678
H 40.031 47.803 40.92
H 43.45 54.072 32.251
H 34.758 42.449 29.313
H 45.915 49.214 34.7
H 42.234 53.207 31.971
H 45.49 50.214 33.639
H 38.043 33.896 38.739
H 35.332 52.755 46.392
H 34.124 53.641 46.644
H 30.041 49.453 45.866
H 29.304 50.434 44.971
H 41.775 55.301 41.13
H 40.627 45.882 25.548
H 42.022 46.462 25.703
H 36.831 33.105 39.198
H 44.206 46.609 38.076
H 43.471 54.553 34.484
H 45.694 46.632 37.771
H 42.577 35.751 35.021
H 44.083 35.898 34.891
H 30.348 48.892 32.189
H 45.181 52.905 33.346
H 39.438 33.066 40.963
H 38.719 41.813 40.338
H 39.548 42.905 40.992
H 33.569 38.245 37.226
H 33.398 39.754 37.237
H 40.27 33.791 42.007
H 33.569 38.85 41.876
H 47.284 44.243 34.593
H 47.0 43.21 33.517
H 32.138 39.348 41.985
H 41.517 36.814 36.638
H 40.701 35.665 37.204
H 33.967 50.691 46.451
H 34.847 49.85 47.359
H 30.518 48.127 33.489
H 37.678 51.003 47.592
H 37.512 52.372 46.955
H 36.187 39.043 43.901
H 35.35 40.053 43.136
H 50.14 41.675 34.826
H 48.653 41.374 34.751
H 33.747 38.3 44.21
H 32.669 39.206 44.78
H 32.577 43.399 33.85
H 34.055 43.126 33.635
H 47.736 45.464 31.719
H 38.769 47.408 35.757
H 46.405 44.749 31.569
H 45.621 41.857 37.343
H 44.201 51.511 30.088
H 44.008 51.868 31.552
H 37.214 51.628 30.496
H 36.002 52.304 29.88
H 41.758 46.071 38.864
H 42.969 45.348 39.428
H 39.152 47.897 34.371
H 32.783 41.632 48.116
H 47.855 40.472 36.593
H 46.603 39.614 36.554
H 31.439 41.185 47.569
H 45.204 47.131 34.858
H 44.993 45.627 34.845
H 40.661 37.531 33.908
H 39.586 36.613 34.463
H 31.05 48.136 36.002
H 40.9 38.511 45.26
H 41.365 37.497 44.23
H 29.678 47.537 35.742
H 45.908 37.144 38.796
H 45.783 38.58 38.316
H 42.851 40.006 33.524
H 43.073 41.431 34.0
H 37.532 43.206 30.359
H 36.363 42.352 30.818
H 38.722 55.731 34.339
H 37.932 55.877 35.628
H 32.927 54.104 41.17
H 34.158 54.99 41.243
H 31.205 46.474 44.475
H 30.426 47.777 44.472
H 27.498 43.643 37.328
H 39.46 53.211 29.567
H 44.403 42.766 27.152
H 42.414 56.625 36.483
H 42.009 55.17 36.325
H 45.014 43.04 31.893
H 42.51 33.367 35.077
H 44.538 43.074 33.335
H 40.605 30.257 34.244
H 42.029 30.606 34.639
H 42.361 41.65 37.594
H 43.325 40.478 37.552
H 32.962 38.273 31.829
H 45.138 43.571 26.094
H 39.239 36.318 43.315
H 37.887 36.777 42.798
H 31.733 52.445 30.905
H 37.057 36.497 32.899
H 38.16 35.827 32.098
H 47.322 38.686 34.153
H 40.204 53.212 36.315
H 40.143 54.429 35.408
H 41.826 49.069 41.047
H 42.932 50.109 41.083
H 31.696 50.942 31.118
H 42.765 34.868 37.641
H 44.017 34.078 37.3
H 40.903 47.07 31.405
H 41.992 47.256 30.363
H 30.585 42.954 43.75
H 31.742 43.92 43.934
H 32.229 38.867 39.741
H 36.076 34.215 37.036
H 33.936 43.348 44.025
H 34.805 44.562 43.748
H 35.504 32.874 37.459
H 35.195 42.772 49.247
H 34.193 42.704 50.387
H 32.851 40.944 39.365
H 33.541 33.329 45.733
H 34.088 33.638 44.35
H 33.516 42.147 38.722
H 44.521 43.712 29.147
H 44.499 42.212 29.385
H 35.723 44.247 34.681
H 36.182 43.88 33.281
H 31.86 53.37 33.654
H 30.585 53.467 34.474
H 36.685 53.646 41.78
H 31.8 37.964 38.598
H 45.332 48.37 40.446
H 44.185 48.349 39.45
H 39.43 54.596 41.467
H 38.871 54.372 40.072
H 27.167 46.881 41.728
H 39.473 33.244 37.197
H 40.704 33.139 36.314
H 41.139 48.517 47.266
H 40.024 49.176 48.059
H 31.548 48.788 42.642
H 30.901 49.748 43.625
H 40.574 41.721 35.834
H 39.373 42.586 36.174
H 35.973 50.796 39.986
H 34.759 50.573 39.101
H 42.712 48.795 28.966
H 41.261 49.143 29.248
H 41.967 43.302 33.416
H 39.101 43.692 31.924
H 33.705 37.318 40.238
H 37.751 49.496 39.8
H 39.244 49.774 39.792
H 33.834 36.426 39.016
H 38.05 44.671 32.418
H 46.625 43.114 42.361
H 45.388 42.503 41.727
H 42.759 41.648 31.801
H 41.511 41.387 30.976
H 29.565 41.233 45.361
H 28.692 42.215 46.121
H 33.616 52.858 29.845
H 29.152 45.95 37.797
H 29.618 47.371 38.061
H 33.117 54.251 30.186
H 42.571 39.662 46.109
H 42.999 38.989 44.816
H 38.163 42.44 42.638
H 37.725 40.989 42.55
H 47.396 41.767 38.64
H 41.289 49.984 35.468
H 40.647 50.856 36.534
H 48.634 42.625 38.447
H 31.149 52.95 41.773
H 31.364 52.526 40.33
H 49.201 44.623 33.129
H 50.345 43.905 33.824
H 42.733 44.467 34.018
H 34.579 43.721 41.039
H 33.075 43.562 40.895
H 36.89 48.524 35.503
H 35.499 49.101 35.305
H 41.197 40.45 40.777
H 39.943 39.851 41.387
H 27.646 45.417 34.545
H 38.343 38.266 33.141
H 38.145 38.135 31.641
H 28.918 45.985 33.94
H 32.193 53.633 38.305
H 30.495 45.408 42.54
H 40.927 52.874 29.366
H 31.995 37.15 46.223
H 30.613 37.442 46.781
H 42.06 52.126 41.201
H 40.625 52.623 41.173
H 40.984 35.817 40.059
H 39.633 35.362 40.583
H 34.73 40.704 30.665
H 34.552 41.302 32.05
H 26.188 44.541 42.661
H 26.428 43.685 43.892
H 31.776 45.095 41.786
H 38.17 35.354 45.019
H 36.675 35.372 45.288
H 39.583 48.933 37.734
H 38.565 47.928 38.243
H 38.656 36.467 29.921
H 34.073 48.918 26.978
H 38.058 37.253 38.12
H 38.754 35.906 38.2
H 40.996 51.149 39.344
H 40.296 52.06 38.351
H 31.937 45.279 46.629
H 36.011 48.132 45.979
H 36.863 49.273 46.506
H 33.385 45.005 46.26
H 35.155 54.64 38.829
H 36.597 55.095 38.692
H 47.067 40.7 40.539
H 48.015 41.868 40.748
H 33.766 38.329 33.877
H 36.328 48.213 48.361
H 36.547 46.724 48.165
H 32.425 41.532 41.439
H 33.798 41.816 42.023
H 34.802 38.519 34.971
H 35.165 36.814 30.954
H 35.782 38.201 30.998
H 37.277 35.126 41.409
H 36.02 34.276 41.353
H 48.844 44.269 28.154
H 48.764 42.754 28.226
H 44.514 39.593 43.341
H 43.849 40.859 42.828
H 45.582 44.88 40.028
H 46.889 44.628 40.759
H 33.493 47.104 28.682
H 33.412 45.846 29.53
H 44.529 37.28 36.916
H 43.517 38.174 36.221
H 35.176 46.504 42.173
H 35.947 45.232 41.865
H 41.049 47.835 36.039
H 41.792 46.543 35.751
H 48.556 41.821 32.232
H 34.526 46.575 47.292
H 33.969 47.886 46.767
H 43.853 42.287 36.108
H 42.261 37.395 28.838
H 43.614 36.73 28.658
H 45.04 44.041 37.703
H 43.932 43.127 38.195
H 42.414 33.146 38.966
H 33.37 38.796 47.629
H 32.285 38.076 48.409
H 32.528 42.808 45.852
H 31.118 43.359 45.965
H 43.706 43.789 35.935
H 41.065 33.833 39.083
H 40.306 43.731 47.29
H 26.933 42.382 42.092
H 25.508 42.166 42.571
H 39.088 45.462 30.616
H 38.814 46.078 29.256
H 36.273 47.394 39.895
H 37.444 46.469 40.178
H 49.386 46.896 31.974
H 36.187 51.834 35.69
H 40.581 40.135 33.16
H 39.691 41.366 33.174
H 39.064 45.216 46.24
H 38.193 44.325 47.108
H 43.838 46.062 30.279
H 33.628 51.778 31.826
H 34.156 50.392 32.155
H 40.892 31.151 37.237
H 40.292 30.898 38.609
H 46.605 42.136 28.021
H 47.455 41.005 27.47
H 44.533 46.048 31.63
H 29.791 42.721 35.014
H 28.455 42.508 35.703
H 34.913 43.577 37.04
H 34.736 45.064 36.786
H 37.092 45.621 37.498
H 36.845 47.081 37.164
H 36.929 51.651 34.378
H 31.092 45.958 36.331
H 30.423 44.614 36.101
H 37.426 39.846 40.688
H 37.912 38.41 40.776
H 46.669 46.07 29.324
H 46.541 44.558 29.38
H 31.727 45.315 32.221
H 30.351 44.878 32.692
H 28.019 48.998 37.83
H 28.443 44.289 45.422
H 44.777 39.932 40.379
H 43.923 41.163 40.131
H 42.298 35.153 29.449
H 40.912 35.712 29.717
H 35.667 41.239 34.99
H 36.634 41.845 33.988
H 33.22 35.352 46.548
H 34.378 35.59 45.595
H 35.409 53.807 36.273
H 35.834 55.214 35.889
H 39.768 44.549 37.095
H 33.138 34.657 40.562
H 41.243 44.502 36.738
H 38.842 47.977 46.215
H 39.529 48.807 45.145
H 40.367 50.501 46.264
H 39.347 51.597 46.009
H 37.431 54.322 32.197
H 37.618 53.942 33.655
H 33.057 49.321 30.495
H 30.813 38.465 36.704
H 31.253 39.464 35.649
H 41.867 45.079 31.196
H 37.492 31.944 40.948
H 37.149 30.647 41.659
H 43.002 44.074 31.285
H 30.814 47.356 41.009
H 37.913 52.106 27.46
H 32.056 46.755 40.374
H 39.211 38.641 43.074
H 38.346 39.465 44.013
H 29.5 42.44 41.407
H 29.843 41.444 40.313
H 47.368 49.932 36.188
H 47.853 51.308 36.61
H 33.205 45.976 43.217
H 33.945 46.458 44.453
H 37.62 46.484 45.005
H 26.747 44.193 39.719
H 27.744 45.309 39.46
H 30.91 50.689 33.988
H 29.88 50.168 34.976
H 36.154 46.412 44.615
H 33.011 48.58 32.65
H 32.737 49.471 33.849
H 42.06 51.432 30.587
H 42.026 50.01 31.12
H 34.496 48.853 30.621
H 35.128 48.58 42.952
H 45.83 41.287 33.447
H 45.565 39.953 32.77
H 35.235 49.822 42.084
H 41.733 42.664 40.42
H 41.048 43.756 39.617
H 36.688 49.689 29.596
H 36.648 49.112 31.001
H 30.47 46.917 46.494
H 29.091 47.506 46.25
H 35.021 39.206 40.262
H 35.339 40.502 40.986
H 37.878 50.175 43.182
H 37.559 48.716 43.462
H 48.822 46.358 28.975
H 48.088 46.643 27.677
H 46.184 41.467 30.895
H 47.172 42.603 30.695
H 31.085 47.531 29.861
H 31.056 49.03 29.619
H 37.657 54.112 43.805
H 28.498 39.89 37.578
H 29.122 39.57 38.925
H 33.753 47.768 35.531
H 34.964 46.949 35.119
H 38.388 40.667 35.518
H 37.176 39.754 35.585
H 38.122 46.88 42.387
H 38.07 45.362 42.417
H 36.193 52.631 38.747
H 36.555 51.476 37.83
H 35.739 35.222 47.898
H 36.543 33.934 47.913
H 42.989 35.331 42.027
H 42.727 33.932 41.497
H 36.423 32.251 43.351
H 36.461 33.658 43.921
H 32.488 41.693 43.956
H 38.465 37.708 36.006
H 39.879 38.252 35.902
H 31.222 40.855 43.924
H 33.873 45.615 39.611
H 32.736 45.639 38.605
H 46.015 52.735 31.29
H 46.391 51.511 32.108
H 38.538 51.621 36.509
H 38.182 50.2 36.107
H 38.835 56.732 32.131
H 32.606 49.713 45.027
H 33.673 48.672 44.737
H 30.058 43.837 47.85
H 31.192 43.132 48.575
H 46.897 49.637 29.538
H 47.823 49.939 30.703
H 34.705 52.812 41.061
H 33.615 52.284 40.144
H 32.481 51.351 43.471
H 32.977 51.359 42.036
H 38.511 46.777 49.325
H 32.1 50.622 38.596
H 31.533 49.467 37.79
H 39.547 45.904 48.638
H 28.468 46.382 44.439
H 36.036 39.422 37.781
H 35.35 40.742 37.476
H 27.003 46.003 44.302
H 38.317 33.166 45.25
H 39.546 33.326 44.373
H 33.378 53.24 35.647
H 29.455 37.845 43.838
H 30.648 38.756 43.607
H 37.16 42.566 35.999
H 37.606 44.015 36.085
H 35.487 37.056 49.103
H 32.043 51.162 35.917
H 34.957 32.422 48.103
H 30.916 52.108 36.292
H 33.87 33.209 48.813
H 35.811 39.058 33.079
H 36.715 40.05 32.368
H 42.982 48.102 32.137
H 42.252 47.607 33.373
H 39.076 45.038 34.334
H 39.977 43.824 34.197
H 41.849 48.299 38.888
H 42.788 48.825 37.817
H 35.111 45.781 27.987
H 35.562 46.342 29.325
H 42.424 36.3 46.853
H 32.172 35.584 44.62
H 32.473 34.916 43.29
H 41.171 37.151 46.963
H 43.587 37.82 33.8
H 42.632 37.071 32.887
H 35.068 35.663 34.314
H 34.99 35.625 32.798
H 31.993 46.634 34.189
H 35.773 47.343 50.316
H 33.304 45.87 34.112
H 45.757 38.264 41.843
H 46.887 37.733 40.978
H 39.691 32.224 33.809
H 37.937 53.472 37.536
H 37.605 53.575 36.058
H 37.057 46.867 50.973
H 39.5 52.294 32.779
H 38.087 51.806 32.513
H 28.386 45.065 42.017
H 28.785 43.95 42.968
H 41.12 39.175 29.548
H 42.596 39.532 29.563
H 47.163 44.402 26.321
H 38.647 50.012 31.184
H 39.782 49.003 31.163
H 33.226 44.868 48.527
H 34.741 44.842 48.631
H 48.41 48.755 32.888
H 48.244 48.985 34.38
H 37.299 44.178 44.086
H 38.015 43.041 44.793
H 34.001 53.745 33.311
H 35.502 53.746 33.085
H 33.641 50.826 29.001
H 34.958 50.362 28.405
H 49.054 44.705 37.419
H 43.124 34.662 33.181
H 41.649 34.701 32.818
H 49.595 44.943 36.021
H 33.096 49.687 40.562
H 33.879 48.44 40.931
H 32.307 43.099 37.15
H 32.673 44.382 36.425
H 34.616 43.202 46.516
H 34.381 41.704 46.606
H 45.723 49.277 31.369
H 46.085 47.803 31.397
H 39.952 45.044 41.319
H 41.459 45.215 41.249
H 38.322 47.216 32.434
H 37.703 47.12 31.05
