221
xyz format
O 48.932 74.673 45.769
O 49.082 73.724 49.746
O 44.78 72.802 57.887
O 57.005 69.809 55.479
O 55.71 72.65 54.97
O 44.544 69.498 54.368
O 50.752 72.257 50.495
O 49.587 74.158 56.85
O 51.937 69.553 51.704
O 51.37 72.079 54.307
O 49.158 68.118 50.586
O 44.923 69.41 49.975
O 46.719 72.536 55.898
O 56.736 71.876 56.756
O 42.36 74.43 51.431
O 42.549 75.651 53.252
O 54.567 68.535 53.18
O 50.941 78.844 49.76
O 52.391 73.404 45.204
O 53.481 67.473 57.748
O 46.985 74.753 59.777
O 47.555 76.079 57.71
O 53.628 73.72 48.648
O 48.548 71.202 59.898
O 54.254 72.37 50.268
O 51.26 74.535 48.122
O 47.662 68.301 55.971
O 51.532 69.267 56.597
O 51.35 75.601 51.898
O 46.604 71.79 52.932
O 52.438 69.578 54.231
O 57.823 72.214 52.872
O 48.334 69.772 54.208
O 52.317 76.433 49.131
O 45.913 75.626 50.034
O 52.982 73.85 58.814
O 56.574 72.226 51.034
O 56.691 74.124 48.591
O 49.8 68.0 55.179
O 49.537 73.242 53.011
O 46.061 73.681 54.138
O 52.319 76.485 54.067
O 44.778 74.834 55.99
O 51.514 77.722 47.032
O 50.798 67.973 52.906
O 43.137 74.945 48.592
O 42.982 73.392 53.7
O 53.935 77.88 46.843
O 46.99 75.288 48.146
O 49.549 69.373 47.7
O 55.027 69.354 50.173
O 48.587 71.379 57.705
O 53.114 71.179 59.877
O 49.961 72.902 59.884
O 45.407 72.069 49.331
O 48.96 76.541 60.738
O 55.129 70.258 57.088
O 44.864 75.995 53.24
O 46.644 68.847 52.456
O 51.672 68.261 59.316
O 49.831 75.433 54.553
O 49.99 77.625 54.651
O 50.93 71.658 47.087
O 54.32 75.359 50.973
O 43.944 71.675 52.405
O 46.46 73.561 50.56
O 41.787 76.941 48.916
O 53.207 72.816 52.667
O 53.652 74.914 46.798
O 48.296 77.728 46.186
O 49.013 70.417 51.058
O 44.167 77.187 57.112
O 48.954 76.999 48.202
O 46.357 78.554 52.067
O 49.688 78.273 52.177
O 43.266 77.536 50.451
O 51.262 71.473 57.669
H 49.055 72.215 57.829
H 48.913 71.058 56.855
H 45.561 71.49 48.575
H 45.131 72.903 48.929
H 50.63 78.437 52.31
H 49.668 77.595 51.491
H 46.995 77.883 51.796
H 45.776 78.085 52.679
H 47.287 75.485 47.249
H 47.197 74.352 48.255
H 54.08 72.405 52.63
H 53.147 73.149 53.571
H 53.406 70.897 59.002
H 53.801 71.796 60.16
H 50.888 72.654 59.994
H 49.908 73.776 60.29
H 54.176 69.699 49.875
H 55.593 69.437 49.395
H 49.112 69.992 48.298
H 54.199 75.697 46.938
H 54.243 74.299 46.346
H 49.916 72.436 52.638
H 54.737 78.285 47.196
H 54.149 77.719 45.916
H 44.598 71.665 51.695
H 43.106 71.532 51.947
H 50.702 78.027 46.608
H 51.876 77.085 46.402
H 54.526 76.226 51.343
H 54.016 74.851 51.735
H 53.076 76.696 49.667
H 45.375 75.335 55.421
H 51.69 76.083 49.777
H 44.189 74.387 55.368
H 52.61 75.848 54.731
H 52.176 77.295 54.572
H 45.257 73.338 53.729
H 46.608 73.942 53.387
H 56.351 74.74 49.252
H 56.004 72.764 51.597
H 56.973 72.866 50.432
H 51.25 75.321 47.561
H 51.05 73.816 47.514
H 58.469 72.125 53.583
H 57.28 71.42 52.955
H 50.252 67.172 55.383
H 49.229 67.773 54.435
H 53.464 71.832 50.407
H 54.836 71.794 49.756
H 53.215 64.64 58.54
H 49.962 75.332 53.602
H 48.872 75.478 54.649
H 49.116 77.965 54.421
H 49.972 77.581 55.615
H 53.795 73.528 58.405
H 52.615 74.45 58.153
H 45.903 76.458 50.523
H 45.186 75.72 49.407
H 46.761 71.459 52.039
H 48.023 68.256 56.865
H 46.725 68.488 56.111
H 46.658 70.999 53.483
H 45.821 75.997 53.37
H 44.707 75.207 52.706
H 45.817 68.84 51.958
H 46.798 67.916 52.657
H 50.689 74.995 51.542
H 51.895 75.04 52.463
H 48.598 73.036 53.098
H 52.193 69.939 56.391
H 51.852 68.481 56.136
H 52.552 68.636 54.056
H 51.513 69.742 54.01
H 48.784 70.064 53.405
H 48.371 70.545 54.786
H 52.484 72.985 46.068
H 51.854 74.186 45.385
H 53.298 74.452 49.184
H 52.904 73.081 48.661
H 49.267 70.565 59.803
H 48.146 70.97 60.744
H 51.601 71.407 47.734
H 50.142 71.815 47.623
H 52.874 66.896 57.268
H 53.805 68.079 57.07
H 48.204 76.604 60.141
H 46.184 74.781 60.315
H 47.352 73.878 59.957
H 51.592 78.51 49.131
H 50.094 78.603 49.363
H 42.841 76.003 54.102
H 42.577 76.418 52.665
H 55.532 68.494 53.166
H 54.377 69.479 53.121
H 47.056 76.759 58.18
H 46.874 75.569 57.253
H 43.081 74.275 50.809
H 57.176 71.188 57.271
H 56.487 72.534 57.416
H 43.903 77.183 51.085
H 42.548 77.863 51.007
H 46.731 72.001 56.702
H 46.711 73.444 56.227
H 50.96 71.054 58.485
H 51.676 72.291 57.972
H 50.935 72.474 49.572
H 50.957 71.316 50.554
H 55.59 72.083 54.198
H 56.029 73.481 54.597
H 57.814 70.315 55.336
H 48.867 73.882 56.269
H 50.36 74.163 56.272
H 45.811 69.788 49.948
H 49.606 76.547 48.752
H 48.318 77.346 48.84
H 43.363 74.083 48.222
H 42.115 73.644 54.043
H 50.13 68.548 52.511
H 51.194 67.527 52.147
H 44.888 70.363 54.624
H 45.311 68.917 54.439
H 52.024 71.688 54.9
H 50.726 72.476 54.906
H 45.608 73.496 51.01
H 47.104 73.494 51.277
H 52.542 70.306 51.698
H 51.909 69.275 50.78
H 48.715 68.416 49.781
H 50.077 68.005 50.313
H 45.34 73.587 57.941
H 44.458 72.812 56.977
H 48.192 69.965 51.288
H 48.72 71.282 50.748
H 47.504 77.953 45.683
H 49.18 73.57 48.798
H 49.252 74.669 49.843
H 48.494 76.825 45.909
H 51.13 68.268 58.517
H 52.245 69.031 59.21
H 54.654 70.267 56.248
H 44.905 77.227 56.491
H 49.303 74.846 46.644
H 42.106 77.715 48.437
H 41.079 77.291 49.472
