73
xyz format
O 32.884 35.448 43.982
O 35.157 26.844 52.851
O 33.466 28.099 53.863
O 34.547 28.544 47.565
O 36.524 26.872 49.286
O 34.491 30.77 46.735
O 32.659 27.394 46.023
O 33.023 29.487 44.649
O 34.368 33.378 45.237
O 32.374 37.163 51.355
O 31.158 37.572 45.994
O 27.874 33.464 47.384
O 37.159 30.547 46.724
O 30.351 31.204 49.225
O 31.661 28.49 49.029
O 30.169 36.239 49.156
O 34.204 35.282 49.475
O 32.216 30.69 52.555
O 31.072 33.585 50.361
O 30.186 34.974 43.173
O 31.743 32.566 46.89
O 33.196 27.686 43.251
O 28.732 36.286 46.575
O 36.563 28.234 45.843
O 34.172 30.657 49.549
O 32.852 29.488 55.893
O 34.308 33.121 47.957
O 30.572 34.36 46.412
O 36.144 34.572 47.31
H 28.587 33.421 46.735
H 30.986 28.628 48.352
H 30.324 34.029 45.54
H 30.743 35.298 46.261
H 31.164 28.513 49.856
H 35.909 28.941 45.776
H 34.703 35.12 50.286
H 36.057 27.435 45.652
H 33.283 35.267 49.765
H 31.132 36.311 49.144
H 29.877 37.113 49.444
H 32.356 29.825 45.26
H 33.796 29.344 45.209
H 32.236 36.213 51.457
H 32.632 37.259 50.43
H 36.783 30.366 47.594
H 33.541 33.329 45.733
H 29.959 30.325 49.304
H 30.72 31.37 50.101
H 31.252 34.53 50.451
H 31.72 33.29 49.709
H 33.741 34.566 52.179
H 33.298 26.752 46.358
H 32.358 27.853 46.817
H 35.069 30.964 45.986
H 28.91 35.815 47.398
H 28.59 35.579 45.933
H 33.64 31.142 46.47
H 32.076 33.199 47.538
H 31.553 31.779 47.416
H 36.039 27.362 49.962
H 34.881 30.396 48.949
H 33.48 30.982 48.959
H 34.429 26.929 52.222
H 36.543 33.934 47.913
H 33.899 28.545 48.281
H 35.204 27.897 47.852
H 31.359 30.875 52.151
H 32.794 30.526 51.8
H 32.815 30.124 56.618
H 34.957 32.422 48.103
H 33.87 33.209 48.813
H 32.693 27.753 54.328
H 33.122 28.865 53.387
