327
xyz format
Cl 41.259 60.751 72.504
Cl 36.479 47.994 74.989
Na 41.179 68.089 69.505
O 46.791 61.308 68.338
O 37.593 51.641 71.486
O 47.424 54.104 66.271
O 33.862 45.486 72.012
O 41.066 44.348 67.211
O 35.549 49.602 66.684
O 51.025 49.636 71.163
O 41.814 46.814 68.166
O 35.06 50.375 70.509
O 40.079 48.43 70.027
O 49.199 54.548 65.05
O 34.482 52.566 66.49
O 38.522 57.998 74.117
O 37.741 56.897 68.277
O 37.602 63.398 67.675
O 41.642 47.008 74.741
O 40.764 50.231 68.466
O 47.517 49.802 77.261
O 46.699 55.348 70.014
O 39.373 48.924 72.787
O 48.289 51.398 67.62
O 46.774 49.983 71.37
O 45.108 45.201 77.484
O 43.274 49.346 66.01
O 36.526 54.043 73.94
O 39.899 60.189 68.296
O 47.298 56.666 66.583
O 36.647 56.414 65.243
O 42.543 66.263 68.848
O 34.806 44.777 73.891
O 37.448 52.083 65.074
O 47.068 55.584 75.391
O 38.212 46.403 67.42
O 49.298 56.784 75.844
O 43.743 50.273 77.163
O 34.328 58.476 71.525
O 36.78 56.49 71.425
O 34.465 56.317 67.248
O 40.726 66.261 71.97
O 43.247 60.061 70.726
O 43.318 58.978 68.133
O 51.126 56.387 77.589
O 45.332 62.126 71.237
O 44.582 51.93 66.294
O 42.331 51.399 63.601
O 45.791 57.047 72.962
O 35.956 53.697 65.118
O 42.532 51.14 70.219
O 38.207 46.359 70.377
O 39.298 50.135 64.821
O 37.603 44.812 75.428
O 38.283 51.259 74.688
O 41.03 51.908 71.811
O 42.291 57.22 66.609
O 44.199 47.277 77.289
O 34.367 47.331 70.925
O 39.682 63.674 72.594
O 40.328 58.319 65.298
O 39.651 55.792 66.746
O 33.071 56.098 65.026
O 39.999 54.215 73.409
O 37.723 55.759 74.62
O 46.598 60.076 71.351
O 43.846 53.612 67.873
O 39.658 54.91 70.832
O 49.498 55.815 69.244
O 43.889 52.92 77.026
O 45.717 58.465 74.663
O 46.166 50.465 65.749
O 43.705 55.211 72.213
O 46.858 53.389 72.654
O 41.55 43.194 70.5
O 45.484 55.421 68.155
O 37.689 60.247 64.995
O 45.254 50.635 75.202
O 43.747 45.497 75.141
O 42.684 59.327 73.528
O 41.46 54.421 67.434
O 35.661 60.035 66.811
O 38.217 62.174 71.924
O 48.644 51.879 74.636
O 42.871 48.179 72.138
O 44.71 49.266 68.374
O 36.54 48.667 71.704
O 44.781 57.993 70.55
O 41.984 50.858 74.789
O 33.278 54.532 71.354
O 48.396 59.365 76.241
O 46.948 48.523 73.007
O 45.016 57.813 65.766
O 37.94 49.073 67.089
O 45.674 46.127 73.378
O 39.733 52.288 62.804
O 43.87 51.972 72.863
O 41.594 51.597 66.938
O 43.662 53.147 64.699
O 40.748 49.866 63.123
O 45.143 55.064 64.304
O 48.947 49.484 73.465
O 37.19 54.806 67.572
O 48.31 49.359 69.064
O 40.805 46.606 71.031
O 41.134 62.894 68.441
O 46.904 52.403 76.822
O 42.631 53.482 71.005
O 44.827 51.62 69.107
O 41.748 55.727 63.732
O 50.516 53.01 74.369
O 37.411 64.431 70.788
O 39.961 61.539 70.61
O 42.305 63.03 71.102
O 39.608 45.092 73.903
O 38.013 59.058 66.887
O 44.902 53.694 74.853
O 44.961 53.241 62.831
O 45.983 47.686 70.461
O 41.767 55.064 74.406
O 39.021 60.055 74.726
O 39.914 52.873 75.823
O 40.244 46.565 66.366
O 43.461 55.677 69.217
H 44.875 57.855 66.72
H 45.843 58.294 65.635
H 46.521 49.057 73.689
H 47.452 47.871 73.509
H 32.976 55.365 71.736
H 33.482 54.76 70.439
H 48.877 59.887 76.895
H 47.538 59.212 76.656
H 43.33 47.334 72.046
H 42.494 48.331 71.263
H 37.307 62.338 72.202
H 38.358 61.244 72.142
H 38.817 58.546 67.044
H 37.822 59.454 67.747
H 41.471 63.138 70.628
H 42.893 63.671 70.682
H 47.931 52.021 74.001
H 48.544 52.609 75.26
H 35.113 59.276 66.571
H 41.927 59.282 74.126
H 43.423 59.548 74.108
H 35.69 60.0 67.775
H 41.487 54.352 66.472
H 41.95 55.232 67.619
H 41.024 43.678 69.851
H 41.814 42.393 70.03
H 37.721 55.995 73.684
H 37.137 56.412 75.023
H 45.053 55.486 67.293
H 45.827 54.519 68.172
H 39.694 61.844 69.734
H 40.245 60.629 70.459
H 47.273 53.004 71.872
H 47.334 54.219 72.781
H 43.3 56.069 72.036
H 37.99 64.956 70.221
H 36.892 63.909 70.165
H 44.055 55.302 73.108
H 41.492 55.071 64.392
H 45.549 58.013 75.5
H 45.977 59.355 74.932
H 34.518 48.284 70.928
H 35.214 46.965 70.641
H 44.537 52.277 76.713
H 50.118 53.175 73.505
H 43.505 52.498 77.805
H 44.471 47.411 78.206
H 43.237 47.223 77.341
H 43.31 53.857 64.148
H 41.845 56.68 65.945
H 42.428 58.065 66.163
H 49.599 55.493 70.149
H 48.635 55.477 68.976
H 40.37 55.562 70.798
H 39.435 54.767 69.904
H 45.841 60.001 71.945
H 47.193 59.377 71.648
H 43.574 53.887 66.988
H 43.073 53.145 68.215
H 46.493 52.761 77.619
H 46.547 52.954 76.114
H 42.89 52.83 65.185
H 40.525 53.866 72.678
H 39.563 54.988 73.028
H 47.431 49.422 68.671
H 48.904 49.399 68.304
H 39.486 58.643 64.953
H 40.875 58.217 64.51
H 37.01 48.214 70.993
H 36.802 49.59 71.601
H 44.471 58.295 71.413
H 45.739 58.102 70.6
H 42.204 50.373 75.594
H 41.092 50.557 74.576
H 43.818 49.004 68.115
H 45.271 48.58 67.991
H 40.041 56.314 67.458
H 39.349 54.989 67.188
H 33.726 56.785 64.851
H 32.723 56.329 65.897
H 45.41 54.664 65.141
H 41.188 51.759 66.077
H 44.493 52.47 72.319
H 43.178 51.714 72.242
H 39.637 63.829 71.642
H 41.473 45.916 70.939
H 40.522 63.215 72.713
H 40.554 46.559 71.962
H 41.149 52.222 67.523
H 38.707 48.538 67.324
H 37.394 49.054 67.884
H 45.613 51.075 69.241
H 45.137 52.517 69.281
H 40.488 51.49 71.131
H 40.614 51.632 72.637
H 37.644 45.571 74.833
H 37.575 44.054 74.831
H 38.415 50.12 65.21
H 39.885 50.056 65.583
H 42.124 51.624 69.49
H 43.066 50.469 69.777
H 37.535 51.431 74.103
H 39.01 51.069 74.081
H 42.9 50.885 63.013
H 46.754 57.029 73.012
H 45.594 56.554 72.155
H 37.828 46.188 71.248
H 38.62 45.52 70.138
H 43.314 59.93 68.291
H 43.323 58.597 69.02
H 42.711 60.809 70.435
H 42.594 59.399 70.986
H 44.472 62.122 70.798
H 40.504 52.611 75.105
H 39.298 53.485 75.402
H 35.391 56.511 67.055
H 34.458 56.156 68.2
H 44.269 49.477 77.306
H 42.942 50.114 77.677
H 35.921 54.499 74.538
H 37.133 53.584 74.534
H 49.021 57.324 75.092
H 49.685 56.001 75.434
H 34.284 57.518 71.636
H 38.897 46.186 68.064
H 40.153 47.475 66.059
H 47.225 56.125 76.175
H 44.123 55.641 69.92
H 46.35 56.042 74.936
H 44.671 45.276 75.315
H 43.702 46.445 75.314
H 38.17 52.241 65.694
H 35.545 45.027 74.459
H 34.906 43.822 73.792
H 35.183 58.618 71.1
H 42.625 55.755 69.693
H 36.98 57.28 64.976
H 35.864 56.289 64.692
H 36.466 55.708 71.897
H 36.766 57.184 72.096
H 43.529 53.636 70.686
H 42.078 53.693 70.242
H 47.955 57.038 65.981
H 46.642 56.275 65.992
H 45.253 52.047 66.979
H 43.806 51.628 66.783
H 35.864 53.546 64.169
H 35.22 54.285 65.329
H 40.859 60.162 68.399
H 39.775 60.497 67.389
H 39.834 60.312 74.273
H 38.325 60.474 74.204
H 43.36 49.982 65.29
H 42.46 48.87 65.8
H 39.86 49.008 73.616
H 39.676 49.677 72.265
H 39.482 57.96 74.022
H 38.231 58.461 73.321
H 42.244 55.881 74.215
H 42.425 54.373 74.257
H 45.274 47.919 71.072
H 46.749 47.562 71.035
H 46.543 54.758 70.762
H 46.909 56.194 70.429
H 47.891 49.825 78.15
H 48.266 50.015 76.691
H 41.372 49.514 68.247
H 40.098 50.188 67.769
H 47.347 51.462 67.82
H 45.83 50.05 71.177
H 47.189 50.49 70.662
H 46.103 50.895 74.824
H 44.683 50.527 74.431
H 45.851 49.843 65.082
H 39.262 44.317 73.444
H 40.534 45.126 73.631
H 38.372 57.355 68.846
H 36.971 57.479 68.273
H 37.183 54.771 66.607
H 36.274 54.626 67.815
H 34.602 50.689 69.719
H 35.123 51.16 71.066
H 40.648 49.131 70.368
H 39.189 48.794 70.116
H 46.198 60.619 68.663
H 35.204 49.673 67.583
H 41.959 62.883 67.94
H 40.457 62.746 67.769
H 42.432 46.919 68.9
H 42.046 47.534 67.566
H 49.415 48.874 72.882
H 49.613 50.149 73.683
H 37.738 62.83 68.443
H 33.653 52.631 66.98
H 35.149 52.467 67.181
H 40.742 47.164 74.431
H 42.189 47.502 74.117
H 38.137 51.622 70.689
H 37.78 52.506 71.871
H 47.002 53.359 66.717
H 47.867 54.578 66.986
H 44.953 52.762 74.608
H 45.521 54.124 74.249
