124
xyz format
Cl 64.214 44.247 60.337
O 61.976 45.353 59.134
O 63.229 49.027 63.19
O 60.252 42.998 62.523
O 60.311 48.424 64.719
O 64.723 51.009 61.033
O 61.15 51.715 61.861
O 64.323 47.801 55.339
O 65.019 50.15 57.858
O 63.193 49.181 57.119
O 63.124 43.232 58.701
O 62.014 41.787 56.626
O 59.294 51.231 58.69
O 61.932 50.662 59.556
O 59.475 44.985 61.593
O 67.535 49.778 57.797
O 63.522 44.213 54.656
O 64.067 41.072 56.855
O 64.053 41.016 60.357
O 57.282 42.24 61.23
O 62.882 52.385 57.515
O 65.57 48.977 59.756
O 62.008 47.645 59.223
O 65.078 46.072 59.477
O 58.309 42.437 58.624
O 63.169 46.44 57.641
O 65.903 43.125 57.056
O 57.603 48.38 59.05
O 61.065 47.323 62.157
O 54.503 48.568 61.921
O 65.009 47.781 61.968
O 60.328 50.152 63.318
O 58.218 51.392 64.638
O 65.206 45.478 56.278
O 56.714 49.376 62.964
O 59.036 49.134 60.538
O 58.266 52.377 61.636
O 57.213 45.272 59.184
O 55.395 46.924 60.065
O 62.204 51.375 64.503
O 56.832 46.309 62.245
O 61.245 42.632 60.381
O 59.899 46.772 58.819
H 61.585 40.943 59.014
H 54.436 47.605 61.924
H 54.675 48.784 60.996
H 66.045 45.89 56.522
H 65.27 45.377 55.32
H 60.702 48.127 62.55
H 57.466 45.708 62.655
H 56.299 46.62 62.988
H 61.806 47.099 62.734
H 58.423 50.668 65.243
H 62.918 44.977 61.962
H 62.733 43.484 61.756
H 58.623 45.004 56.428
H 60.182 51.021 63.711
H 59.444 49.871 63.05
H 65.453 47.239 61.304
H 64.342 48.263 61.464
H 55.778 50.537 57.663
H 58.356 49.648 60.99
H 59.861 49.456 60.924
H 58.366 51.542 62.11
H 57.503 52.228 61.064
H 56.355 49.734 62.143
H 57.311 48.677 62.668
H 65.563 46.251 58.662
H 57.897 47.635 58.51
H 57.346 49.046 58.401
H 62.868 46.052 56.809
H 63.819 47.098 57.365
H 64.364 46.721 59.467
H 58.195 42.874 57.771
H 67.088 52.116 57.69
H 66.706 51.342 56.441
H 61.546 48.383 58.805
H 61.877 47.797 60.167
H 65.953 48.365 59.116
H 63.566 41.816 60.591
H 63.741 40.81 59.467
H 57.052 42.978 60.651
H 60.811 44.255 56.363
H 60.09 42.948 56.643
H 64.235 41.736 57.535
H 57.784 44.494 59.201
H 57.228 45.547 58.259
H 62.037 52.042 57.831
H 63.447 52.36 58.298
H 64.092 43.539 55.047
H 67.4 50.082 58.703
H 64.164 50.056 54.737
H 59.517 45.909 59.025
H 59.803 47.267 59.642
H 62.258 51.468 59.976
H 61.969 50.004 60.261
H 59.99 45.679 61.163
H 59.221 44.403 60.865
H 62.294 51.415 55.616
H 58.753 51.264 59.489
H 60.041 51.807 58.894
H 62.471 42.496 56.155
H 59.352 46.686 63.756
H 65.37 49.502 57.234
H 64.734 50.88 57.294
H 63.435 43.753 57.95
H 62.75 49.369 56.283
H 62.834 49.843 57.724
H 62.213 43.013 58.466
H 60.844 52.588 62.139
H 64.177 51.43 61.708
H 64.112 50.412 60.583
H 55.34 46.422 59.242
H 56.345 47.008 60.219
H 59.531 48.346 65.283
H 59.754 43.491 63.187
H 62.035 51.651 62.241
H 63.397 47.541 55.252
H 61.635 44.706 59.763
H 61.547 45.113 58.303
H 60.365 42.471 60.02
H 61.384 41.892 60.986
H 62.421 49.014 63.717
H 63.048 49.687 62.509
