357
xyz format
O 41.412 59.904 45.339
O 43.898 59.337 44.775
O 41.578 68.754 43.816
O 39.268 67.762 44.279
O 51.751 59.64 43.556
O 43.198 71.925 49.376
O 48.479 61.247 49.622
O 44.544 69.498 54.368
O 53.925 62.227 47.433
O 47.572 65.923 41.657
O 41.36 64.47 42.569
O 51.937 69.553 51.704
O 49.158 68.118 50.586
O 44.064 70.738 47.13
O 44.439 61.737 54.351
O 43.014 57.352 50.28
O 47.46 69.791 41.186
O 44.923 69.41 49.975
O 44.215 68.372 39.428
O 48.185 65.582 49.733
O 48.723 61.078 40.356
O 54.545 65.38 49.164
O 50.45 60.463 41.983
O 47.823 59.757 44.75
O 42.7 66.81 51.56
O 43.801 59.878 48.48
O 45.669 62.484 44.645
O 44.145 66.322 55.699
O 57.659 64.519 48.088
O 46.791 61.459 46.866
O 54.162 71.746 44.896
O 49.436 65.964 51.511
O 50.096 62.503 52.401
O 49.133 66.643 45.444
O 51.385 60.879 53.472
O 47.457 65.997 56.091
O 44.504 70.149 44.291
O 43.288 60.914 51.7
O 46.392 62.363 52.051
O 55.779 60.703 52.103
O 42.018 63.872 45.28
O 49.581 59.632 54.869
O 40.58 66.22 48.573
O 52.149 60.996 55.772
O 54.5 64.222 51.801
O 43.316 64.901 49.42
O 48.52 64.216 44.431
O 48.912 72.1 44.547
O 47.869 57.755 41.356
O 50.168 59.763 45.276
O 41.462 60.503 49.131
O 43.485 63.394 56.677
O 47.662 68.301 55.971
O 45.646 66.102 46.816
O 51.532 69.267 56.597
O 52.153 70.067 46.052
O 46.604 71.79 52.932
O 52.438 69.578 54.231
O 48.397 65.069 39.805
O 48.334 69.772 54.208
O 48.328 69.737 43.505
O 44.112 57.961 52.243
O 57.776 62.291 50.856
O 45.271 60.546 42.993
O 51.084 62.025 46.917
O 42.262 60.957 56.794
O 45.601 66.564 49.948
O 53.33 68.67 47.642
O 49.8 68.0 55.179
O 43.634 67.596 53.742
O 48.895 63.842 41.633
O 45.512 56.47 48.907
O 55.711 66.633 47.31
O 54.624 64.417 45.167
O 45.415 62.181 41.486
O 55.221 57.942 52.735
O 43.63 68.584 47.013
O 58.02 64.553 53.514
O 47.284 70.715 45.176
O 39.893 67.174 52.309
O 44.951 63.541 49.997
O 50.798 67.973 52.906
O 40.938 68.178 49.511
O 56.798 62.435 53.25
O 44.499 64.204 53.591
O 51.696 65.656 40.213
O 45.801 64.68 44.688
O 46.19 64.401 57.621
O 47.703 59.154 48.739
O 49.549 69.373 47.7
O 55.027 69.354 50.173
O 47.129 60.991 55.846
O 44.197 62.054 47.458
O 46.846 56.204 46.256
O 44.177 64.688 41.352
O 50.899 67.52 41.25
O 50.905 62.574 44.425
O 40.528 62.488 46.463
O 51.839 62.809 41.651
O 50.216 64.356 56.489
O 45.407 72.069 49.331
O 43.051 65.884 44.539
O 45.625 57.874 45.407
O 47.96 60.817 42.826
O 46.644 68.847 52.456
O 47.759 65.644 47.534
O 40.496 68.562 45.922
O 46.269 67.635 39.724
O 49.873 69.62 45.066
O 52.588 64.842 52.716
O 50.93 71.658 47.087
O 42.028 61.824 43.179
O 44.655 67.068 42.12
O 46.554 63.974 55.049
O 42.133 66.588 46.963
O 49.576 58.58 52.507
O 40.689 60.948 52.072
O 52.012 63.466 48.398
O 43.944 71.675 52.405
O 38.49 63.281 46.223
O 46.46 73.561 50.56
O 51.192 66.775 48.366
O 45.643 59.188 41.251
O 56.23 60.142 49.067
O 42.354 69.544 51.287
O 53.609 61.002 51.89
O 43.115 70.201 40.65
O 49.013 70.417 51.058
O 49.821 63.232 39.043
O 47.396 65.304 52.568
O 49.277 63.91 50.661
H 50.166 67.142 40.749
H 44.348 60.781 43.151
H 45.619 60.375 43.877
H 49.515 64.756 57.018
H 45.561 71.49 48.575
H 45.131 72.903 48.929
H 52.089 63.519 42.254
H 52.386 62.065 41.933
H 47.484 65.666 53.458
H 46.544 65.642 52.266
H 51.871 61.497 47.099
H 50.534 61.896 47.7
H 49.247 63.066 38.285
H 46.838 65.028 57.966
H 45.738 64.896 56.927
H 50.569 63.711 38.665
H 46.924 59.319 49.285
H 47.347 59.094 47.843
H 51.764 62.316 44.068
H 50.472 63.017 43.684
H 54.176 69.699 49.875
H 55.593 69.437 49.395
H 45.156 58.413 40.944
H 46.34 59.297 40.592
H 49.112 69.992 48.298
H 50.217 68.951 48.254
H 41.431 62.378 46.784
H 40.582 62.226 45.535
H 50.919 71.133 42.719
H 46.791 71.289 45.776
H 47.518 69.956 45.725
H 50.528 66.69 47.67
H 50.802 66.306 49.114
H 44.432 63.459 52.981
H 44.58 64.97 53.01
H 45.417 57.425 49.012
H 55.115 67.328 47.615
H 56.197 66.382 48.105
H 55.161 64.224 45.945
H 43.173 68.226 53.175
H 57.103 61.787 53.898
H 56.321 63.084 53.782
H 43.064 66.817 53.729
H 51.609 64.733 40.483
H 44.598 71.665 51.695
H 43.106 71.532 51.947
H 51.275 63.505 49.019
H 44.73 61.839 40.898
H 46.097 62.501 40.882
H 52.79 63.58 48.957
H 57.326 64.834 52.905
H 49.086 59.214 51.969
H 48.918 58.254 53.133
H 54.384 58.423 52.746
H 47.589 69.124 43.409
H 44.122 58.893 51.99
H 48.935 69.476 42.801
H 48.701 63.202 40.938
H 49.857 63.923 41.608
H 44.395 68.569 47.602
H 42.877 68.63 47.615
H 44.136 67.75 42.563
H 45.271 66.769 42.8
H 48.35 58.456 40.9
H 47.607 57.156 40.645
H 48.519 72.564 45.297
H 49.333 72.804 44.037
H 42.603 61.857 43.954
H 50.988 60.171 45.582
H 50.376 58.82 45.253
H 47.758 64.65 39.215
H 49.086 65.387 39.208
H 49.691 70.311 45.715
H 47.114 67.989 39.419
H 50.252 67.172 55.383
H 48.326 63.327 44.11
H 48.61 64.737 43.624
H 49.229 67.773 54.435
H 46.141 66.848 39.179
H 49.742 68.801 45.561
H 42.193 61.076 55.838
H 53.364 69.616 47.832
H 45.859 67.44 50.262
H 45.103 66.193 50.687
H 52.899 68.294 48.42
H 46.761 71.459 52.039
H 46.335 65.206 44.08
H 46.427 64.417 45.374
H 48.023 68.256 56.865
H 46.725 68.488 56.111
H 46.658 70.999 53.483
H 44.485 62.926 47.161
H 43.398 62.237 47.968
H 45.817 68.84 51.958
H 46.798 67.916 52.657
H 47.774 66.54 47.174
H 48.05 65.095 46.796
H 43.6 64.392 40.637
H 45.06 64.441 41.052
H 47.452 60.45 56.577
H 46.262 61.291 56.148
H 45.461 57.822 44.457
H 46.027 58.744 45.522
H 52.069 69.691 45.167
H 51.555 69.53 46.587
H 52.193 69.939 56.391
H 51.852 68.481 56.136
H 42.496 66.034 43.763
H 43.921 65.695 44.165
H 52.552 68.636 54.056
H 51.513 69.742 54.01
H 44.978 65.415 46.708
H 45.549 66.643 46.023
H 42.125 60.65 49.817
H 40.728 60.093 49.605
H 48.784 70.064 53.405
H 48.371 70.545 54.786
H 43.654 64.068 56.006
H 42.522 63.356 56.726
H 40.259 68.211 46.79
H 41.12 69.27 46.123
H 54.723 63.373 51.399
H 54.654 64.078 52.743
H 52.488 63.967 53.113
H 52.763 65.417 53.471
H 42.991 61.813 51.512
H 43.313 60.878 52.665
H 43.836 65.591 48.991
H 43.006 64.358 48.685
H 51.601 71.407 47.734
H 50.142 71.815 47.623
H 40.153 66.017 47.731
H 41.079 65.419 48.776
H 55.739 61.186 51.269
H 56.524 60.1 51.984
H 42.962 63.672 45.304
H 41.921 64.593 45.916
H 50.258 58.952 54.765
H 49.447 59.678 55.824
H 45.593 61.822 52.078
H 46.695 62.278 51.138
H 52.026 58.747 43.799
H 52.441 60.202 43.931
H 44.455 69.756 43.411
H 52.079 60.238 53.273
H 50.588 60.476 53.105
H 46.816 66.334 55.452
H 48.31 66.182 55.679
H 50.432 63.388 52.587
H 50.477 62.289 51.54
H 48.293 66.398 45.037
H 49.639 65.821 45.439
H 50.3 65.569 51.686
H 49.258 66.485 52.304
H 46.187 61.091 47.524
H 46.813 62.401 47.075
H 57.31 64.471 48.987
H 44.669 65.966 54.97
H 44.798 66.768 56.253
H 43.039 65.92 51.397
H 43.279 67.375 51.033
H 52.033 60.087 55.468
H 52.764 60.913 56.512
H 43.184 60.036 47.754
H 44.416 59.227 48.119
H 48.217 58.876 44.774
H 48.025 60.122 45.621
H 48.974 60.57 39.575
H 47.761 61.126 40.299
H 54.804 64.451 49.113
H 46.56 62.143 44.787
H 45.618 62.604 43.689
H 54.671 65.602 50.095
H 47.473 65.04 50.095
H 47.767 66.44 49.586
H 50.027 61.291 42.24
H 49.718 59.836 41.935
H 46.714 66.132 41.267
H 48.122 66.68 41.421
H 54.764 62.503 47.821
H 53.619 63.014 46.965
H 40.945 64.153 41.756
H 42.299 64.294 42.43
H 43.077 66.458 47.116
H 44.35 70.178 50.093
H 45.811 69.788 49.948
H 45.208 61.177 54.183
H 44.26 61.605 55.29
H 40.797 61.56 51.333
H 40.119 60.256 51.714
H 42.101 67.072 46.129
H 43.791 67.872 40.137
H 41.832 67.821 49.434
H 40.27 67.057 51.428
H 50.13 68.548 52.511
H 51.194 67.527 52.147
H 45.184 62.696 49.593
H 44.458 63.29 50.787
H 44.864 70.622 46.602
H 43.353 70.702 46.479
H 44.888 70.363 54.624
H 45.311 68.917 54.439
H 47.35 63.445 54.914
H 45.859 63.315 55.171
H 52.542 70.306 51.698
H 51.909 69.275 50.78
H 48.715 68.416 49.781
H 50.077 68.005 50.313
H 47.668 61.693 42.543
H 48.002 61.901 49.096
H 49.093 60.849 48.992
H 47.443 60.215 42.276
H 42.762 71.265 48.823
H 42.484 72.273 49.924
H 48.192 69.965 51.288
H 48.72 71.282 50.748
H 42.08 68.207 43.199
H 43.953 59.514 45.723
H 43.334 57.919 49.567
H 46.852 69.057 41.337
H 48.572 63.425 51.108
H 49.2 63.63 49.741
H 42.202 69.789 50.365
H 41.648 68.914 51.476
H 53.106 61.386 51.161
H 53.736 61.742 52.497
