45
xyz format
O 18.271 22.452 8.081
H 18.632 21.922 8.847
H 17.65 21.813 7.625
O 13.997 7.978 19.861
H 14.868 8.002 20.35
H 14.17 7.352 19.102
O 20.415 21.219 8.38
H 20.104 22.169 8.396
H 20.703 21.049 9.322
O 20.928 17.883 29.113
H 20.653 18.552 28.424
H 24.332 31.551 23.905
H 17.813 20.193 8.735
H 17.993 21.151 10.262
O 18.668 20.118 8.22
H 18.404 19.611 7.399
O 18.704 20.465 10.109
H 19.494 21.005 9.819
O 16.179 7.973 18.838
H 15.811 8.61 19.516
H 17.002 7.611 19.277
O 14.267 8.489 17.721
H 14.805 9.323 17.839
H 14.352 8.289 16.745
O 15.161 6.761 17.608
H 16.124 6.787 17.336
H 15.183 6.326 18.507
H 21.015 17.032 28.595
O 22.209 18.454 31.444
H 22.019 17.741 30.769
H 23.619 17.412 30.982
H 22.325 19.278 30.89
O 23.331 20.541 29.905
H 23.335 19.962 29.09
O 24.213 29.125 21.625
H 23.525 29.555 21.04
H 25.014 29.052 21.031
O 26.327 28.703 23.12
H 25.858 29.103 22.333
O 24.061 30.746 23.377
H 24.483 30.899 22.483
O 23.957 28.645 23.912
H 23.635 27.724 23.693
H 24.334 28.551 24.832
H 25.583 28.476 23.748
