36
xyz format
H 23.619 17.412 30.982
O 23.957 28.645 23.912
H 23.635 27.724 23.693
H 24.334 28.551 24.832
O 14.267 8.489 17.721
H 14.805 9.323 17.839
H 14.352 8.289 16.745
O 23.331 20.541 29.905
H 23.335 19.962 29.09
H 24.221 20.363 30.325
O 15.161 6.761 17.608
O 24.061 30.746 23.377
O 20.928 17.883 29.113
H 21.015 17.032 28.595
O 22.209 18.454 31.444
H 22.019 17.741 30.769
O 24.51 17.528 31.42
H 24.52 18.492 31.684
H 22.325 19.278 30.89
O 24.213 29.125 21.625
H 23.525 29.555 21.04
H 25.014 29.052 21.031
O 26.327 28.703 23.12
H 25.858 29.103 22.333
H 24.483 30.899 22.483
H 25.583 28.476 23.748
H 24.332 31.551 23.905
H 14.17 7.352 19.102
O 16.179 7.973 18.838
H 15.811 8.61 19.516
H 17.002 7.611 19.277
H 16.124 6.787 17.336
H 15.183 6.326 18.507
O 13.997 7.978 19.861
H 14.868 8.002 20.35
H 20.653 18.552 28.424
